LAMMPS data file via write_data, version 22 Jul 2025, timestep = 75000, units = metal

4032 atoms
2 atom types

-3.102186750527061 44.15018675052754 xlo xhi
2.2038812512085 38.42310274878814 ylo yhi
0.714214409249788 41.44178559075104 zlo zhi

Masses

1 47.88
2 26.982

Atoms # atomic

38 2 -1.4455739016350844 8.566213514769393 0.8558288498768472 0 0 0
37 1 -3.077800736627435 6.3633601510989415 0.9784957133773267 0 0 0
292 1 0.08800619795548137 4.037904286789983 3.06662921368494 0 0 0
580 2 3.716231800420567 4.144784795415026 3.038517827920484 0 0 0
868 1 7.061244749988996 3.9067920857502285 2.917503447576709 0 0 0
1156 1 10.231449731051955 4.17237385625902 2.9911416697691333 0 0 0
938 1 8.706673307016922 13.275637199706127 0.7160482025865859 0 0 0
3 1 -1.3093906743640302 6.361391071197559 3.176911404775582 0 0 0
578 1 5.433102269407238 4.026248840364142 0.8419368244990177 0 0 0
291 1 1.905090133340115 6.255159708138376 2.9831251253287494 0 0 0
579 1 5.392250354420247 6.1469192764467095 2.9505701915624702 0 0 0
867 2 8.643505458756918 6.510512295225434 2.9724489509035745 0 0 0
1155 1 12.035972423616201 6.2516795350086705 3.2206537854951427 0 0 0
39 1 -1.2678649310765484 10.754168259437684 3.048507980148852 0 0 0
113 1 -3.0622857875180918 15.36881980790443 5.256844385124154 0 0 0
328 1 0.3413237154769675 8.440470979434263 3.162606262412537 0 0 0
327 1 1.8939523291597582 10.779986295764767 3.010097746841303 0 0 0
1009 2 7.044614189531465 20.017069954553033 0.8860831681123045 0 0 0
112 2 -3.0628175704042864 17.67284904577626 2.8731936763797132 0 0 0
361 1 0.27234755906659336 10.822798091746552 0.7875545571588207 0 0 0
616 2 3.6260043466511616 8.434403082072777 2.9458772900240584 0 0 0
615 1 5.0991885622795525 10.78470245768934 2.870635141379696 0 0 0
116 1 -3.088966786867511 17.69906707904172 7.5926876817062325 0 0 0
904 1 6.62605328497645 8.455258786677486 3.1007239999676997 0 0 0
903 1 8.409824513638082 10.706688253973494 2.951558853565637 0 0 0
77 1 -3.0894011663502567 10.796884607523264 5.37198120412563 0 0 0
1192 1 10.367538259102526 8.68955899191064 2.916583207927657 0 0 0
1191 1 12.105381649727864 10.91655660822132 2.829305122616828 0 0 0
364 2 0.3744300925054649 13.090850853117995 3.016339456706794 0 0 0
652 1 3.48275194926329 13.124099089093281 2.971192084335739 0 0 0
940 1 6.880974662084016 13.088177927630197 2.9442261975218216 0 0 0
1228 2 10.321314112545066 12.961004457919477 3.189181454517483 0 0 0
75 1 -1.3508708494036907 15.450447477073594 2.953710852180528 0 0 0
363 1 1.869648190423303 15.476256275370712 2.8587202631820627 0 0 0
651 1 5.160490762619581 15.480785572658684 3.0118819004309483 0 0 0
902 1 8.622078788496175 8.558481574772763 0.8366567988099322 0 0 0
939 1 8.719376224715221 15.273324122986304 3.0301742657543063 0 0 0
1227 1 11.93367756716083 15.210893133371755 3.0396028742430103 0 0 0
1301 1 10.515283782038136 19.827262430235887 5.262459373909478 0 0 0
111 1 -1.5243666425280644 20.082208277574598 3.137051275271214 0 0 0
80 1 -3.049180218522502 12.974174053441825 7.634647070458956 0 0 0
978 1 8.716112543976054 17.68932882638331 5.170064007301142 0 0 0
400 1 0.16902801029257963 17.795918527261833 3.023443887911533 0 0 0
399 1 2.0249960557099675 19.882684289467758 2.918085168438751 0 0 0
688 2 3.6449284541746256 17.710151985613635 2.7489751055071308 0 0 0
687 1 5.163926022869328 19.90456804777946 2.8056756437534793 0 0 0
1268 1 10.308481142269168 17.68990869342722 7.414118644772137 0 0 0
979 1 8.56273524349041 19.84670367087406 7.4251230805748225 0 0 0
975 1 8.768297652303005 19.979539519645908 2.971861323313774 0 0 0
976 1 6.980620510294289 17.726553344625103 3.139765512593261 0 0 0
1266 1 12.230136246930801 17.71044641598292 5.193965312226914 0 0 0
1264 1 10.659365805722663 17.676631216317958 2.9447372878835805 0 0 0
1263 1 12.255242843842813 19.82373839327724 2.943627799786783 0 0 0
6 1 -1.492898026865903 3.9675107812464745 5.388837852012891 0 0 0
296 1 0.18775853700025547 3.965049497943261 7.57373913518359 0 0 0
294 1 2.014258355491298 3.9706558477911083 5.418138349959772 0 0 0
584 1 3.6043235442413217 4.061414207817356 7.668035594376658 0 0 0
582 1 5.256487662560675 4.255751980638534 5.252269551028207 0 0 0
872 1 6.982288053288665 4.101831546265329 7.535921091624149 0 0 0
870 1 8.549136113206478 3.972351654516629 5.325773782741837 0 0 0
1158 1 12.11432393533059 4.125398838277034 5.197021905737764 0 0 0
1160 1 10.114802632576469 4.130468601066723 7.619486850818566 0 0 0
76 1 -2.988707514877225 13.16272216493072 2.940265518367456 0 0 0
7 1 -1.4310585258468824 6.429284029073163 7.845309782496822 0 0 0
329 1 0.311801915962298 6.1988385590584185 5.416344810119501 0 0 0
295 2 1.8418611982523774 6.252865637584889 7.746264627167977 0 0 0
617 1 3.633596142275031 6.380424170627732 5.3170436003221235 0 0 0
583 1 5.315405761178184 6.286510997362301 7.627278707956871 0 0 0
905 1 6.997714890193265 6.412432170411601 5.1230602541893555 0 0 0
871 1 8.519654208825065 6.561674547915223 7.383236535816857 0 0 0
1159 1 11.944684562576576 6.35875990010775 7.54099894752182 0 0 0
1193 1 10.281555679237032 6.172259762443393 5.210123012542821 0 0 0
1267 1 12.188675899061538 19.974834847553623 7.497184154615139 0 0 0
42 1 -1.460721862344289 8.6041107014434 5.440570619424097 0 0 0
43 1 -1.6020406180330287 10.708912279780568 7.617462047425886 0 0 0
332 1 0.40082231873467355 8.550276635457262 7.66043066019545 0 0 0
330 1 2.0989939539857487 8.636292321874366 5.393065854989987 0 0 0
331 1 2.02572096204729 10.801861002000159 7.653034761322345 0 0 0
365 1 0.5145265780033279 10.959685220180527 5.343040591931648 0 0 0
620 2 3.586130601879098 8.308012693417528 7.712416654980913 0 0 0
618 1 5.124013499158604 8.673324785497345 5.315822256902007 0 0 0
619 1 5.1895035251043105 10.935560041423294 7.53091890330957 0 0 0
653 2 3.440870525684852 11.059073277536886 5.211067339793293 0 0 0
908 1 6.8174144549507325 8.685786614232637 7.608206847347054 0 0 0
906 1 8.641591502924861 8.65623824845456 5.1285568284999785 0 0 0
907 1 8.57175649962871 10.88077553341828 7.435426990563341 0 0 0
941 1 6.782211772517583 10.86938657670101 5.1797371009977935 0 0 0
1196 1 10.321218548436988 8.668244795045858 7.50598330725384 0 0 0
1194 1 11.872608015718834 8.541313057451635 5.230469462362631 0 0 0
1195 1 12.0986942303423 10.893525620454565 7.523385179107301 0 0 0
1229 1 10.391291477124847 10.862712409212277 5.265713751944556 0 0 0
78 1 -1.3075631825677536 13.11173515382352 5.393199389230818 0 0 0
368 1 0.13508988797126298 13.036421466363379 7.681586543932576 0 0 0
366 1 1.9093264785970354 13.290156392805338 5.311604275410607 0 0 0
656 1 3.5195023481016734 13.055561649785766 7.586086985769814 0 0 0
654 1 5.227550251663931 13.289373788827092 5.296012581370471 0 0 0
944 1 6.846816666538661 13.279905604771544 7.511211354633997 0 0 0
942 1 8.503461959557203 13.0796271711426 5.232828795185218 0 0 0
1230 1 12.195136411802224 13.127323468059593 5.325153896488487 0 0 0
1232 1 10.38277034980248 13.027520498871773 7.417131180358058 0 0 0
79 1 -1.5245410975262133 15.39135466889472 7.509473188596514 0 0 0
401 1 0.24027825399934422 15.459847342118104 5.199632387860568 0 0 0
367 1 1.8690585427783453 15.268701709407393 7.4265794777507415 0 0 0
655 1 5.195695260177221 15.55101400512087 7.412481951405281 0 0 0
689 1 3.5390791141456712 15.316026719642466 5.220836308702301 0 0 0
977 2 6.926152567350723 15.500431158285215 5.146730776503943 0 0 0
943 1 8.610500510956847 15.359275003055043 7.449103030045741 0 0 0
1265 1 10.39874822505357 15.195091500307273 5.181255362836305 0 0 0
1231 1 12.029130601270438 15.309332134438854 7.516327695091649 0 0 0
115 1 -1.4344292329359642 19.907709692325056 7.456314544090359 0 0 0
114 1 -1.5337246767135193 17.789459669608643 5.186687824236901 0 0 0
402 1 2.013228364840287 17.762565470209932 5.119095260562629 0 0 0
403 2 1.8466322658250953 19.95035987176108 7.406899302300026 0 0 0
437 1 0.1662573951256472 19.938310757484466 5.383578311452388 0 0 0
404 1 0.30801283370985244 17.676291258174153 7.428655627087832 0 0 0
691 1 5.369619046388408 19.885134244790958 7.5647399627204965 0 0 0
692 1 3.480937594143222 17.67892403110246 7.472093893895527 0 0 0
725 1 3.645588380730968 20.02080170389396 5.246548513881732 0 0 0
690 1 5.027830200587635 17.70423726614583 5.18792191840528 0 0 0
980 1 7.073418365686983 17.652616272234546 7.31435384165569 0 0 0
1013 2 6.823479961963558 19.790160762160834 5.150540841777092 0 0 0
1189 1 10.442201338343105 6.363613638670422 0.8889371403341764 0 0 0
1154 1 12.180429446083526 4.185713344135918 0.9683463828634393 0 0 0
325 1 0.15655265082014802 6.207351037128753 0.8252922182229288 0 0 0
109 1 -3.031516803154735 15.277454699090777 0.7327408546601343 0 0 0
290 1 1.8953735724693455 4.050668793302214 0.9029505652831108 0 0 0
613 1 3.7433796506200623 6.1717620173669765 0.8387306360504689 0 0 0
866 1 8.675874193938645 4.181345457544551 0.736566673086369 0 0 0
40 1 -2.98731294541856 8.52702785685593 3.1894583139190513 0 0 0
41 2 -3.0983611611335755 6.332702405018658 5.425651888352335 0 0 0
2 1 -1.575213159250653 3.943063904331905 0.8048613945193734 0 0 0
686 1 5.434948322816236 17.695577364451395 0.7445212478631048 0 0 0
974 1 8.661433268990894 17.716165840737908 0.7832877910272246 0 0 0
326 1 1.8329381082541265 8.630801981497818 0.816217758235751 0 0 0
973 1 7.0125170953662455 15.272028063481276 0.8912762122198588 0 0 0
10 1 -1.4695534827499153 4.087733568067431 9.682049575045735 0 0 0
49 1 -3.034079243940017 6.277100820660865 14.522854061247019 0 0 0
300 1 0.15144344576253577 4.080930275740683 11.973756035382738 0 0 0
298 1 1.9020198041523284 4.169659671965173 9.786089800140955 0 0 0
588 1 3.499391642179256 4.0954405858669185 12.164865155727803 0 0 0
586 2 5.2362234401134895 4.196019930688514 9.945528108931033 0 0 0
876 1 7.0277338976822605 4.057024740222721 12.065619505163019 0 0 0
874 1 8.686773011623306 4.085277417671286 9.89218803364697 0 0 0
1164 1 10.336962464664875 3.9820476133645597 12.09130846746105 0 0 0
1162 1 11.860617104110254 4.111792559793091 9.6981555051361 0 0 0
11 2 -1.475860351594223 6.250357143290748 12.31404112442131 0 0 0
1276 1 10.341419317451809 17.60200870776307 16.299096816945866 0 0 0
333 1 0.17104110331761024 6.219864222842157 9.942512628448972 0 0 0
299 1 1.9252549524099787 6.2849039343280815 12.16507572930636 0 0 0
621 1 3.549751333346953 6.417662983856089 9.813052342708835 0 0 0
587 1 5.210123977327665 6.213217199692345 12.198448776435598 0 0 0
909 1 6.997737582543033 6.379909199590034 9.982135843020155 0 0 0
875 1 8.761941926572725 6.252934011329122 12.215299708739135 0 0 0
1163 1 11.825479403585733 6.186238865505112 12.241554645148765 0 0 0
1197 1 10.162614464528497 6.420067416557301 9.76113783300773 0 0 0
46 1 -1.4421262219673723 8.68485913013794 9.818255895296884 0 0 0
47 1 -1.3320384896577249 10.852651902164792 12.214469736614694 0 0 0
336 1 0.217432064820005 8.421716928894883 12.262696277738725 0 0 0
369 2 0.17730533118119096 10.913082710351333 9.740531036433504 0 0 0
334 1 1.8932446430766023 8.60960405337434 9.875712914538818 0 0 0
335 1 1.6580015892434496 10.726631241845144 12.137175956338023 0 0 0
624 2 3.4752529338891684 8.739633178242169 12.114583783454052 0 0 0
622 1 5.230844154573974 8.53904292503887 9.858337576023926 0 0 0
623 1 5.362083969194456 10.655178513513833 12.10913639790039 0 0 0
657 1 3.5337321644599418 10.785817114632241 9.940410991313877 0 0 0
912 2 6.990342331832897 8.417951402896112 12.05617776548832 0 0 0
910 1 8.68951065669177 8.71254231035509 9.849224301697756 0 0 0
911 1 8.664039735415654 10.817933209230077 12.108288097142422 0 0 0
945 1 6.880318756242962 10.907772078654311 9.754968598226908 0 0 0
1200 1 10.338286823801962 8.591891408118595 12.146198253437017 0 0 0
1198 2 11.984660129964919 8.675147838389481 9.68741389327117 0 0 0
1199 1 12.113427043233202 10.840348957508928 11.818666535626866 0 0 0
1233 1 10.296674916295604 10.900512807449166 9.740270169766978 0 0 0
82 1 -1.5310169844922719 13.331793176337104 9.918688399146909 0 0 0
372 1 0.23057328755249618 13.108946751358998 12.125236514024552 0 0 0
370 1 1.9508593463944712 13.144958619941868 9.855494156045603 0 0 0
660 2 3.5577715848560607 13.046491327918163 11.984394809555809 0 0 0
658 1 5.1399366496667955 13.230033355505327 9.832077250519575 0 0 0
948 1 7.045699800627171 13.189347802717451 11.975854257046525 0 0 0
946 1 8.560528843012165 13.209263865768941 9.701866770697308 0 0 0
1234 2 12.1535726543332 13.084637085151314 9.678499312632772 0 0 0
1236 1 10.456660429590299 13.199242673577839 11.878533520064119 0 0 0
83 1 -1.54756984005597 15.328904988606919 11.985216555139047 0 0 0
1274 1 12.314052711375101 17.614684597773078 14.31206791962614 0 0 0
405 1 0.18624078639134467 15.427855228684301 9.672336099391288 0 0 0
371 1 2.0505805332618894 15.313432045812224 11.985665681709575 0 0 0
693 1 3.5933163631337073 15.41925377785952 9.67846878151363 0 0 0
659 1 5.29801613512881 15.444473803780692 12.047876659775367 0 0 0
981 1 6.747326609309393 15.40518960894473 9.740838258096948 0 0 0
947 2 8.64375913924592 15.402138233770023 11.826982524351529 0 0 0
1235 1 12.228815200450402 15.386832062624727 12.124960915469773 0 0 0
1269 1 10.507330887959169 15.477334339720032 9.767514115454086 0 0 0
118 2 -1.3141431427992205 17.767485386748568 9.721364119018986 0 0 0
119 1 -1.2915376145653896 20.00626352501238 12.031343036586726 0 0 0
12 1 -3.0396509976765764 4.064863308258836 12.139146295094843 0 0 0
408 1 0.22098799619043863 17.504135237940716 12.150540502166889 0 0 0
441 1 0.3860606743510453 20.067836447566165 9.803190517415342 0 0 0
406 1 1.8849142646034873 17.71262321634746 9.794061127634357 0 0 0
407 2 1.8378384079945085 19.72873573564383 12.09476384108401 0 0 0
696 1 3.633975421303641 17.656522791455487 12.01703099477366 0 0 0
694 1 5.373709754326308 17.69673448352367 9.635603734251045 0 0 0
695 1 5.274691782171466 19.97224014958769 11.949818499335715 0 0 0
729 1 3.521048441929945 20.036593851491055 9.773451379927392 0 0 0
1017 1 7.118695715574027 19.975152424140333 9.847217421056623 0 0 0
984 1 7.013643272698451 17.809475405508103 11.974282161811349 0 0 0
982 1 8.644186169230803 17.603555932085506 9.797565552802725 0 0 0
983 1 8.796083610198453 20.006035713610267 11.962559837393917 0 0 0
1305 1 10.255423393638099 20.02663302948246 9.572742921266821 0 0 0
1272 1 10.451395645781133 17.573432215919645 12.055128775301332 0 0 0
1270 2 12.103487487652778 17.860675911757006 9.68300420502936 0 0 0
1271 1 12.122266885475275 20.004876109215235 11.857655580994571 0 0 0
14 1 -1.4557627409215819 3.973004686969304 14.254403516284244 0 0 0
986 1 8.67157205634775 17.7755659651938 14.19557400114389 0 0 0
304 1 0.12827719497699297 4.027621315538541 16.547844511285046 0 0 0
302 1 1.817119562929261 4.000302695475886 14.381600817592041 0 0 0
592 2 3.614596936277271 4.018941321734045 16.37692738289555 0 0 0
590 1 5.350913032475161 4.107203233317729 14.228426889255136 0 0 0
880 1 7.010560105460106 3.9280464127547363 16.601627819286985 0 0 0
878 2 8.641304477352103 4.102021512665959 14.33114281758955 0 0 0
1166 1 11.988240713641208 3.8640496235833037 14.439429684179432 0 0 0
1168 1 10.125585817067282 3.967728753137041 16.613675853599617 0 0 0
15 1 -1.3547182043724597 6.52419319909149 16.873969812747152 0 0 0
1309 1 10.595482413552459 19.95248894309355 14.206216530960573 0 0 0
337 1 0.24140565280518622 6.486775776294417 14.608001788841028 0 0 0
303 1 1.8267779729388391 6.3913280089255355 16.689941063753025 0 0 0
625 1 3.50631814022981 6.21309319050207 14.505411137329572 0 0 0
591 1 5.176733884779571 6.240533342669764 16.613116260455705 0 0 0
913 1 6.943603139043628 6.358831889530075 14.348342555653769 0 0 0
879 1 8.51040767439678 6.2185664968267735 16.51249016003143 0 0 0
1167 1 12.184499958702132 6.163378941674401 16.592064039770058 0 0 0
1201 1 10.518181304081189 6.39969411037158 14.454613523279523 0 0 0
50 1 -1.5649808791419353 8.59145370844912 14.351217517381189 0 0 0
51 1 -1.4065055791948249 10.985730910316859 16.539450145867058 0 0 0
85 1 -3.0908427340770213 10.840795886866369 14.357260288468217 0 0 0
1275 1 12.1724688109628 19.68147003122324 16.488574444717866 0 0 0
373 1 0.27701715519176373 10.895480844605396 14.430996671802866 0 0 0
340 2 0.3105940443313955 8.769639234833374 16.585534456272352 0 0 0
338 1 2.1170639995451057 8.668767033951063 14.418699859942958 0 0 0
339 1 2.063329086856523 10.904672938663612 16.523789382503338 0 0 0
628 1 3.804825426182639 8.574732358575957 16.66581983896208 0 0 0
626 1 5.181554087430783 8.549409444013012 14.350595723286501 0 0 0
627 1 5.388958468212245 10.85944696041752 16.651751182687775 0 0 0
661 1 3.7680806670125944 10.922211856215219 14.28586038845746 0 0 0
916 1 6.9327933113645805 8.617619478401473 16.575639147849532 0 0 0
915 1 8.841982875021797 10.633052215481836 16.67457287480718 0 0 0
914 1 8.73029211374461 8.520331986941393 14.41711263250001 0 0 0
949 1 6.935533197287089 10.784237407509126 14.408963091083262 0 0 0
1204 2 10.462485103445193 8.40530067664292 16.58616522462499 0 0 0
1202 1 12.199581427769534 8.708704888647876 14.34439761234788 0 0 0
1203 1 12.09142121034116 10.904218043816272 16.618972894812206 0 0 0
1237 1 10.516871579375211 10.803174988466406 14.337343751822042 0 0 0
86 1 -1.3923057260661027 13.24959454446021 14.319419229076733 0 0 0
376 1 0.3035881264168103 13.158571842961534 16.49467314841813 0 0 0
374 1 2.0135248795040774 13.138815758190695 14.448063245471822 0 0 0
664 1 3.778373271577562 13.251573848085412 16.655351667694763 0 0 0
662 1 5.415574213076608 13.160501426450063 14.206939804294915 0 0 0
952 1 7.198423099863593 13.069299338883088 16.634147201958832 0 0 0
950 1 8.752382838855086 13.000339903916323 14.268872018032061 0 0 0
1238 2 12.009427327816308 13.33792824990877 14.245978143090772 0 0 0
1240 1 10.499698497771655 13.060799758284652 16.52803866151755 0 0 0
87 1 -1.4441318251697959 15.473018468906222 16.593254337803636 0 0 0
409 1 0.3373171180394139 15.329127885087985 14.237635798497397 0 0 0
375 1 1.8658541711991368 15.456339926750502 16.68322709298411 0 0 0
697 1 3.546026277201212 15.398001169872092 14.316367724791528 0 0 0
663 1 5.422719693170228 15.454649003167903 16.483062449608255 0 0 0
985 1 7.189426492538072 15.398167169098297 14.135661535277151 0 0 0
951 1 8.813606183903165 15.441671473198685 16.589077120029916 0 0 0
1239 1 12.142273891551861 15.418733710463933 16.399688675696993 0 0 0
1273 1 10.266821551937483 15.514925064073426 14.192598841851432 0 0 0
48 1 -2.9930597867058455 8.52683794865482 12.119017133380696 0 0 0
988 2 7.226343217815087 17.745353911492742 16.494669306747326 0 0 0
122 1 -1.272733231307519 17.545646509763277 14.358756656514712 0 0 0
123 1 -1.3869034124740327 19.834330821272946 16.679084364588142 0 0 0
445 1 0.14225561420614374 19.915360511847013 14.362614740890843 0 0 0
412 1 0.25196538559875314 17.711505062293085 16.551145478119473 0 0 0
411 1 2.0913027111841225 20.01312676780092 16.39333653288834 0 0 0
410 1 1.975792219069111 17.631382344410884 14.295675892681308 0 0 0
699 1 5.4696686728739525 19.940027968749533 16.45167169093192 0 0 0
733 1 3.75941471220321 19.951938296667333 14.188603619096394 0 0 0
700 1 3.6783158599883463 17.6508904296933 16.353317060407065 0 0 0
698 1 5.443669806211821 17.644223207550493 14.165557080658152 0 0 0
987 1 8.831599341268763 20.00549390347422 16.419512095766144 0 0 0
1021 1 7.078912095242231 20.091122736892977 14.166517896039712 0 0 0
88 1 -3.019249035846262 13.162144455788825 16.66305478241784 0 0 0
120 1 -3.055631800959696 17.755712413278776 11.99387698131896 0 0 0
157 1 -2.8462305113342428 20.002711466126872 14.262020855910157 0 0 0
153 1 -3.0434243810706145 19.947224672967717 9.838215313459546 0 0 0
18 2 -1.4587121829291272 4.221985551202673 18.893768217100263 0 0 0
306 1 2.0335550453672036 4.270283104440997 18.86049720388898 0 0 0
308 1 0.16308821436967547 4.09757515867738 21.002632645820857 0 0 0
594 1 5.0879505403135585 4.150114487992948 18.849678213735185 0 0 0
596 1 3.648952249768224 4.308322509690628 21.00099327638118 0 0 0
882 2 8.640263600760473 4.199347291820779 18.983912198763527 0 0 0
884 1 6.803309791108164 4.15808118983786 21.100973818470873 0 0 0
1170 1 12.149195889890809 4.13437482737001 18.734349822360414 0 0 0
1282 1 12.056537527014106 17.95533889138733 23.19191606886198 0 0 0
341 1 0.2523411782983729 6.448052771253625 19.007878757521407 0 0 0
307 1 1.875818775356589 6.307160947055776 21.251208637882897 0 0 0
629 2 3.657124674744773 6.584835530301914 18.936009728338306 0 0 0
595 1 5.27085238787984 6.400498916925309 21.119707608294064 0 0 0
917 1 6.741949382676804 6.320904259932466 18.8456742724396 0 0 0
883 1 8.787539834179187 6.301584483410607 20.974749743287582 0 0 0
1205 1 10.42296433628776 6.400950966321988 18.66283670065155 0 0 0
54 1 -1.2975247008012463 8.707428970332758 18.788242152793387 0 0 0
1317 1 10.442492745985902 20.092744933893716 23.344063084453126 0 0 0
342 1 1.907808602881953 8.662092066695756 18.93501232986984 0 0 0
377 1 0.3474690056431462 10.824486100266967 18.71887555130602 0 0 0
343 1 1.993785261863462 11.053020261558627 21.122094537275053 0 0 0
630 1 5.400165411341616 8.83886440181707 19.077908487562482 0 0 0
665 1 3.6757239250058302 11.008347422655044 18.933252912634796 0 0 0
631 1 5.414195890981436 10.87595231859538 21.172696588095413 0 0 0
632 1 3.677443053496615 8.596896170139619 21.25919601305732 0 0 0
918 1 8.581155938290875 8.520094742296877 18.918102902147204 0 0 0
953 2 7.049652691031099 11.032859051835304 18.787045859439687 0 0 0
919 1 8.63018039977692 10.730483827785896 21.002552373571405 0 0 0
1206 1 12.256188116600873 8.721512590472098 18.916673058858315 0 0 0
1241 1 10.546375163033357 10.77175474163589 18.73071622557092 0 0 0
1208 1 10.404926439967571 8.611950627391586 21.032467795456913 0 0 0
90 1 -1.3325118619601803 13.127036957266098 18.86349624875956 0 0 0
378 1 1.88249637340123 13.270918806361127 18.856965111380614 0 0 0
380 2 0.36272438690087583 13.253876984640367 21.11992158802976 0 0 0
666 1 5.315461333197247 13.188840970047112 19.066473271494143 0 0 0
954 1 8.94167099728049 13.03659384812016 18.705014621323677 0 0 0
956 1 7.319011009653396 13.111396084567088 20.915728413161347 0 0 0
1242 2 12.119011108170175 13.034536476517895 18.785110670483487 0 0 0
1244 1 10.436480596191831 13.04019322948095 21.007840292047177 0 0 0
89 1 -3.1013966394589554 11.019358112983435 18.779218129357997 0 0 0
413 1 0.13645185713353492 15.50015649297555 18.813166157930368 0 0 0
701 1 3.821102034904014 15.479914466441572 18.66249465314125 0 0 0
989 1 7.247808374213511 15.43181154369389 18.93366645704292 0 0 0
1277 1 10.557826459638253 15.348150337586752 18.833056980394158 0 0 0
1243 1 12.157224004710269 15.27363804023934 21.042544865626944 0 0 0
126 1 -1.5608360914936101 17.834343779871247 18.804918298924125 0 0 0
1029 2 6.940618421270743 19.924758638890513 23.41499305164248 0 0 0
414 2 2.091892857256154 17.631816906470853 18.83408937747963 0 0 0
449 1 0.6217995916309804 19.920867785256707 18.705158578868254 0 0 0
702 1 5.425887869442727 17.68674245066544 18.643566772289443 0 0 0
737 1 3.670735460605305 19.962173210059042 18.751888284608206 0 0 0
704 1 3.9225794261429194 17.619339482796168 20.977519357058323 0 0 0
1025 1 7.246747923920848 19.78575304735835 18.776748426656994 0 0 0
990 1 8.925944732187302 17.640362620909848 18.786519063771795 0 0 0
1278 2 12.054768862946872 17.705815146604706 18.5768834068718 0 0 0
1313 1 10.348560430981593 20.163704099981285 18.849070607746164 0 0 0
1279 1 12.172409881800437 20.008035287592342 21.07260483825385 0 0 0
1280 1 10.469906043453602 17.62997038055031 21.010370322295117 0 0 0
22 1 -1.3927307644119014 4.123978389605755 23.424967096022296 0 0 0
310 1 1.919413930093317 4.073415742824741 23.409322701217743 0 0 0
598 1 5.3151707748622155 4.085297742308014 23.452347849071934 0 0 0
886 1 8.526800101275166 4.123139222222819 23.307235328227975 0 0 0
1172 1 10.48011426585263 4.100347985191455 21.12016676389392 0 0 0
1174 1 11.998362678652544 4.163027035867797 23.457214336756113 0 0 0
19 1 -1.325937784311229 6.3867888683905285 21.107075931054293 0 0 0
345 1 0.21372754919522974 6.44444672528309 23.407040187103295 0 0 0
633 1 3.743670091748242 6.392583341136306 23.43220573507036 0 0 0
921 1 7.136951839162382 6.254454897940989 23.33528388485109 0 0 0
1171 1 11.998571532095674 6.430048589900858 21.160330798554355 0 0 0
1209 1 10.374703353160111 6.275378286145213 23.43458486305182 0 0 0
55 1 -1.1910015311889508 10.989325855194407 21.14796293484836 0 0 0
58 1 -1.5418899224238094 8.683082854940402 23.399123521671886 0 0 0
991 1 8.661670493814201 20.023950756705993 21.079422921757814 0 0 0
344 1 0.2945781930943925 8.65914613479583 21.288796317130256 0 0 0
346 1 2.0078605218098606 8.569996977689286 23.494530381025214 0 0 0
381 1 0.35097156127718065 10.924867799907487 23.319013785940513 0 0 0
634 1 5.336852597948781 8.610101391104998 23.457820684703936 0 0 0
669 1 3.622346966473629 10.885233311290266 23.406874648498313 0 0 0
920 2 7.123559643391381 8.523573247655154 21.190853939491245 0 0 0
922 1 8.637253259513527 8.736863030252131 23.454315984870664 0 0 0
957 1 7.113888769287641 10.921940478119712 23.397932001616727 0 0 0
1207 1 12.32219566160688 10.944475553706617 20.99528602018787 0 0 0
1210 1 12.000180580797972 8.355774077165025 23.4764368278717 0 0 0
1245 1 10.445860811320264 10.94285308222644 23.231076123674733 0 0 0
94 1 -1.252117925394261 13.161585430247557 23.402177082726933 0 0 0
382 1 2.0425445644550835 13.157660887251634 23.51574687728382 0 0 0
668 1 3.5974615284552462 13.134869988352458 21.24788804871082 0 0 0
670 1 5.251940498685544 13.159988480129558 23.385295977906928 0 0 0
958 1 8.854058646425424 13.097032477144731 23.284523365972934 0 0 0
1246 1 12.26184243196105 13.103503348183635 23.29329510689819 0 0 0
91 1 -1.5870323000019557 15.389735701826272 21.194219304320374 0 0 0
379 1 2.125375420977854 15.488842268404749 20.98551758902083 0 0 0
417 2 0.4853091685761286 15.588147772927494 23.189483657325138 0 0 0
667 2 5.5446889102150205 15.314830372039339 21.155973890928994 0 0 0
705 1 3.6702698876735798 15.503549702302713 23.396115732908008 0 0 0
955 1 8.92505608552568 15.3087760816782 21.175756496392285 0 0 0
993 1 7.2150105512689855 15.383977329248488 23.435781639035895 0 0 0
1281 1 10.729068396703655 15.46440374973898 23.299420928496 0 0 0
127 1 -1.2500403982145192 19.89769143082306 20.973209814723706 0 0 0
130 1 -1.4232509228974441 17.533064283769974 23.274627927121344 0 0 0
415 1 2.0395203817673644 19.87344176916817 21.043109220597977 0 0 0
416 1 0.30554898403658326 17.662894950560705 21.09417682300007 0 0 0
453 1 0.38491404446733934 19.90785965241731 23.30558574410563 0 0 0
418 1 2.221028082122771 17.71236449272459 23.218235661666178 0 0 0
703 1 5.324990012775773 20.012761141829255 20.93621985631142 0 0 0
706 1 5.406730827553796 17.695631502905677 23.292225560513426 0 0 0
741 1 3.7943360687379344 20.002031959251568 23.163302532439403 0 0 0
994 1 8.832101791946998 17.59646634773754 23.402239062890036 0 0 0
992 1 7.146678068374344 17.561424418044886 21.102575503925227 0 0 0
93 2 -3.0678968255218653 10.95879641819278 23.17471942787282 0 0 0
20 1 -3.020867206933532 4.075214906406432 21.08746510663791 0 0 0
26 2 -1.53100938075583 4.0695454280163155 28.029676067512067 0 0 0
1037 1 6.890865094096826 19.975250830152774 32.26806232286065 0 0 0
312 1 0.20033929728205857 4.199235755157476 25.79987503751401 0 0 0
314 1 1.9936495203250133 4.227828453973209 28.06115171062524 0 0 0
600 1 3.673041324181036 4.095547328476574 25.684744807984885 0 0 0
602 1 5.422600090183355 4.139931935434625 27.939055075155274 0 0 0
888 2 7.070302260054465 4.063287377787447 25.69741430772785 0 0 0
890 1 8.706530283266126 4.170222226552638 28.05642760772868 0 0 0
1176 1 10.237672453613786 4.049810135010074 25.57914359104601 0 0 0
1178 1 12.013402996824482 4.049322827300403 27.912703131587513 0 0 0
23 1 -1.4483415835065798 6.377484053110862 25.653133735936418 0 0 0
1325 1 10.681919255798153 20.04560873770785 32.36188590827791 0 0 0
349 1 0.1472542947280533 6.222672606877637 27.8903904972743 0 0 0
311 1 1.8887760207208992 6.286200295514296 25.768400713255154 0 0 0
637 2 3.6636757356375704 6.43935400670778 27.966032088442656 0 0 0
599 1 5.361822923238124 6.43554986431578 25.750205610695126 0 0 0
925 1 6.984235370739736 6.431898327416543 27.896413602137113 0 0 0
887 1 8.714597028550045 6.255736113076225 25.62175494558201 0 0 0
1175 2 12.096475126786343 6.1186874248027525 25.627762088077404 0 0 0
1213 1 10.447759512529311 6.336269708203386 27.834959553538866 0 0 0
62 2 -1.4300481499314577 8.544405379992693 27.958041744075476 0 0 0
59 1 -1.58788040583129 10.897061771729321 25.450736092517722 0 0 0
385 1 0.26169206466087447 10.925821479192244 27.75729560999831 0 0 0
348 1 0.12362174870241116 8.69458294174078 25.62557847372108 0 0 0
350 1 1.7333892464264937 8.601817798048797 27.817506620497173 0 0 0
347 1 2.0014512609807933 10.850596779887853 25.583139767509063 0 0 0
636 1 3.620422785425505 8.507635328949021 25.785073742755145 0 0 0
673 2 3.70739942816765 10.791377611732162 27.849520138719527 0 0 0
638 1 5.491893460484679 8.746360492072466 27.9566377081687 0 0 0
635 1 5.441152411676908 10.744516585599886 25.59878097361501 0 0 0
924 1 7.189961614863977 8.651705197293545 25.63113412531426 0 0 0
923 1 8.954710917280313 10.96339930218998 25.476870413405386 0 0 0
926 1 8.802843527805688 8.457736077335511 27.99577954199898 0 0 0
961 1 7.132842605137698 10.86960497871222 27.812475692885425 0 0 0
1212 1 10.454871064349485 8.40875790821648 25.63313915041221 0 0 0
1214 1 12.1419189371834 8.600057812408217 27.93941489732027 0 0 0
1211 1 12.207183518337368 10.801358969387456 25.615831607150348 0 0 0
1249 1 10.319176681535502 10.780216684689325 27.87909069614572 0 0 0
98 1 -1.3623229835542576 13.093213766822494 27.857171331576655 0 0 0
1000 1 7.216171611197639 17.556731985846312 30.161355032604046 0 0 0
384 1 0.325834671722562 13.136862860360834 25.696253387264743 0 0 0
386 1 2.0199205789146855 13.176370875779698 27.839895703072994 0 0 0
672 1 3.6185968133207322 13.076664598482171 25.64332361132238 0 0 0
674 1 5.179522531217884 13.203896583875846 27.823438043947284 0 0 0
960 1 7.060068998414508 13.252923124857505 25.620095486016343 0 0 0
962 1 9.01881412207533 13.066675011164033 27.746900588191654 0 0 0
1248 1 10.673539485801514 13.133215604283109 25.450681878953734 0 0 0
1250 1 12.170841117326626 13.102659948010889 27.84954596350751 0 0 0
95 1 -1.1991022493911057 15.525159057933479 25.544713395185003 0 0 0
1290 1 11.95157987302909 17.521515039502646 32.47843769375036 0 0 0
421 1 0.2663680315857544 15.490212065681034 28.01290034171561 0 0 0
383 1 1.8505684516469851 15.536606601225898 25.594102122600955 0 0 0
709 1 3.6382049557706115 15.443115020177284 27.77061695585541 0 0 0
671 1 5.409565825902485 15.425562113129791 25.62314135227751 0 0 0
997 1 7.182370758959532 15.145152479257073 27.836425217765477 0 0 0
959 1 8.889217872662865 15.381726658092035 25.597655538754445 0 0 0
1247 1 12.226031575413392 15.445587083551736 25.640434775634052 0 0 0
1285 1 10.489336606923207 15.385885130961164 27.870123868321127 0 0 0
131 1 -1.6316054770897517 19.993346502526013 25.517237676767277 0 0 0
134 1 -1.4099993344769488 17.70989872576277 27.83288890983961 0 0 0
999 1 8.88187427892824 19.859007692306598 30.16702204566785 0 0 0
457 1 0.16305610335549003 20.136033808797887 27.785047252275348 0 0 0
420 1 0.25508625528000195 17.927554587320174 25.538591370885978 0 0 0
419 1 2.1750090508416595 20.01327133220481 25.607246447719028 0 0 0
422 1 1.9412135829602595 17.807563310229128 27.803569036749217 0 0 0
708 1 3.803921106198518 17.692770236308515 25.475258082452182 0 0 0
710 1 5.597833775446208 17.49961449421364 27.943258907685298 0 0 0
707 1 5.4170998482536366 20.145207620505914 25.57905304590775 0 0 0
745 1 3.6896609899154256 19.943953474848865 27.863756126940572 0 0 0
995 1 8.64655309425529 19.803538904945317 25.637013401125305 0 0 0
996 1 7.045094149498693 17.6586868620125 25.50584003759992 0 0 0
998 1 8.620924756355361 17.651602562272124 27.77588933430959 0 0 0
1033 1 7.058316070154543 20.006383953271694 27.863353152835654 0 0 0
1284 2 10.540309152535556 17.78045303171745 25.61064346229542 0 0 0
1286 1 12.386039828291883 17.791041508660335 27.63516727839557 0 0 0
1283 1 12.128587464078912 20.08042529636858 25.39427152864475 0 0 0
1321 2 10.467538579386646 19.90596481748733 27.68286777556583 0 0 0
30 1 -1.4310788045036327 4.064527842690721 32.51791448122883 0 0 0
61 1 -3.082036089644045 6.341419381589586 27.800698165716728 0 0 0
316 1 0.2614196592707647 4.025796210786579 30.40219101796836 0 0 0
318 1 2.030474901375674 4.129896310127204 32.469828021129075 0 0 0
604 1 3.770261889091277 4.1605638337897215 30.21324111690516 0 0 0
606 2 5.3049258520611335 4.129032606441056 32.497544245064105 0 0 0
892 1 6.887533758724347 4.129234495147937 30.324225823473622 0 0 0
894 1 8.647127901773215 4.196651653711575 32.647384283777 0 0 0
1180 1 10.483341403466014 4.036905166932098 30.298651957520466 0 0 0
1182 1 12.11672048418008 4.0434335575599345 32.59505029457552 0 0 0
27 1 -1.472865211645732 6.353292567902459 30.12971949011844 0 0 0
353 1 0.27040938311736573 6.288314826688289 32.398906811446096 0 0 0
315 1 2.0125021102070693 6.335638417803954 30.224383879974468 0 0 0
641 1 3.744099808010984 6.436227848814624 32.58839746911691 0 0 0
603 1 5.300536805373779 6.412778167712685 30.146271281826465 0 0 0
929 1 7.051873561710355 6.400875890938636 32.48756133590276 0 0 0
891 1 8.784547443784788 6.421277699808638 30.297491908807395 0 0 0
1179 1 11.902625536391245 6.477466006550311 30.214346360024226 0 0 0
1217 1 10.391935851339586 6.3436777989990185 32.52118986955864 0 0 0
66 1 -1.3769276436740572 8.75941140565461 32.40677588670391 0 0 0
63 1 -1.4489209264551646 10.864278855943542 30.030035599256546 0 0 0
352 1 0.31863857070043444 8.603399714084023 30.137578646122975 0 0 0
389 1 0.3406166004660034 11.009277723097297 32.403352492938666 0 0 0
354 1 1.9819056693999806 8.676428085614141 32.42936808865238 0 0 0
351 1 1.9564995735405453 10.853940730890567 30.0961996098928 0 0 0
640 1 3.649732518908547 8.743881311790982 30.03044778297364 0 0 0
642 1 5.389153702882986 8.580381096533067 32.52043347396311 0 0 0
639 1 5.421222707734113 10.867437381444335 30.111132721308394 0 0 0
677 1 3.6060956422577513 10.852269020742717 32.366188125781505 0 0 0
928 1 7.20148409003097 8.655845679507067 30.297812725713992 0 0 0
927 1 8.717758922531957 10.95407091321901 30.27200051347662 0 0 0
930 1 8.838031560538214 8.622022928439092 32.435614484670324 0 0 0
965 1 7.119190249728163 10.89458198636887 32.514912324046584 0 0 0
1216 2 10.363904331041645 8.642096555611168 30.143514987707153 0 0 0
1218 1 12.153170553227602 8.668335531627921 32.26174388590887 0 0 0
1215 1 12.069595444706557 10.844126544184514 30.158165310179815 0 0 0
1253 1 10.37970752442561 10.943161863674561 32.407011847431 0 0 0
102 1 -1.5035787865228625 13.026209277734571 32.326814855162766 0 0 0
1288 1 10.488186564923787 17.621057609205437 29.96846902261321 0 0 0
388 1 0.15551780469214993 13.303555459836124 30.180018498976402 0 0 0
390 1 1.9081612216044461 13.153615131313519 32.441905187849954 0 0 0
676 1 3.6389723357721926 13.09914704693928 30.1368828547942 0 0 0
678 1 5.395954687097214 13.052745421530906 32.43800494879487 0 0 0
964 1 6.950186955760303 13.257692974973711 30.143787201391465 0 0 0
966 1 8.622091623665032 13.130108468423053 32.47916630320391 0 0 0
1252 1 10.518436206501839 13.151486374236555 30.18345257558664 0 0 0
1254 1 12.138824157630568 13.226136949046143 32.48506642047799 0 0 0
99 1 -1.526598285849533 15.470703646674036 30.202476824997095 0 0 0
96 1 -3.0154863851017772 13.325726281229436 25.616316108344908 0 0 0
425 1 0.14308554924945271 15.38996644530287 32.43316043083435 0 0 0
387 1 2.004201809880786 15.429462343007922 30.13534384964712 0 0 0
713 1 3.671626372364608 15.23498826668029 32.61475003057433 0 0 0
675 2 5.2616844311087 15.398795376982447 30.054043227685796 0 0 0
1001 1 7.114009628482414 15.548714566793787 32.2472865865446 0 0 0
963 1 8.970257141164717 15.347713940758323 30.183911494837126 0 0 0
1251 1 12.19010322769148 15.436163465496442 30.167789305820545 0 0 0
1289 1 10.220265924833864 15.42948441107696 32.516195608627925 0 0 0
135 1 -1.297862807880021 20.13673951081447 30.073317038985515 0 0 0
138 1 -1.4897748158019684 17.71197709090122 32.36075368999269 0 0 0
1287 1 12.013661781942522 19.875547676736346 30.04456644015059 0 0 0
137 2 -3.0376193542081076 15.31146036068574 32.51407513896773 0 0 0
461 2 0.26886734556928626 19.945549240837 32.43715353351692 0 0 0
424 1 0.2110471814218089 17.56348921408962 30.214308969486662 0 0 0
426 1 1.9790863867924382 17.714363108692176 32.316468166195236 0 0 0
423 1 1.9047096532727683 19.961243546005505 30.098693445914233 0 0 0
712 1 3.6072005410739734 17.646718337753693 29.917876376570337 0 0 0
711 1 5.347355740755191 19.817777339307963 29.997177313923505 0 0 0
749 1 3.772580128842384 19.925544565684024 32.2686405762231 0 0 0
714 1 5.2550976161091185 17.485454238137905 32.24073163709026 0 0 0
1002 2 8.895028453940041 17.840521625611267 32.36415594735466 0 0 0
136 1 -3.008217162807893 17.782169860983643 30.0325217105515 0 0 0
100 1 -2.9983505587445394 13.170485990358973 30.134568696643754 0 0 0
97 1 -3.0670384426408064 10.951877149729027 27.789052049174003 0 0 0
101 2 -3.072538895809862 10.849725889741928 32.31019265937802 0 0 0
60 1 -3.100274996619035 8.608809893758814 25.74672553187376 0 0 0
34 1 -1.514826380985146 4.044587793409429 37.075684982366795 0 0 0
108 2 -2.9485337142326284 12.965613963896844 39.25755774567807 0 0 0
320 1 0.41143641253158547 4.004214092700786 34.747401391333355 0 0 0
322 1 1.9674352062771985 4.017396116809916 37.104597723388494 0 0 0
608 1 3.6671315139108063 4.149022380339423 34.80380010449285 0 0 0
610 1 5.111135545224897 4.126037034457566 37.02088572231179 0 0 0
896 1 6.967217825836293 4.0892716615040765 34.930232325063244 0 0 0
898 1 8.826970299396148 4.176308403131234 37.1425445887766 0 0 0
1184 1 10.32618238636497 4.188070197160039 34.67953816842282 0 0 0
1186 1 12.024840695183327 4.189207169370921 36.883342529916675 0 0 0
31 1 -1.3754446407378902 6.237121554812276 34.64405470631114 0 0 0
357 1 0.2635111598970088 6.196240623548833 37.05553294323539 0 0 0
319 1 1.778593344740408 6.324144464223104 34.634330347037775 0 0 0
645 2 3.4709537125761947 6.389363062835111 36.898175645905724 0 0 0
607 1 5.398330842699858 6.318185929611669 34.785401524738276 0 0 0
933 1 7.0650783955328365 6.30185527456932 36.97103629846701 0 0 0
895 1 8.691089149001616 6.4045133603328885 34.70452773818947 0 0 0
1221 1 10.396773905872555 6.3798215909064835 37.01659773847808 0 0 0
1183 1 12.321096635441354 6.433056221959906 34.64123460260737 0 0 0
70 1 -1.3719774348918032 8.484404568971101 36.94246073238317 0 0 0
67 1 -1.4086158294697055 10.89213382402359 34.54389035522081 0 0 0
73 1 -2.812400880655276 10.89579947158677 41.25234498310665 0 0 -1
397 1 0.3309146743275857 15.533234459669956 41.34936371165858 0 0 -1
356 1 0.24335449503759898 8.639392941321862 34.69227939401573 0 0 0
358 1 1.8722923593054461 8.605236863138586 36.99881675211725 0 0 0
355 1 2.006510924873807 10.979817275912273 34.65895792508664 0 0 0
393 2 0.32016830658140094 11.003479094635741 36.89270952132041 0 0 0
644 1 3.505382494351966 8.597013889799566 34.681433999182815 0 0 0
646 1 5.274115421642209 8.461256924428763 37.113253223096706 0 0 0
643 1 5.241287432352664 10.869853098610603 34.67965464634106 0 0 0
681 1 3.5409346814091207 10.781498190377956 37.04647949703303 0 0 0
932 2 6.9574485408471975 8.604033822230962 34.69061258162765 0 0 0
931 2 8.632689656538613 10.748306093434392 34.77650544889332 0 0 0
934 1 8.744060173563796 8.67914245171563 36.807647154201106 0 0 0
969 1 7.005618122373722 10.919839333540224 36.87114212831942 0 0 0
1220 1 10.458843179366387 8.708118945002678 34.636647444472516 0 0 0
1222 1 12.103388478530057 8.76025348032703 37.11325560776207 0 0 0
1219 1 12.028201310251708 11.178300034840069 34.742448055349286 0 0 0
1257 1 10.391700220028053 10.970164741690686 36.93541463520958 0 0 0
106 1 -1.5633685995781919 13.284004240899428 36.94605340717597 0 0 0
72 1 -3.0052130935548775 8.57243753910209 39.26949543061599 0 0 0
392 1 0.20217165982920715 13.2135849617558 34.68288905383483 0 0 0
394 1 2.08281489403069 13.120659983357704 36.76500650145513 0 0 0
680 2 3.6822154895699666 13.21515555553536 34.56583698878437 0 0 0
682 1 5.226868249626127 13.124453133805382 36.88391114851542 0 0 0
968 1 7.024758906464106 13.002808396812434 34.74752204664665 0 0 0
970 1 8.588706317490656 13.120510099601773 36.94583576676958 0 0 0
1256 1 10.269713115290374 13.156601366172247 34.817497918990185 0 0 0
1258 2 12.112391209311552 13.319330084307527 36.85907012992361 0 0 0
103 1 -1.231841865285996 15.62989944217746 34.65798812212617 0 0 0
141 2 -3.0570567188458377 15.726866535046604 36.829575099033335 0 0 0
429 1 0.4071663605433784 15.428518774351945 36.84627573894815 0 0 0
391 1 1.8963496826304493 15.391468964361865 34.74789487448061 0 0 0
717 1 3.6539536599385944 15.513862490077214 36.73137813216768 0 0 0
679 1 5.526768447940286 15.372735098090331 34.678184456871136 0 0 0
1005 1 6.859101380936352 15.37419041832609 36.95972724284576 0 0 0
967 2 8.633936348806056 15.406607670891184 34.701614483627424 0 0 0
1255 1 12.11721697023544 15.297809844260444 34.72415662311877 0 0 0
1293 1 10.296249413169908 15.47584551654207 36.82963722951813 0 0 0
139 1 -1.6641763040897926 19.984553970393677 34.539887206379575 0 0 0
142 2 -1.26010771723481 17.74822057770279 36.80171546599401 0 0 0
1296 2 10.156620209218929 17.75233821131701 39.10698023840362 0 0 0
428 1 0.3229241137001835 17.790643637296604 34.559848408328065 0 0 0
427 1 2.2456710281916314 19.955107505234228 34.59137984093934 0 0 0
430 1 2.1283469411638216 17.842951380732522 36.82711946911009 0 0 0
465 1 0.17080997271933773 19.955257490420188 36.94603252308973 0 0 0
716 2 3.669475686285 17.491271982777832 34.62878800684109 0 0 0
718 1 5.221967885289816 17.645688700263793 36.84055365909032 0 0 0
715 1 5.334007480498526 19.839133997672768 34.692026861390985 0 0 0
753 2 3.7868674758607423 20.121384890017836 37.06887258720519 0 0 0
1041 1 6.99536731898729 19.978070820340438 36.803842959592416 0 0 0
1004 1 6.980890762911093 17.657377593354155 34.556224139077415 0 0 0
1003 1 8.61672748468717 19.958135378510146 34.38068496999384 0 0 0
1006 1 8.505078210651215 17.703016283141174 36.824373373531685 0 0 0
1291 1 12.043166432922392 19.80919589476763 34.768953286703805 0 0 0
1292 1 10.35751558908796 17.522201519871807 34.64058872503509 0 0 0
1294 1 11.872176966393809 17.83496049857621 36.969236644112556 0 0 0
1329 1 10.18825948582356 19.969277867645513 36.785273909149694 0 0 0
324 1 0.14214232083851286 4.039040388869868 39.4285530961575 0 0 0
144 1 -3.0826705429110564 17.718900188359704 39.025267875570805 0 0 0
612 2 3.6836440852255836 3.9308994597721743 39.41128598944141 0 0 0
1262 1 12.100260191593158 17.73295568300862 41.28394345072003 0 0 -1
900 1 6.888252805007989 4.2119431974054375 39.38166572009409 0 0 0
683 1 5.285323757406291 15.444145888956507 39.15045942427004 0 0 0
1188 1 10.44725478884236 4.01646944943541 39.387030906401435 0 0 0
35 1 -1.5298646523358752 6.207620797099671 39.31137307580693 0 0 0
323 1 1.9969088516518823 6.171113567449142 39.352553123710564 0 0 0
1295 1 11.934213903663183 20.002315180947612 39.13585513173017 0 0 0
611 1 5.202121455807028 6.344053586330879 39.07919343289235 0 0 0
143 1 -1.4082160864027484 19.939141112251605 39.20655349162196 0 0 0
899 2 8.687472005164224 6.256544259176489 39.299787888126886 0 0 0
431 1 1.9673041700920746 19.927410625639165 39.182607585850036 0 0 0
1297 1 10.350725691463795 19.807321800068408 41.3019930577251 0 0 -1
1187 1 11.996258927389308 6.319860294558019 39.21668621077541 0 0 0
71 1 -1.20378488732519 10.785569607326607 39.13152825798359 0 0 0
360 1 0.284962768892413 8.312166826717876 39.18866349718975 0 0 0
359 1 1.8501030709999395 10.809861784455194 39.24712178759964 0 0 0
648 1 3.4552403039067543 8.485224702709779 39.21903510970712 0 0 0
647 1 5.321499800177037 10.858996264847256 39.09705549032728 0 0 0
936 1 7.024874145715593 8.488177909011085 39.249119410798144 0 0 0
935 1 8.663723859139287 10.84890258064799 39.13598783883863 0 0 0
720 1 3.7467116364037456 17.833136526250655 39.216642941911005 0 0 0
1224 1 10.169509968093976 8.50729210409332 39.18525683358638 0 0 0
1223 2 12.102532946948832 10.74161734758877 39.418474767146336 0 0 0
1259 1 11.9756082903516 15.447758856432715 39.12529966525568 0 0 0
719 1 5.473012243115109 19.936907396157395 39.29209944129735 0 0 0
395 1 1.9545507884145512 15.338789076316333 39.040436143833006 0 0 0
396 1 0.3981982245074618 13.082180598394471 39.123705207733565 0 0 0
1007 1 8.620565814855725 20.07150187938795 39.15714001104364 0 0 0
684 2 3.528878338890515 13.058798640107652 39.09169898234431 0 0 0
432 1 0.26505788928817475 17.53015252215875 39.14593419331197 0 0 0
972 1 7.013472813774561 13.093838737054309 39.15036440888005 0 0 0
971 1 8.665183984081525 15.444256016213538 39.14317850822731 0 0 0
1260 1 10.484941376301837 13.186707301464855 39.182719105208264 0 0 0
1008 1 7.047133597201775 17.595042648350812 39.26338117425804 0 0 0
107 1 -1.4966930727197505 15.28480757064912 39.2074378039722 0 0 0
614 1 5.252938795815821 8.636640345241265 41.428647925651575 0 0 -1
105 1 -3.046839813626608 10.867341706739783 37.05602229880394 0 0 0
69 1 -3.0591630515671713 6.264777116651576 36.92106769295715 0 0 0
1261 1 10.395144781484053 15.438823274475888 41.43654821868019 0 0 -1
937 1 6.800889062385341 10.972938390640897 41.37270000905478 0 0 -1
650 1 5.166206812229632 13.241911532812008 41.40300814992601 0 0 -1
721 1 3.56286158186511 19.92179614664691 41.42027659515648 0 0 -1
104 1 -2.952892643427087 13.278857782384087 34.65056232674617 0 0 0
433 1 0.193975186771421 20.07827393528413 41.431551184572896 0 0 -1
398 1 1.8130538017552973 17.786487415023082 41.41074513761626 0 0 -1
685 1 3.4416356604398284 15.555235586667127 41.409884701959925 0 0 -1
1225 1 10.233654441923653 10.984332462402605 41.410309024261736 0 0 -1
1226 1 12.040324746420005 13.11753924447367 41.41874526636016 0 0 -1
362 1 1.977061947830586 13.182522074205915 41.26703508472241 0 0 -1
110 1 -1.4460361466479827 17.770142335358884 41.358165784444566 0 0 -1
1190 1 12.144077709499228 8.812146537329195 41.36927752089818 0 0 -1
901 1 6.917574993381896 6.338752506386826 41.36711411953411 0 0 -1
74 1 -1.2437693287327412 12.993684638773624 41.42365958538356 0 0 -1
649 1 3.5813216646015955 10.791220763024022 41.30007365974312 0 0 -1
289 1 0.29032695796533714 38.027704297314884 0.8078729991687972 0 -1 0
436 2 0.3212816099694473 22.19176319284113 2.9669138689423398 0 0 0
829 1 3.6107685635362983 33.54611557832084 0.7799808849052678 0 0 0
724 1 3.5265681059795395 22.257724228139278 3.1490222771854794 0 0 0
1118 1 8.844798777555175 35.82356089726417 0.8765006967450768 0 0 0
1012 1 7.040661429073722 22.128813148946094 3.0498580931333987 0 0 0
505 1 0.27857980385285375 29.14849899489843 0.8772991590757367 0 0 0
1300 1 10.535644111711518 22.22840684446262 3.1169060753274667 0 0 0
147 1 -1.2854284856747753 24.51418496021387 2.9155657313969225 0 0 0
435 1 1.9083380118986795 24.643998651864138 2.843558601641403 0 0 0
256 1 -3.093177046421243 35.804712981819534 3.01448969184734 0 0 0
723 1 5.4581307041232225 24.417200423447042 3.0714740444471085 0 0 0
185 1 -3.0385071079205996 24.412421690881562 5.2448999579073545 0 0 0
1011 1 8.76742137722754 24.41784316329419 2.9755286940225076 0 0 0
1412 1 10.474967172708464 35.72759185793061 7.754462101540427 0 0 0
1299 1 12.142451828225468 24.543723805195597 2.956277539354953 0 0 0
148 1 -3.0871289695209345 22.21554349891848 3.018102336595316 0 0 0
183 1 -1.4894390256638137 29.017030125044762 3.1483163846601823 0 0 0
1157 1 10.47234654030556 38.045810481550284 5.3040157554343965 0 -1 0
472 1 0.29743378242380647 26.76127084632775 3.1647949609270603 0 0 0
471 1 2.0896485323234484 29.165854862490015 3.1172725091815283 0 0 0
760 2 3.7233972346595343 26.690347099930328 2.92786283878358 0 0 0
759 1 5.192314172161391 29.01622864453864 3.0663439424030123 0 0 0
1123 1 8.68441954702426 38.0274653548619 7.544232593758254 0 0 0
1124 1 7.131670545740693 35.818610421262264 7.536021503435729 0 0 0
1048 1 7.052055477955852 26.608830959257887 2.941765046564938 0 0 0
1047 1 8.737376423260363 29.071439505967632 2.8793696168901426 0 0 0
542 1 2.064034792396051 35.838950179383495 0.7972080116644348 0 0 0
1336 1 10.273880954411545 26.69135383977915 2.943133094322987 0 0 0
1335 1 11.983192134939024 28.94664121467775 2.9827573753233287 0 0 0
506 1 2.16507900351954 31.176112145369984 0.8198023898908319 0 0 0
258 1 -1.2404039250706753 35.69964763896224 5.291163280720601 0 0 0
508 1 0.17209295796768753 31.202864253124 2.9894011804608476 0 0 0
796 1 3.630327735156492 31.378993956209424 3.198212381010984 0 0 0
869 1 6.85441048526712 37.992980290407594 5.372734113739433 0 -1 0
1084 1 7.062329101160707 31.35776743399066 2.9566043821626367 0 0 0
184 1 -2.9108114700404317 26.671276718064007 3.032503944591882 0 0 0
1372 1 10.430484748725396 31.4072895727348 2.9688090016672812 0 0 0
219 1 -1.4685209883054398 33.55847457953968 2.979759019504031 0 0 0
507 1 1.9143044910958316 33.681636950462284 2.995842167451387 0 0 0
1122 1 8.898902964446288 35.833147283416906 5.2728768919614675 0 0 0
795 2 5.343526570861059 33.66473504500456 3.111404175416028 0 0 0
546 1 1.8593320149917445 35.729758488664885 5.411664911522464 0 0 0
1083 1 8.881169695772305 33.636961541578344 2.950162495529177 0 0 0
1371 1 12.098474234456837 33.56420877125552 2.903579250106488 0 0 0
470 1 1.9495033832873632 26.805573321413306 0.7465705146284538 0 0 0
548 2 0.2471104394368413 35.93004468866698 7.669640450073316 0 0 0
255 1 -1.3394194265338093 37.97895987944034 3.018217593630047 0 0 0
259 1 -1.625920034597911 37.95229585417071 7.581043708205751 0 0 0
834 1 5.316233755847946 35.62939134089972 5.319257274265241 0 0 0
544 1 0.182989592282504 35.75349051666309 3.0156639849466327 0 0 0
543 1 1.9675448141940843 38.170099539441495 3.0534780845476757 0 0 0
836 1 3.609158636360825 35.76079073268312 7.584709657756976 0 0 0
832 1 3.5629849641599045 35.98673774755324 3.12596360441464 0 0 0
831 1 5.114865294007453 38.014242484033886 2.952935575631469 0 0 0
1120 1 7.081148707179638 35.864590898781096 3.0562857611495295 0 0 0
1119 1 8.882219582146192 37.97332738872704 2.9616785037134257 0 0 0
547 1 2.1160712235268524 38.01613336892392 7.502252501708723 0 0 0
835 2 5.434572970960449 37.90428174528782 7.581408502040472 0 0 0
1408 1 10.643825331095645 35.86374758418281 3.0260466934885693 0 0 0
1407 1 12.183259260228741 38.12320700064383 3.142592401518503 0 0 0
293 1 0.3690447637326457 38.017670276526154 5.3834894047680795 0 -1 0
150 1 -1.4196396748502942 22.143715533292696 5.205627246959557 0 0 0
440 1 0.09230996422752069 22.215264467800235 7.586238169269228 0 0 0
438 1 1.799552395421617 22.144900173746148 5.488280011586344 0 0 0
728 1 3.768725179440516 22.151856921018954 7.551412855930653 0 0 0
726 1 5.201704432096134 22.212310250722197 5.249785589093571 0 0 0
1016 1 6.896049445391787 22.188191888446593 7.484793103328745 0 0 0
1014 1 8.564251818883116 22.207395571926963 5.283779489521168 0 0 0
1302 1 12.253557115774822 22.206450441276374 5.310356233781113 0 0 0
1304 1 10.37874650042044 22.187621721902048 7.435845767539142 0 0 0
1410 1 12.225491095856569 35.817514006745796 5.233829558907199 0 0 0
151 1 -1.4746515639621922 24.62249202050973 7.629847034370468 0 0 0
473 1 0.3150730495574723 24.502650928981296 5.074989410769836 0 0 0
439 1 1.8451417239348067 24.48363581386578 7.585652504604169 0 0 0
761 1 3.4008806628376402 24.35932092434138 5.20560146179806 0 0 0
727 1 5.23691527881034 24.501950583016427 7.460346650628012 0 0 0
1049 2 7.0232743364525145 24.479589541339404 5.220965781098101 0 0 0
1015 1 8.601886390147124 24.413897721714186 7.423847158064795 0 0 0
1303 2 12.308918136659567 24.252052663380596 7.353955183510653 0 0 0
1337 1 10.493376619408984 24.34968221206133 5.305330465518373 0 0 0
1411 1 11.82140651402201 38.071527804315906 7.569717222498645 0 0 0
186 1 -1.3275857556001704 26.83212585259434 5.419192489917055 0 0 0
187 1 -1.4041223471650877 29.038162486486712 7.438949558765091 0 0 0
476 1 0.2474218675234301 26.74577760023416 7.668822186806033 0 0 0
509 1 0.27340395357589475 29.01449572255759 5.2012923091051695 0 0 0
474 1 2.070262322515599 26.82301882537518 5.233996433248293 0 0 0
475 2 1.9855529086533674 29.102773691297298 7.467121213429975 0 0 0
764 1 3.5735739405080102 26.75981508589218 7.6306125077768066 0 0 0
762 1 5.284735019690791 26.755040949338444 5.153879246933825 0 0 0
763 1 5.499058680513203 28.93010043031662 7.55743033671049 0 0 0
797 1 3.6651669411979353 29.164966683398585 5.360706885348692 0 0 0
1052 1 7.019179499041881 26.767992793714715 7.465172850253648 0 0 0
1051 1 8.708994014954438 28.83402994815421 7.633650952490272 0 0 0
1050 1 8.706996654509709 26.683579404940378 5.270039616236652 0 0 0
1085 1 7.09473924887047 28.922537476749 5.2110470552352 0 0 0
1340 1 10.595098308810165 26.59644241758209 7.501621450784334 0 0 0
1338 1 12.177074222421815 26.74878155756878 5.218689282281084 0 0 0
1339 1 12.205639505324013 28.948352677712332 7.456277206065469 0 0 0
1373 1 10.399392824615077 28.85972653531038 5.126911671787869 0 0 0
222 1 -1.5945297212783403 31.3124677508539 5.279690239289753 0 0 0
512 1 0.07304117098905971 31.305792681303828 7.39044905411147 0 0 0
510 1 1.9800332067230424 31.22729023557268 5.356106846052739 0 0 0
800 1 3.7564366745986866 31.33020341561359 7.595075237971301 0 0 0
798 1 5.504866318124337 31.433715286745304 5.338061256840694 0 0 0
1088 1 7.094290515865932 31.197191663059122 7.571929900739894 0 0 0
1086 1 8.681131227978682 31.204414052081823 5.237419217733284 0 0 0
1374 1 12.029900285489274 31.180782967346804 5.16104846904321 0 0 0
1376 1 10.291152043845733 31.058816975224225 7.49810854081381 0 0 0
581 1 3.6749333027091065 38.007991740708405 5.280830106166125 0 -1 0
223 1 -1.3794161415684574 33.67872913786033 7.550951905296937 0 0 0
545 2 0.33712862158851875 33.31808747329353 5.208418904222115 0 0 0
511 1 1.8031969651083615 33.679342336180405 7.555502476932535 0 0 0
833 1 3.5735510462798366 33.47765219710014 5.340039776816865 0 0 0
799 2 5.443580562284021 33.47882145273496 7.407397346527499 0 0 0
1121 1 7.207849089574573 33.648012845283205 5.2592713215039515 0 0 0
1087 1 8.794294707059635 33.39569256605576 7.443825064612059 0 0 0
1375 1 11.927622711660321 33.51939014065822 7.495295159783189 0 0 0
1409 1 10.361708241256617 33.534565993778656 5.192411370506418 0 0 0
865 2 7.093586119539655 37.98935550399275 0.9608901827450678 0 -1 0
1117 1 6.951425651412315 33.59319668916409 0.7390655306267231 0 0 0
1082 2 8.722574983679433 31.310985931054283 0.7430411419261165 0 0 0
794 1 5.34799084600211 31.30348881047769 0.9192613907612476 0 0 0
541 1 0.2262611682210851 33.44982288866096 0.800710830106773 0 0 0
793 1 3.7770784481040036 28.877442423928464 0.8623294629290791 0 0 0
1081 1 7.123354176660131 28.960428733331277 0.7339256363470674 0 0 0
722 1 5.180496559718907 22.298665131843084 0.8602818907672086 0 0 0
434 1 2.2017177773140086 22.276726232975108 0.7501338185451341 0 0 0
1334 1 12.113235244928925 26.777312758575416 0.7674109196838547 0 0 0
1045 2 7.113367540272433 24.4100778186266 0.7666547261352336 0 0 0
254 1 -1.4749407617561283 35.798148743655325 0.7733956845553115 0 0 0
1153 1 10.678140156434596 38.23301289843818 0.7701339970517963 0 -1 0
758 1 5.5285672440894835 26.75979123441739 0.7393308202981707 0 0 0
218 1 -1.5253949642209412 31.27324383082678 0.8135653514142138 0 0 0
1010 1 8.879058213024852 22.162529498139058 0.8316746542526204 0 0 0
1046 1 8.712674973816945 26.68372701015755 0.7222853680380865 0 0 0
154 1 -1.4726822867882883 22.30562327386544 9.768684950656901 0 0 0
444 1 0.4461270127131671 22.201845899340608 12.016399737018139 0 0 0
442 2 1.8411181815819027 22.38027727560657 9.620579877525525 0 0 0
732 1 3.5062099838105705 22.12444041392083 12.11799592602822 0 0 0
730 1 5.293469971239464 22.277448731136023 9.980930416727215 0 0 0
1020 1 7.294761582519426 22.402727554285754 11.951966156112672 0 0 0
1018 2 8.732918116514695 22.410811365482914 9.612609559789968 0 0 0
1306 1 12.108735211935455 22.234889559628808 9.491104379066956 0 0 0
1308 1 10.450655955138933 22.319607504384752 11.851749889755839 0 0 0
155 1 -1.4946342344310972 24.36229891389584 12.16228267414834 0 0 0
477 1 0.14986112975801813 24.49234362647982 9.890402791620998 0 0 0
443 1 2.180907285362926 24.50856667434651 12.049793766643429 0 0 0
765 1 3.7201114602996666 24.42755248208547 9.769945925685418 0 0 0
731 2 5.311058413472134 24.391244420907082 12.153220667255198 0 0 0
1053 1 6.937135580023174 24.42423467964822 9.835992960351057 0 0 0
1019 1 8.914719900241145 24.669885809214616 11.710025774993037 0 0 0
1307 1 11.943394306598437 24.75670142667624 11.870563312791221 0 0 0
1341 1 10.615171368322565 24.53884013787353 9.575385191223045 0 0 0
190 1 -1.3631022964245676 26.846821744613234 9.770272056605855 0 0 0
191 1 -1.2933529716895793 28.955303712738647 11.906147892850473 0 0 0
1130 1 8.666701446044861 35.77869249418514 14.368125348477719 0 0 0
513 1 0.2375846675174884 29.173535339593347 9.626196953895885 0 0 0
480 1 0.3138722200445949 26.596104905774894 12.053680236909322 0 0 0
478 1 1.906403273964774 26.807324895261182 9.776292198366445 0 0 0
479 1 1.9233678113298107 29.03957306388572 12.029298974431292 0 0 0
768 1 3.6711886292968807 26.74623224471079 11.973623898922924 0 0 0
766 1 5.424130406132287 26.7801290766305 9.673105956683658 0 0 0
767 1 5.352894410237411 29.051995549454954 12.097177566506003 0 0 0
801 1 3.6194315272467317 29.06962952738556 9.765386944067716 0 0 0
1056 1 7.052498935904069 26.736056114950628 11.993878913077522 0 0 0
1054 1 8.810767821031433 26.756293741851543 9.505386143050968 0 0 0
1055 1 8.719418608966985 29.00847278324877 11.955510060062409 0 0 0
1089 1 7.037910930185918 29.110588562538112 9.880476735109093 0 0 0
1344 2 10.444232816127965 26.915389422938432 11.943559090663191 0 0 0
1342 1 12.229293882817382 26.704576542712974 9.715158141821991 0 0 0
1343 1 12.344861280127366 28.98902809688328 11.882463453795829 0 0 0
1377 1 10.521981130791744 29.034962465731848 9.797237533592906 0 0 0
226 1 -1.5749752151268934 31.240925111882447 9.6069230833245 0 0 0
516 2 0.25418588486546057 31.210274887196288 11.757159991244636 0 0 0
514 1 2.0469210797538593 31.31699060462529 9.607430879904804 0 0 0
804 1 3.633152622173974 31.20469444828418 11.88582327004025 0 0 0
802 1 5.49268425468483 31.284821601478686 9.815736066262417 0 0 0
1092 1 7.0165686035948465 31.313482368589217 12.077225704875346 0 0 0
1090 1 8.780994952300125 31.33312561493186 9.74996146438638 0 0 0
1380 1 10.470833004161422 31.320005168708263 11.9829030136496 0 0 0
1378 1 12.213326326334698 31.283335568248635 9.601397411534283 0 0 0
227 1 -1.4233380133645301 33.52407200239135 11.95999551210115 0 0 0
1165 1 10.20215562518323 38.12367668951067 14.495039727613086 0 -1 0
549 1 0.19798153660936002 33.658569575539914 9.701651675644849 0 0 0
515 1 1.9068688439889052 33.65782931440037 12.022549552921804 0 0 0
837 1 3.770715545107396 33.59339888977678 9.7230757598594 0 0 0
803 1 5.556493985728144 33.449133933642685 12.030784428076199 0 0 0
1125 1 6.919853534536106 33.64910427773823 9.702128859656847 0 0 0
1091 1 8.699736434485756 33.55383043802457 12.037466533861517 0 0 0
1413 1 10.457507295903476 33.6465948461229 9.836066845836553 0 0 0
1379 1 12.030483863726504 33.43064109305422 12.014785516542725 0 0 0
262 1 -1.5237702398441957 35.947407960243254 9.63471545911848 0 0 0
263 1 -1.4309903034589995 38.01016217599464 11.889103232332173 0 0 0
1418 1 12.226929204782783 35.97790033410989 14.57071479185378 0 0 0
1420 1 10.427338781543163 35.94683838550263 16.5850825832754 0 0 0
552 1 0.20419137796427256 35.87036763181699 11.938609989381066 0 0 0
550 1 2.0966667266263275 35.88539161893741 9.858932504205683 0 0 0
551 1 2.0642203193588142 38.00858563434055 11.918403186753702 0 0 0
297 2 0.3407584203104128 38.01430797945127 9.848079274789116 0 -1 0
840 2 3.7327983259103603 35.70747390948167 12.132223441410416 0 0 0
838 1 5.332318621922283 35.9462230952845 9.790059957281809 0 0 0
839 1 5.161977901538233 38.01311208614782 12.046387594050685 0 0 0
585 1 3.7395348885469155 38.06623270002259 9.751231181084037 0 -1 0
873 1 7.008898101817797 38.059680500620985 9.801250953670072 0 -1 0
1128 1 7.0032111332185 35.70905476546893 12.042620753923805 0 0 0
1126 1 8.764974941407397 35.80843008325922 9.93680073935342 0 0 0
1127 1 8.556343441184762 38.00021779847862 12.143711810036422 0 0 0
1416 1 10.367129297678401 35.9064174691589 12.25615767713481 0 0 0
1161 2 10.330742402962363 38.058789364449545 10.032327987890673 0 -1 0
1414 1 12.185754349005673 35.769159487244224 9.900670134927946 0 0 0
1415 1 12.192313490767663 38.11523548218663 12.153302662190686 0 0 0
158 1 -1.4038153067621744 22.316582849509455 14.228436969725761 0 0 0
448 1 0.1650671467308329 22.16531266138151 16.53006227699588 0 0 0
446 2 1.971974507316316 22.077907852409833 14.374143006140276 0 0 0
736 1 3.9295639113532626 22.231607154758404 16.420596855402458 0 0 0
734 1 5.524457099452196 22.29032113929454 14.093091601021625 0 0 0
1024 2 6.961713577231151 22.15177462191545 16.444675698058774 0 0 0
1022 1 8.877884134173257 22.10155989331486 14.295499534668316 0 0 0
1310 2 12.10768581070226 22.363223310796528 14.13770848982491 0 0 0
1312 1 10.514769798195426 22.07483720163103 16.449517666134767 0 0 0
159 1 -1.5477810682996211 24.457849922174606 16.553892783515884 0 0 0
481 1 0.4121231962778884 24.48963946910545 14.25422114348918 0 0 0
447 1 2.013019749353344 24.268201508027254 16.57090123342079 0 0 0
769 1 3.5134177016137484 24.507940147397296 14.327162129853889 0 0 0
735 1 5.5970435796898315 24.537374418656857 16.372153844700627 0 0 0
1057 1 7.1981754417784405 24.592883568683792 14.245710512831547 0 0 0
1023 1 8.71784074576709 24.37176026585231 16.417173869566213 0 0 0
1311 1 12.128405302606028 24.43648643219831 16.321665100007806 0 0 0
1345 1 10.309444912954854 24.525343581071894 14.05745650234345 0 0 0
194 2 -1.3957262901574377 26.483406003712453 14.355845156473112 0 0 0
195 1 -1.2559611121910017 28.69028568304387 16.403037760875918 0 0 0
229 1 -2.944257351752166 28.976142573650293 14.169891167321794 0 0 0
484 1 0.3631104253565325 26.599998827528196 16.488090353002313 0 0 0
517 1 0.4001171807957271 28.83782580339495 14.323488314666983 0 0 0
482 1 1.9095942798816794 26.73478025685913 14.311942305500104 0 0 0
483 1 2.0253035312166774 28.912952830966955 16.63121919047567 0 0 0
772 1 3.657584685895776 26.766825535445136 16.502502825584394 0 0 0
770 1 5.502391953872827 26.75031509329988 14.161744126252353 0 0 0
771 1 5.295475494917001 29.02344993058193 16.61331666611443 0 0 0
805 1 3.693714592616932 29.057611554625947 14.395721241138085 0 0 0
1060 1 7.090786853108401 26.87870471187477 16.431931224080806 0 0 0
1058 1 8.869513142378967 26.866916796266352 14.244584103557584 0 0 0
1059 1 8.961180640202086 29.01310470307421 16.420922353199472 0 0 0
1093 2 7.008075932609808 29.13122568526023 14.336204696145836 0 0 0
1348 1 10.545155272290495 26.760365035444746 16.604185070895586 0 0 0
1346 1 12.17844424842945 26.87538028570092 14.208224087455923 0 0 0
1347 1 12.092046471859506 29.083692716792395 16.425934840988212 0 0 0
1381 1 10.710520791191563 29.114551381807342 14.05905377633488 0 0 0
230 1 -1.2588879812138951 31.251897241837003 14.220473446907024 0 0 0
1131 2 8.53970555561213 37.82455031907598 16.802600956451823 0 0 0
520 1 0.2620409440221443 31.208394031512523 16.541232030311 0 0 0
518 1 1.8943430442477376 31.2985026246803 14.048912183345836 0 0 0
808 1 3.5526052664134595 31.27120186400737 16.433930813799417 0 0 0
806 1 5.290931575962546 31.383280718251463 14.276192461142651 0 0 0
1096 1 6.963763172150161 31.342643782039293 16.45177265403333 0 0 0
1094 1 8.885759233298197 31.23409971563577 14.215688847101406 0 0 0
1382 1 12.153716657890703 31.50872797991026 14.3160114345635 0 0 0
1384 1 10.464436167149579 31.374425425588054 16.516390469004683 0 0 0
877 1 6.924828897079317 38.0174241189892 14.385129177231171 0 -1 0
231 1 -1.449880465364989 33.53989105490021 16.565544284797223 0 0 0
553 1 0.19719054351072884 33.610295500525865 14.24813661687454 0 0 0
519 1 1.8766090353426557 33.49851821386834 16.58806664897595 0 0 0
841 1 3.6000425534243266 33.61540959344751 14.138764961132138 0 0 0
807 1 5.138852243606452 33.52214700237816 16.626959870358835 0 0 0
1129 2 7.184937963439264 33.41438828435277 14.389305776349516 0 0 0
1095 1 8.747488245683433 33.58091525882428 16.522223486236072 0 0 0
1383 1 12.120162282147275 33.7427555701977 16.597244228187826 0 0 0
1417 1 10.334270751692468 33.63457334913859 14.270216524344635 0 0 0
266 1 -1.466035977464552 35.7553831734157 14.208051271528895 0 0 0
267 2 -1.4429330701376253 37.92162293927461 16.496235203487622 0 0 0
1419 2 12.115642821024661 38.25165637952294 16.537670133220196 0 0 0
1132 1 6.84448176196171 35.79542292611544 16.676537725401204 0 0 0
556 1 0.11892574883639595 35.74773886498267 16.582824699971717 0 0 0
555 1 1.7837168261766974 38.01275376308334 16.40513896371563 0 0 0
554 1 1.7401318852213268 35.837499009848386 14.19945365607338 0 0 0
301 1 0.23806841348564856 38.15299334858206 14.203463697640212 0 -1 0
842 1 5.4233883895420725 35.861188382782224 14.362608250372766 0 0 0
844 1 3.466275977302724 35.84647715228521 16.478327257845137 0 0 0
843 1 5.289466545547807 37.986450258045565 16.582396298177983 0 0 0
589 1 3.636663968613935 38.05221215196588 14.235980512273844 0 -1 0
192 1 -3.052695530681542 26.631408308019818 12.10548056631478 0 0 0
228 1 -2.9858378371283743 31.060206644724556 12.067220245747563 0 0 0
232 1 -2.818850977387485 31.13193970802079 16.54162670192162 0 0 0
13 1 -3.086960685408634 38.02720188032108 14.287474131899971 0 -1 0
162 1 -1.3515144666017864 21.957793112895125 18.958945112265514 0 0 0
450 2 2.123201373215712 22.302524924785732 18.60041804075521 0 0 0
738 1 5.462880508776616 22.167797599330413 18.835284689631866 0 0 0
1026 1 8.544419526790158 22.14148957320448 18.69636805898393 0 0 0
1314 1 12.276858279510176 22.160392917393843 18.698431301901067 0 0 0
1316 2 10.507905090897914 22.26183297069763 20.87008196350405 0 0 0
847 2 5.204929430672953 38.01352471319111 21.074775855989266 0 0 0
485 1 0.22656351186574453 24.34774646053849 18.709771842903777 0 0 0
773 1 3.7841568806527657 24.53573732053042 18.678345440379523 0 0 0
1061 1 7.0668263474335955 24.476032079556987 18.60682150311863 0 0 0
1349 1 10.446126840776039 24.425597368280727 18.646407641288825 0 0 0
198 1 -1.405165292662374 26.774831254777453 18.800522907223932 0 0 0
521 1 0.3289813622477271 28.939539937577297 18.756672183323218 0 0 0
486 2 1.9805646583495577 26.645892986918557 18.767842112062073 0 0 0
774 1 5.428208815713154 26.83654845842662 18.643335497575244 0 0 0
809 1 3.6418824169541177 28.924846423241686 18.93829813133698 0 0 0
776 1 3.685542577469716 26.66648524663899 21.03929235091159 0 0 0
1062 1 8.826570438272512 26.81523465058016 18.586451946200942 0 0 0
1097 1 7.126220406769681 29.001435238300154 18.740794176404464 0 0 0
1063 1 8.760918659375724 29.04533171494586 21.017014946434248 0 0 0
1350 1 12.245518114652347 26.770456505868346 18.915785380027838 0 0 0
1385 1 10.648864403193151 28.962997430173495 18.82399133476895 0 0 0
234 1 -1.3444148979682904 31.105799307711006 18.847259284764828 0 0 0
522 1 1.9660515058016483 31.124617832400403 18.697507286093387 0 0 0
810 1 5.133266430170009 31.17538401815526 18.894456216344427 0 0 0
812 1 3.596139043782158 31.309387690458756 21.042342657303827 0 0 0
1098 1 8.697963532786027 31.221756749179534 18.747477933475647 0 0 0
1100 1 7.155511507868576 31.317003198705784 20.915048918257398 0 0 0
1386 2 12.010002305338585 31.351214906423223 18.803480713844788 0 0 0
557 1 0.23742293911051116 33.534823120039164 18.908404944053945 0 0 0
845 2 3.3687771172059064 33.541277346357106 18.933462088648028 0 0 0
811 1 5.395491404241488 33.46801441294659 20.98185639949256 0 0 0
1133 2 6.994098868450539 33.52499334992208 18.730743992532883 0 0 0
1421 1 10.401369479914056 33.61622041571388 18.86211698788535 0 0 0
270 1 -1.4130482838507128 35.80338086574991 18.819769616757313 0 0 0
271 1 -1.3351479821525507 38.1045301361477 20.966749168448445 0 0 0
1173 1 10.30153467862686 38.12857076447946 23.26118360972863 0 -1 0
305 1 0.2675181851724626 38.23298096247794 18.773954561704482 0 -1 0
558 1 1.846494749428175 35.74177129348846 18.85549227762427 0 0 0
559 1 2.0307419518329293 38.08613959516526 21.057696794077437 0 0 0
846 1 5.082083634588102 35.76565581019927 18.74376073246713 0 0 0
593 1 3.4869814580178393 38.08818674656591 18.74975408908423 0 -1 0
1134 1 8.660403203325702 35.69855893664917 18.85226040692128 0 0 0
881 1 6.842161274363068 38.11342808198063 18.944395978149302 0 -1 0
1135 1 8.579346989026355 37.95413970779098 21.1535648756016 0 0 0
1424 1 10.296718875174216 35.80883782318413 20.999294996342844 0 0 0
1169 1 10.345028942370902 38.18387125730182 18.88147486026921 0 -1 0
1422 1 12.04950229232563 35.84851561777009 18.855183228678076 0 0 0
1423 1 12.077951750939734 38.05612517283215 21.22760270995674 0 0 0
166 1 -1.349116983264082 22.126902907467734 23.28175373904162 0 0 0
850 1 5.246265011301517 35.7426350626969 23.103458378604646 0 0 0
452 1 0.4178407052238371 22.15562589981424 20.994187863163795 0 0 0
454 1 2.034331400431182 22.139208624938103 23.314264511033347 0 0 0
740 1 3.6775396783193863 22.115566688926734 20.95445949179337 0 0 0
742 1 5.440553158842688 22.249904058991 23.343970438019877 0 0 0
1028 1 7.069308859320936 22.20201050192093 21.096142329351892 0 0 0
1030 1 8.727383897245419 22.225936275247673 23.26755414123148 0 0 0
1318 1 12.061336921118508 22.35957012503077 23.200049085694364 0 0 0
163 1 -1.278783356517918 24.353534225925674 21.10747141344864 0 0 0
451 1 2.0512027341705195 24.381624443549658 20.839445414799897 0 0 0
489 1 0.40997442912351145 24.358630497869814 23.32448839335067 0 0 0
739 1 5.368868472390153 24.238546185838583 20.89789557037238 0 0 0
777 1 3.6333838395597806 24.44386745300516 23.25302054657993 0 0 0
1027 1 8.709963018005864 24.403648223055725 20.77942999639505 0 0 0
1065 1 7.040796798272611 24.504360659836614 23.131484642910273 0 0 0
1315 1 12.177968774190507 24.54016126379749 20.907861837948207 0 0 0
1353 1 10.371514520423874 24.51361471027916 23.263876648421117 0 0 0
199 1 -1.41077724606918 28.95513570869566 21.009612373712528 0 0 0
202 1 -1.3419187114153366 26.794324865626113 23.493777758974613 0 0 0
1426 1 12.009767361602455 35.89892947419567 23.239134292902207 0 0 0
21 1 -2.9605894792285623 37.93469465182156 23.380836786730143 0 -1 0
488 1 0.1854636616178964 26.714350071313678 21.17055554316819 0 0 0
487 1 1.8736554186389802 28.9401610835683 21.18882344115552 0 0 0
525 1 0.2264165296419267 28.89302072641392 23.538538872498226 0 0 0
490 1 1.931498989883782 26.68257755868044 23.406292843231125 0 0 0
775 1 5.378679643437332 28.940429907157974 21.13876371372178 0 0 0
813 2 3.667905656042602 29.10248559530576 23.311736639383007 0 0 0
778 1 5.330390852982035 26.63107418239253 23.292276523648468 0 0 0
1064 1 7.131528352114499 26.67081351622322 20.91866821350545 0 0 0
1066 1 8.742492905240116 26.773904479458395 23.349930036953804 0 0 0
1101 1 7.10012144693906 28.968978511944908 23.3778966428774 0 0 0
1351 1 12.163288795704595 28.899291172505226 20.994218197510175 0 0 0
1352 1 10.247073809390644 26.760528989554764 20.96325582447479 0 0 0
1354 2 12.108361386404361 26.720452350500004 23.319837277842822 0 0 0
1389 1 10.597321595978334 28.99141229968741 23.22744159792731 0 0 0
238 1 -1.442195155660536 31.127002236525737 23.48669572307267 0 0 0
885 1 6.970659853472744 38.08719561478229 23.386865776052684 0 -1 0
524 1 0.307283118636815 31.318515688959337 20.964410311472772 0 0 0
526 1 1.8563939026228558 31.11275387311778 23.36766127798139 0 0 0
814 1 5.398418413036213 31.27224498119842 23.366529209551018 0 0 0
1102 1 8.814298137436143 31.38079577609613 23.342204508187983 0 0 0
1388 1 10.427572356059057 31.298185578973403 21.05268665448816 0 0 0
1390 1 12.261769782412522 31.272985255179076 23.293257460511803 0 0 0
235 2 -1.351015808266099 33.473883638313865 21.174972625076002 0 0 0
523 1 1.822797505748436 33.51049369223385 21.29699851130453 0 0 0
561 1 0.37289079176283746 33.50948607983972 23.513002820115076 0 0 0
849 1 3.5179964852838785 33.418052160989376 23.227099958073104 0 0 0
1099 1 8.61486339195565 33.588720915071335 21.07772187007146 0 0 0
1137 1 7.040249242755667 33.505573231051045 23.33391135234689 0 0 0
1387 1 12.12395886762402 33.52116624093627 21.135552356196804 0 0 0
1425 1 10.37486161303073 33.6420511651702 23.290620871599675 0 0 0
1138 2 8.494431310961224 35.88800912029588 23.222341956619644 0 0 0
274 1 -1.4094716904239606 35.650561762897695 23.511001583109806 0 0 0
1136 1 6.855582898734669 35.75564824885879 20.92352522785798 0 0 0
560 1 0.17833921163330047 35.843530497442416 21.168578210585785 0 0 0
562 1 1.8040802479005724 35.766680652524336 23.46844672374849 0 0 0
309 2 0.29895688639346485 38.04619781365492 23.24885017499763 0 -1 0
848 1 3.5850289709215093 35.72956381569451 21.05597337224547 0 0 0
597 1 3.6441651153128745 38.086408455674615 23.424194610098848 0 -1 0
236 1 -3.0555883567961875 31.159748850120305 21.083477209467418 0 0 0
273 1 -3.049713714454483 33.469465008961095 23.55729114859442 0 0 0
197 1 -2.832408290262907 24.43469405024152 18.97428432632723 0 0 0
164 1 -3.0025648140955203 22.08813375365658 21.130544955668988 0 0 0
201 1 -3.0291696032177726 24.463861906980263 23.166512654517973 0 0 0
200 1 -2.992843746510068 26.82913971964056 21.080547530135245 0 0 0
269 1 -3.092753679937962 33.53187626685484 18.87573108632894 0 0 0
233 1 -3.06407752798339 29.034435222529147 18.748590283121672 0 0 0
272 1 -2.96448896310196 35.70893230109712 21.17216797627556 0 0 0
170 1 -1.5201307139483888 22.342677050152624 27.91432165618664 0 0 0
456 2 0.2553322778493232 22.07081043203548 25.620729006488315 0 0 0
458 1 1.8696745169774274 22.147220053648013 27.824016284333503 0 0 0
744 1 3.561560966707978 22.36263903593433 25.67846659197151 0 0 0
746 1 5.37776760158658 22.349408674580715 27.788549138924473 0 0 0
1032 1 7.375022318775878 22.223246963406893 25.761177386225956 0 0 0
1034 1 8.805762425971906 22.214595745619004 27.954174295230608 0 0 0
1320 1 10.44581228392097 22.275329864650473 25.58363914702339 0 0 0
1322 1 12.104917859257085 22.387944224175378 27.811174511323877 0 0 0
167 1 -1.1330246318198998 24.405884612960556 25.489343524882734 0 0 0
1434 2 12.039478860806662 35.72049254099304 32.243608772879526 0 0 0
493 1 0.25400237765755396 24.517219378272564 27.93523269772759 0 0 0
455 1 1.9283313837156473 24.643834288231204 25.666987412793436 0 0 0
781 1 3.787425982788364 24.5561873928409 27.806046062500798 0 0 0
743 2 5.3794339132296045 24.33527240159187 25.40087394485867 0 0 0
1069 1 7.085970577925508 24.63174814291182 27.65391085551866 0 0 0
1031 1 8.970667262140251 24.518999963254327 25.4540742846268 0 0 0
1319 1 11.996017340773184 24.672605388195414 25.599357799134268 0 0 0
1357 1 10.405815687940532 24.62536565906428 27.84759459318479 0 0 0
206 1 -1.3253963113433853 26.915128185181192 27.93339593464017 0 0 0
203 1 -1.570746171745164 29.025886699231336 25.742209021602193 0 0 0
529 1 0.35346645772849694 29.007089635100584 28.004472577860955 0 0 0
492 2 0.30216232049037695 26.829754306058657 25.76042741476768 0 0 0
494 1 1.957809514278893 26.742302756329515 27.972998623381734 0 0 0
491 1 2.0669234549379545 28.97766620656967 25.657793947192648 0 0 0
780 1 3.7875344853349646 26.69185338793176 25.62641321739758 0 0 0
782 1 5.341396351954694 26.74849412478081 27.79516624328828 0 0 0
779 1 5.437000512357827 29.120823189363065 25.680585954323753 0 0 0
817 1 3.7952801800186644 29.05330262953758 27.97535158571134 0 0 0
1068 1 7.031237276996659 26.778131113416528 25.588042824828108 0 0 0
1070 1 8.713940602752748 26.907722542771236 27.877735925279232 0 0 0
1067 2 8.707047809971558 29.047405546547765 25.57607051771775 0 0 0
1105 1 7.0183899776188365 29.038280896505814 27.777935113864412 0 0 0
1356 1 10.375028180302223 26.85861454706147 25.655111044406407 0 0 0
1358 1 11.95287076556015 26.908576079923325 27.84998544596376 0 0 0
1355 1 12.027837180183672 29.019231203897746 25.657353305885042 0 0 0
1393 1 10.398347320304744 29.116242680398255 27.92767699215828 0 0 0
242 1 -1.4921544906677928 31.186371641191627 27.847214088426284 0 0 0
209 1 -3.037627045178208 24.495797737464887 32.47362413850048 0 0 0
528 1 0.27900944096919034 31.344488654714993 25.78359151945127 0 0 0
530 2 2.0239226235612455 31.357903463614793 28.10330991853689 0 0 0
816 1 3.6113932464466774 31.301632064620424 25.5988376054344 0 0 0
818 1 5.303396843849127 31.406652054839615 27.7977833066657 0 0 0
1104 1 7.090707897358428 31.46028728239388 25.63219351198351 0 0 0
1106 1 8.583170343985506 31.411658821288363 27.830957018993278 0 0 0
1392 1 10.300371157853592 31.34575183522559 25.798853589750227 0 0 0
1394 1 12.02180619259901 31.32647740713359 27.953162068087615 0 0 0
239 1 -1.5018052824222623 33.51568811424015 25.816855020185667 0 0 0
277 1 -3.013157406727086 33.596289400749384 28.020752858302117 0 0 0
565 1 0.2935977330220112 33.62042653518019 27.97919824699962 0 0 0
527 1 2.071715261669825 33.614461893793376 25.731008302995622 0 0 0
853 1 3.6800625407822642 33.50610259474426 27.9820022817866 0 0 0
815 1 5.179072777188727 33.5602768700261 25.565750786876084 0 0 0
1141 1 6.917823422203547 33.6543068709116 27.870141438285962 0 0 0
1103 1 8.650847946728668 33.64213034062385 25.56066431550693 0 0 0
1391 1 12.174006852277659 33.52958845840352 25.54238360829045 0 0 0
1429 1 10.354451110645723 33.604998896869546 27.82799197315014 0 0 0
278 1 -1.4712343942746313 35.84091508149889 28.12965458948205 0 0 0
275 1 -1.326586560293479 38.108693859637675 25.627198003589452 0 0 0
313 1 0.34609577630747834 38.07132094794462 27.94371652099549 0 -1 0
564 1 0.2702641042499545 35.83580983031242 25.791978354837276 0 0 0
563 1 1.8607978555522178 38.13786241434106 25.6611285623568 0 0 0
566 1 2.107055233749684 35.85942332137399 27.979179433828143 0 0 0
852 2 3.756094309103822 35.86599487359173 25.59115020436523 0 0 0
851 1 5.331155887663549 38.115881145397715 25.728631241868555 0 0 0
854 1 5.411547421456239 35.81584218316763 27.947845317872382 0 0 0
601 1 3.6460808519523833 38.1195686938391 27.801700479962964 0 -1 0
1140 1 6.784086524605771 35.81827328056015 25.534917883920592 0 0 0
1139 1 8.630599869668888 37.94833070980032 25.561359644354283 0 0 0
1142 2 8.654158279065259 35.81006472178057 27.616518844231194 0 0 0
889 1 7.133903647918434 38.023599325155615 27.862403784328794 0 -1 0
1427 1 12.049122361305775 38.07072092863643 25.60005342154922 0 0 0
1428 1 10.516646224356071 35.80590095029988 25.572153631169893 0 0 0
1177 1 10.384233810041055 38.03195552718261 27.83488172547839 0 -1 0
1430 1 12.138915104935457 35.79288385916944 28.02881530071608 0 0 0
174 1 -1.4011252571417558 22.379196237788424 32.31317309104752 0 0 0
1432 1 10.225827267258824 35.8214792485731 30.026503908179233 0 0 0
460 1 0.22785835629968654 22.353138624295074 30.072550160522805 0 0 0
462 1 2.0757726950752002 22.10209617850692 32.28912497992928 0 0 0
748 1 3.7308813864173733 22.22625471898164 30.150681689946957 0 0 0
750 1 5.256189843456104 22.154501210458143 32.460847202496865 0 0 0
1036 1 6.963994975031742 22.193915020526692 30.215486279212456 0 0 0
1038 2 8.729477851455377 22.10525337095141 32.33263606923562 0 0 0
1324 1 10.501008207257557 22.091284591259868 30.103419210074023 0 0 0
1326 1 12.194412286328658 22.329130539666146 32.42515660637423 0 0 0
171 1 -1.5909844414267582 24.64076841110058 30.031671844652802 0 0 0
497 1 0.2790877029887988 24.608601961585855 32.284824016196886 0 0 0
459 1 1.9573877651540301 24.494046085296034 30.042357110658664 0 0 0
785 1 3.634384904851578 24.5592325587591 32.29083158539439 0 0 0
747 1 5.4809486730785935 24.477443933212985 30.098108492073447 0 0 0
1073 1 7.060377296545175 24.351371818352515 32.331531321077236 0 0 0
1035 1 8.686539667884368 24.40775476753187 30.039054297730893 0 0 0
1323 1 12.022588063457773 24.517457792462466 30.164753043930173 0 0 0
1361 1 10.359604315536723 24.428314788669194 32.42905168723071 0 0 0
210 1 -1.4403325979796666 26.96152395590447 32.3758876892626 0 0 0
207 1 -1.3167635475576533 29.02584498196686 30.05870417066888 0 0 0
533 1 0.26986192078380933 29.102373552311114 32.440997480926654 0 0 0
496 2 0.371935164206032 26.704267011528163 30.064020843922034 0 0 0
498 1 1.8949632157133425 26.87096345077353 32.454916855115044 0 0 0
495 1 2.0264742390868196 29.095167670719597 30.219969627562094 0 0 0
784 1 3.6985266108442745 26.746346331845935 30.234410638019384 0 0 0
786 2 5.429710225241466 26.874832070881858 32.469587240524 0 0 0
783 1 5.278163756251065 29.039455545265216 30.20428549776673 0 0 0
821 1 3.673458477437635 28.97413281679968 32.493694421922896 0 0 0
1072 1 7.033154302747622 26.73007376281569 30.19248267955667 0 0 0
1074 1 8.569748457115903 26.728705385795283 32.43760081798472 0 0 0
1071 1 8.547756940701401 29.175374985843643 30.041304442435532 0 0 0
1109 1 7.104529559132537 29.01255259707316 32.35928161683904 0 0 0
1360 1 10.260356351917519 26.84983189557329 30.162436697088776 0 0 0
1362 1 12.254232029614744 26.67347022642446 32.28286588257326 0 0 0
1359 2 12.234725566361847 28.944441680167003 30.080093543010406 0 0 0
1397 2 10.370793320721837 28.886067517115993 32.174519352449906 0 0 0
246 1 -1.4621924074895989 31.473938255409063 32.42776187126333 0 0 0
532 1 0.24362527232124842 31.263070521717022 30.157322066948346 0 0 0
534 2 1.9170839012953373 31.18697964057324 32.423287481753505 0 0 0
820 1 3.88093235388251 31.395168439750258 30.12763987613305 0 0 0
822 1 5.426681412253522 31.23226522271344 32.57038455780079 0 0 0
1108 1 6.844421862263092 31.272264214228507 30.228633669334116 0 0 0
1110 1 8.874124835480568 31.244645158155848 32.35488142843535 0 0 0
1396 1 10.476201776760659 31.200074914911788 30.095972283468758 0 0 0
1398 1 11.97286151893703 31.15097797916909 32.44744450270921 0 0 0
243 2 -1.3982392971381137 33.65818855058653 30.283872462144686 0 0 0
569 1 0.43219280583546693 33.48963583263529 32.36929896366054 0 0 0
531 1 2.092262728551305 33.54900521667979 30.269616613576265 0 0 0
857 1 3.6421292348455956 33.49484293446132 32.52728887376318 0 0 0
819 1 5.25056582578474 33.74139872322185 30.171227114122228 0 0 0
1145 1 7.010430139534794 33.52298013997638 32.23460005260231 0 0 0
1107 1 8.72850842683097 33.44450951950729 30.239628914357596 0 0 0
1395 1 12.047834351630092 33.679310590614 29.91470644785251 0 0 0
1433 1 10.370807068479156 33.534124477315075 32.45748117251733 0 0 0
1431 1 12.235452099717799 37.94650779172248 30.215714789311086 0 0 0
279 1 -1.3860183713171663 38.03066184372095 30.034505470443754 0 0 0
282 1 -1.4211565527091743 35.66650717854505 32.326281849034785 0 0 0
568 1 0.38582976899199073 35.81348813651302 30.170037538287264 0 0 0
317 1 0.27054348489053304 38.15089401166956 32.25144747692787 0 -1 0
570 1 2.0009742093212552 35.75867482499037 32.3879743161787 0 0 0
567 1 2.1500803000940922 38.06283405013426 30.19197338977114 0 0 0
855 1 5.372629439939843 38.05765799898933 30.072616342774882 0 0 0
858 2 5.337246264416159 35.758240446324635 32.32305547975108 0 0 0
605 1 3.682993671037169 38.094863763816655 32.48911493757123 0 -1 0
856 2 3.7402093149691145 35.97327271385752 30.359947993533275 0 0 0
893 1 7.127606535435675 38.17155961998207 32.42385606041549 0 -1 0
1143 1 8.614931727841475 38.274863113762464 30.127682533256355 0 0 0
1144 1 7.188865329052085 35.897914904591524 30.03044930554813 0 0 0
1146 1 8.747819807652773 35.626669900529286 32.42447640297907 0 0 0
1181 1 10.451693959739993 37.93907984721896 32.334089942550314 0 -1 0
29 1 -2.9201340676250913 38.04847351562998 32.282560160853265 0 -1 0
244 1 -3.017951547654213 31.280828257682874 30.064959338787567 0 0 0
168 1 -2.873742930983269 22.21103634387097 25.501938950730633 0 0 0
205 2 -2.8958538863704497 24.75553742630834 27.73140752730292 0 0 0
204 1 -2.990593596976822 26.83128382272262 25.619517342845864 0 0 0
245 2 -2.9967717418971462 29.18176967514918 32.321140241498355 0 0 0
178 1 -1.3822821500618638 22.1057986732818 36.886475491290284 0 0 0
285 1 -2.920967172604471 33.37484060225461 37.02855797141413 0 0 0
464 1 0.29961265647615454 21.940575366419235 34.57862581646495 0 0 0
466 1 1.9315003315590844 22.27186694818239 36.96012893440333 0 0 0
752 1 3.6223347227117855 22.260127755498694 34.82491775357779 0 0 0
754 1 5.487460389537633 22.20228634238382 37.074896389265504 0 0 0
1040 1 7.09228019164277 22.320175556449875 34.62873890067951 0 0 0
1042 1 8.683493512306798 22.309174104092136 36.86552114410013 0 0 0
1328 1 10.345274584152794 22.115482208733923 34.61975088417786 0 0 0
1330 1 11.9903858791886 22.19901000835352 36.84494769558957 0 0 0
175 2 -1.3757205498738005 24.373003379297227 34.54574216579614 0 0 0
501 1 0.12375571644261596 24.579987865049127 36.930262935666164 0 0 0
33 1 -2.989461143183343 38.0070313682066 36.8746872857931 0 -1 0
463 1 1.7880852071811009 24.440654482302783 34.66291684911428 0 0 0
789 1 3.6057147346548377 24.359514124487365 36.94085261155381 0 0 0
751 1 5.395849704886995 24.399639270157074 34.538425011259406 0 0 0
1077 2 7.171071363609004 24.64850374679471 36.86876581703751 0 0 0
1039 1 8.677229997027302 24.401218707517405 34.66991377771548 0 0 0
1327 1 11.965763086594121 24.26903026363909 34.746876685227406 0 0 0
1365 1 10.340722383506181 24.440268460555455 36.98592332119989 0 0 0
214 2 -1.6173889360628981 26.836122761765917 37.00354858243412 0 0 0
211 1 -1.4015311284231833 29.083573822829475 34.72981379466418 0 0 0
1369 1 10.43424934951505 28.95171762609628 41.34632478161954 0 0 -1
500 1 0.0834948517031524 26.71754948594305 34.711669697311706 0 0 0
537 1 0.3364921769022766 28.93219933639031 37.02994065759091 0 0 0
502 1 1.905970356873365 26.677431202747595 36.948182995623554 0 0 0
499 1 1.9602209950933207 28.972395911026233 34.698137772760774 0 0 0
788 1 3.6396455462491706 26.674527132152605 34.56409733565492 0 0 0
790 1 5.246500881731917 26.73721336972807 36.930335599127645 0 0 0
787 1 5.278605504744592 28.938969974426733 34.695912031200564 0 0 0
825 1 3.6299332301502054 28.968536851907203 36.85714264985545 0 0 0
1076 1 6.959671453475385 26.716020792403413 34.83623906149215 0 0 0
1078 1 8.899853386767106 26.785036549185232 36.784022424173656 0 0 0
1075 1 8.883552742913455 28.890263737361874 34.68395108366536 0 0 0
1113 2 7.148325596774141 28.84991573726615 36.862587240837044 0 0 0
1364 2 10.536150577957681 26.594191888287828 34.587677504044464 0 0 0
1366 1 12.088058981283446 26.634302579430113 36.91502605639272 0 0 0
1363 1 11.941015961905132 29.011042886924404 34.44706169013355 0 0 0
1401 1 10.492462605573724 28.999816655679005 36.90408108310538 0 0 0
250 1 -1.2534752693519007 31.261042604781423 36.991416130232665 0 0 0
536 1 0.39866879616411266 31.277926641559198 34.680692611830764 0 0 0
538 1 1.8748472927450668 31.289461890394175 37.071572299499266 0 0 0
824 1 3.52562276184497 31.34059628339355 34.711363783017134 0 0 0
826 1 5.462139051721698 31.047975915006877 36.82678381836635 0 0 0
1112 1 7.11680675969442 30.974523411114106 34.774730970974844 0 0 0
1114 1 8.565333598238794 31.07115606257218 37.064757128792124 0 0 0
1400 1 10.19284015866437 31.275495105693352 34.77361953596527 0 0 0
1402 2 11.971405237692691 31.279553987540044 36.872607081122126 0 0 0
247 1 -1.3846353890942267 33.556294970872386 34.61959548205495 0 0 0
212 1 -3.0198316442062114 26.61729265227508 34.675120599975116 0 0 0
573 2 0.35332133679602995 33.58666989957776 36.93027745967274 0 0 0
535 1 1.9557675176493796 33.53160475330425 34.720240406715774 0 0 0
861 1 3.8316723254446887 33.562242423117794 36.90985621390767 0 0 0
823 2 5.338384674567152 33.352883070439475 34.522128477967655 0 0 0
1149 1 6.897313362609504 33.44818744866102 36.93276839638577 0 0 0
1111 1 8.434849292056468 33.502711116677276 34.61474028114381 0 0 0
1437 1 10.25867702066952 33.50846678168078 36.749385079613134 0 0 0
1399 1 12.056992317165284 33.378625324000836 34.77262201952671 0 0 0
283 2 -1.37109017953995 38.08891263632403 34.623718273460014 0 0 0
286 1 -1.3875427485601985 35.67885522177888 37.016362391968514 0 0 0
572 1 0.2653196508087423 35.76112993560874 34.646555976868314 0 0 0
571 1 1.9887617960612665 37.986873331010855 34.662545696099144 0 0 0
574 1 1.9475782932615382 35.82639899922786 36.78423038596709 0 0 0
321 1 0.2099605275258254 38.0304239726227 36.94904270429757 0 -1 0
609 1 3.526002656592453 37.936825164846525 37.087085242064106 0 -1 0
860 1 3.731649217577251 35.8532867210883 34.66840627412816 0 0 0
859 1 5.342584030960323 38.09581876362211 34.68471825069578 0 0 0
862 2 5.3923937330437255 35.90619060677251 37.14823057254081 0 0 0
897 1 7.326368327493025 38.12158823322236 36.938864875033346 0 -1 0
1148 1 6.858162556419508 35.693083509846254 34.74307103685861 0 0 0
1150 1 8.75511112679588 35.77532115292645 36.95408510789434 0 0 0
1147 1 8.714556739505749 37.758468187086 34.516159130437515 0 0 0
1436 2 10.53106426664214 35.631550113566 34.47350768558104 0 0 0
1435 1 12.01673694688843 38.06220507743886 34.76518920771787 0 0 0
1185 2 10.350080131316746 38.12337062706223 36.85792214108443 0 -1 0
1438 1 12.049628998602365 35.70161529177398 36.74815063423047 0 0 0
284 1 -2.8995619514430713 35.761762613748694 34.5840848771861 0 0 0
468 1 0.4017110222632332 22.106754689140022 39.19684189616876 0 0 0
756 1 3.770250437538579 22.19137907580928 39.140450583921975 0 0 0
1044 1 6.995845101747404 22.27479031182486 39.33105909174441 0 0 0
1332 2 10.295170323968357 22.267800210390753 39.142251913026186 0 0 0
469 1 0.2928605219966651 24.328498169548965 41.33457928470317 0 0 -1
179 1 -1.4905140296148964 24.436107667497588 39.161608167983076 0 0 0
467 1 2.131336334767323 24.51184938096376 39.09341687245127 0 0 0
755 1 5.4526547740617755 24.505215424039854 39.067885812833325 0 0 0
1043 1 8.679905018652414 24.469863266547243 39.25827204320112 0 0 0
1331 1 12.158005254525088 24.52022233208032 39.12316257715763 0 0 0
252 1 -3.0323966812951038 31.28074915111646 39.2453378615331 0 0 0
215 1 -1.3518847852945908 28.99669606058704 39.26232031292625 0 0 0
504 1 0.2492536289963807 26.593260964655897 39.1276995049554 0 0 0
503 1 1.9945416369977171 28.900649282074397 39.380867409985385 0 0 0
288 2 -3.0914421815699193 35.65299758476117 39.23034233756245 0 0 0
248 1 -3.0767782499528806 31.273666421817 34.629551058850225 0 0 0
792 1 3.765759874206354 26.75975569076005 39.34659913795416 0 0 0
791 1 5.426908493580667 28.954308655405235 39.12898462677916 0 0 0
1080 1 7.06168785531648 26.66636066665926 38.96957237428623 0 0 0
1079 1 8.718795547253597 28.971517774570472 39.18551763652894 0 0 0
1151 1 8.813559998610035 38.05296430940264 39.418895362834945 0 0 0
1368 2 10.361688025878689 26.741306251417083 39.264930762628694 0 0 0
1367 1 11.988874056999169 29.02102621705299 39.198929531358914 0 0 0
1152 1 7.1130512347274895 35.756346994804204 39.455456398878965 0 0 0
540 2 0.35116242776228335 31.159983013401245 39.46099295166337 0 0 0
1439 1 12.15191802131409 37.874928661951884 39.189029495585274 0 0 0
828 1 3.882454669685298 31.248230643263394 39.235698523395214 0 0 0
1440 1 10.303584511443646 35.69357673156415 39.27436475003678 0 0 0
1116 1 6.950129279388735 31.38008679850684 39.305139041646214 0 0 0
1404 1 10.391808520081966 31.32921670868605 39.136550949798604 0 0 0
251 1 -1.3130533238001325 33.487720494914925 39.311124093680476 0 0 0
539 1 1.9421686598546057 33.41645787133751 39.332504643279194 0 0 0
830 1 5.073767883596032 35.797413060328076 41.43198936902563 0 0 -1
827 1 5.302051281661003 33.64988988301436 39.30939950113466 0 0 0
1115 2 8.714656007970778 33.47527452913184 39.05137935769086 0 0 0
1403 1 11.873213763390691 33.50321017723812 39.0375484383875 0 0 0
287 1 -1.5976328144200271 37.874212729448125 39.29150490457289 0 0 0
575 1 1.7694098274337695 38.11725909555434 39.217552391746636 0 0 0
576 1 0.3408797686429099 35.742911208940804 39.214935074197214 0 0 0
863 1 5.606663419474177 38.081179082310946 39.29246619804033 0 0 0
864 1 3.701752077723581 35.78153694893891 39.16387636269317 0 0 0
1406 1 12.164680397303258 35.868008141765074 41.35176733143996 0 0 -1
1405 1 10.287894022843204 33.55670851258249 41.30111448482769 0 0 -1
1370 1 12.00088086335379 31.34349826911046 41.41491612979962 0 0 -1
757 1 3.7504946014822536 24.665093398616037 41.39111462738431 0 0 -1
146 1 -1.5527051874141669 22.181453001678538 41.33819104593013 0 0 -1
182 1 -1.3000618557007462 26.7716263011072 41.39882444939093 0 0 -1
1333 1 10.493962619929668 24.567375294142277 41.37674925340528 0 0 -1
577 1 3.621858816857506 38.047153144045 41.3891084789431 0 -1 -1
1298 1 12.00980751887505 22.100343628173757 41.434910938983975 0 0 -1
1444 2 13.817229901438878 4.174014502226676 3.0307971539009118 0 0 0
2161 1 20.49913487634998 19.92243251451269 0.7423553504239998 0 0 0
1732 1 17.11382752036525 4.011274124492365 3.086964840849672 0 0 0
2020 1 20.56725796147479 4.116247472773865 3.0800525839313115 0 0 0
2308 1 23.987721725664198 3.8535964906503377 3.1021332952035965 0 0 0
1477 1 13.579199334843544 6.41480689868119 0.8857318391038423 0 0 0
2596 1 27.093298815331526 4.088045583329612 3.0512712649970046 0 0 0
2741 1 27.283227728561098 19.827376950827055 5.216883911153373 0 0 0
1443 1 15.576663769414708 6.29708343053968 3.091979514743236 0 0 0
2089 2 20.584455801426987 10.994920945886957 0.7350076628604649 0 0 0
1731 1 18.675738254630918 6.242591707331179 3.2479416201568734 0 0 0
2018 1 22.157301357548956 4.127905245486915 0.7412971225227084 0 0 0
1549 1 13.624558023568142 15.396718447236045 0.7500627069046885 0 0 0
2019 1 22.325143051717564 6.275745563611581 3.118305926273219 0 0 0
2307 1 25.66212975771192 6.2080833632145795 3.0976379990957876 0 0 0
1480 1 13.767077930864208 8.488443285006795 3.0926073719292737 0 0 0
1479 1 15.270824830291136 10.81776971636864 2.959469094197039 0 0 0
2708 1 27.307455103487534 17.673089936069285 7.577370565233167 0 0 0
1768 1 17.32870096463182 8.701335658559046 2.9312776843594968 0 0 0
1767 1 19.080425139835235 10.876704607132384 2.9020826168389235 0 0 0
2418 2 25.573396798048126 17.596823692583456 5.3829407729146 0 0 0
2056 1 20.420542258606954 8.410667769671619 3.171419335680016 0 0 0
2419 1 25.564802599603837 19.771501833471362 7.621655287434791 0 0 0
2055 1 21.957518253972687 10.79277598535221 3.049454817270696 0 0 0
2344 1 23.97572962446149 8.775053560265164 2.921703774706669 0 0 0
1478 1 15.577969915122306 8.506448903772323 0.8102293743862744 0 0 0
2343 1 25.74276258996352 10.836831825732254 2.907426471106508 0 0 0
2632 2 27.310048561698995 8.44818291492971 3.1841025132081646 0 0 0
1873 1 17.21127896482093 19.873370349818337 0.8118551042573922 0 0 0
2131 1 22.16303460323961 19.861989719739473 7.457699046228682 0 0 0
1516 1 13.97654889474273 13.150113625893093 2.8441149111166917 0 0 0
1804 2 17.191105897808384 13.093224252773126 3.010386438527887 0 0 0
2130 1 22.272397817939243 17.50998661379549 5.224193332774209 0 0 0
2092 1 20.48983433787696 13.231771808342756 2.981042041143884 0 0 0
2380 2 23.967099019916176 12.952863218111474 3.124725173832161 0 0 0
2453 1 23.929659718279684 19.881014388575732 5.28615351442447 0 0 0
2668 1 27.23652598989915 13.15832581254666 2.8507495826892004 0 0 0
2420 1 23.74965751552354 17.66906721108237 7.494849299643815 0 0 0
1515 1 15.572736542682065 15.437376712026163 2.949092424230174 0 0 0
2165 1 20.579267564440855 19.894550875028678 5.272077227113285 0 0 0
1803 1 18.69727916132741 15.420541457942653 2.935705765778656 0 0 0
2091 1 22.47922573736268 15.225260553345365 3.036512691635987 0 0 0
2449 1 24.00955142914291 19.836476181663404 0.7951221809527375 0 0 0
2054 1 22.095461888021003 8.566107022466884 0.836175852257355 0 0 0
2379 1 25.570412709114603 15.509076347441033 3.0510613874927155 0 0 0
1552 2 13.704237593082478 17.479557780419942 2.8865161304747406 0 0 0
1551 1 15.208839083063953 19.86976131044513 2.9123074235172393 0 0 0
2132 1 20.428577778954228 17.604664487368446 7.28415819045276 0 0 0
1840 1 17.101761196619155 17.791507321690965 2.962088693903731 0 0 0
1839 2 18.90945413441593 19.83604144637511 3.1394502514303544 0 0 0
1843 2 18.802570111304792 20.00160296636091 7.262646436683863 0 0 0
2128 1 20.694039267177807 17.537210148632184 3.0495557525364503 0 0 0
2127 1 22.168030908279956 19.941284494871937 3.0491615043251734 0 0 0
2416 1 23.866657928889566 17.649171070116765 2.9975112915125703 0 0 0
2377 1 23.72302243401229 10.791654019163866 0.7925910754380818 0 0 0
1842 1 18.654217288606368 17.78765194580029 5.12776234563831 0 0 0
2704 1 27.199828383251273 17.635896436689862 3.12893497045304 0 0 0
2415 1 25.67093169138949 19.895059971634403 3.048293897474239 0 0 0
1877 1 16.99727838873124 19.84931859491972 5.188778443349116 0 0 0
1844 1 17.22632459900764 17.549042849159946 7.417824861995237 0 0 0
1448 1 13.629505140320962 3.977517646418169 7.551880384021894 0 0 0
1446 1 15.468611630425581 4.0648083804398425 5.298025635717846 0 0 0
1736 1 17.088548512802628 4.099804068976 7.663096729670724 0 0 0
1734 1 18.846089203464167 4.113149295736417 5.507467715320948 0 0 0
2024 2 20.699116256512283 3.8729055026756587 7.60437511373999 0 0 0
2022 1 22.13873251300434 4.049469566962907 5.25126304143675 0 0 0
2312 1 23.6624676787907 4.089788898587427 7.650961872709141 0 0 0
2310 1 25.592496002456187 4.067821428786559 5.45692641031213 0 0 0
2600 1 27.21310490827081 4.031426050808122 7.573070800948939 0 0 0
1481 1 13.810234555654684 6.354663718572862 5.395703220594604 0 0 0
1447 2 15.212399848506713 6.1642527106182 7.8934657439796645 0 0 0
1769 1 16.880279368973714 6.421819881708946 5.583529597585165 0 0 0
1735 1 18.96017540667448 6.19178390125324 7.514839665481909 0 0 0
2057 2 20.51037477533327 6.463682655569072 5.223439487749203 0 0 0
2023 1 22.158917479551466 6.32821378055702 7.5915313336864285 0 0 0
2345 1 23.928828541215637 6.291890585654569 5.3717638739996385 0 0 0
2311 2 25.633704536997172 6.181123048679076 7.5724137098262 0 0 0
2633 1 27.271063523618743 6.265405061066683 5.294032605867681 0 0 0
1484 1 13.80973408037216 8.560617158175985 7.5480172947112925 0 0 0
1482 2 15.466109037191156 8.657562380012408 5.2581652554363165 0 0 0
1483 1 15.549367637162966 10.930615044198392 7.312889362224725 0 0 0
1517 1 13.67353287956162 10.769642919547724 5.303071284714457 0 0 0
1772 1 17.02249485458463 8.605227527807937 7.5763610623447795 0 0 0
1771 2 18.729063267670412 10.775969959062708 7.576239861763675 0 0 0
1805 1 17.343297272713293 10.927491277832933 5.0153101797788375 0 0 0
1770 1 18.63815392904171 8.502148907301699 5.333022227855326 0 0 0
2060 1 20.42718591861131 8.564353859083905 7.532229780677653 0 0 0
2093 1 20.49893126725434 10.735590965888091 5.428012676597989 0 0 0
2059 1 22.39915273854883 10.601788205098847 7.4296215430986186 0 0 0
2058 1 22.30839853491172 8.540380196410299 5.216287116254327 0 0 0
2348 1 24.009639983331272 8.505154754604408 7.579437966786469 0 0 0
2381 1 23.961845836828513 10.911020962261821 5.111681561035225 0 0 0
2346 1 25.548602941290802 8.532214840800243 5.241522983864843 0 0 0
2347 1 25.65587044631453 10.7821276256044 7.40434245569034 0 0 0
2636 1 27.225559734633112 8.541080632742403 7.571305125595039 0 0 0
2669 1 27.40263601457093 10.671127245718097 5.197551838655263 0 0 0
1518 1 15.42755181894903 13.048581591085982 5.200856168991713 0 0 0
1520 1 13.927170790448852 13.350528480226647 7.62402802538032 0 0 0
1808 1 17.21557500766011 13.195641373608611 7.534465107696739 0 0 0
1806 1 18.923935255139586 13.146016778304611 5.317347445762492 0 0 0
2096 1 20.54978396516616 13.07335174718012 7.5560027946952575 0 0 0
2094 1 22.0557093647858 13.093638868340584 5.210130302683049 0 0 0
2384 1 24.054433997319535 13.040015422444686 7.439980092038332 0 0 0
2382 1 25.948899999022686 13.176022675657995 5.259898447003332 0 0 0
2672 2 27.25364261321513 13.164259539958449 7.690735214769284 0 0 0
1553 1 13.800546762948485 15.378875540733315 5.0747785194813835 0 0 0
1519 1 15.452267398858652 15.427144689836796 7.446158643421177 0 0 0
1841 1 17.283743978514387 15.223442529028084 5.3018606417994665 0 0 0
1807 1 18.92445520558109 15.36990973749424 7.441972761149142 0 0 0
2129 2 20.505024487903643 15.394382874392164 5.063738596718872 0 0 0
2095 1 22.033532078684463 15.388913527198731 7.4434158986288415 0 0 0
2417 1 23.99161095636905 15.292998847615857 5.307315255186305 0 0 0
2383 1 25.66194270538981 15.465598414595014 7.400054275534716 0 0 0
2705 1 27.40299522853194 15.428840972037072 5.34430165795605 0 0 0
1554 1 15.299133163534666 17.67055341982143 5.169595277627786 0 0 0
1556 1 13.800588778862572 17.71475376561468 7.480997725389438 0 0 0
1555 1 15.612155764463747 19.746133111317427 7.544967354723424 0 0 0
1589 2 13.811853826210918 20.015027663299986 5.255473092588578 0 0 0
2090 1 22.33266518898807 13.055483167658759 0.8922737148440746 0 0 0
2053 2 20.484046297653812 6.311034875812753 1.0570961571244153 0 0 0
1730 1 18.86606437171911 3.9458878722124275 0.8082647311422777 0 0 0
2125 2 20.542973620087416 15.314470001954064 0.7677424712155152 0 0 0
1802 1 18.78511881872505 13.07341557771132 0.7172491682485337 0 0 0
1801 1 17.162401991989878 10.879253396993303 0.8653096762879079 0 0 0
1766 1 18.964196046180355 8.671574568958887 0.8675290682226763 0 0 0
2341 1 24.032359992532285 6.28416815832005 0.7381299326362861 0 0 0
2342 1 25.63514353464591 8.594489974848534 0.764042941614894 0 0 0
1452 1 13.720452947202507 4.091466347274078 12.057384090358061 0 0 0
1450 1 15.37242209245007 4.034879867123364 9.887350847122352 0 0 0
1740 1 17.03476897156397 4.041193260140468 11.913215404766378 0 0 0
1738 1 18.907628112594953 4.1174406637097505 9.862586416392636 0 0 0
2028 1 20.38578027979931 4.218867274891499 12.159747553328677 0 0 0
2026 1 22.188861664056915 4.018225501959399 10.049333655195014 0 0 0
2316 1 23.97876654431276 4.139969756970154 12.183003120874272 0 0 0
2314 1 25.51833541709987 3.9514605603889197 9.78664102286481 0 0 0
2604 1 27.23186418113814 4.090134106338149 12.11233420339723 0 0 0
1485 1 13.366988267631882 6.287339759801341 9.83534581356 0 0 0
1451 1 15.471252174338318 6.21848928657836 11.847547995542474 0 0 0
1773 2 17.219245023743788 6.326433444061357 9.792951358404279 0 0 0
1739 1 18.78175608383086 6.520558724757186 12.058917620878299 0 0 0
2061 1 20.43496003157634 6.379189367339508 9.961969035584525 0 0 0
2027 1 22.195705905976908 6.2725045882639625 12.108321535542037 0 0 0
2349 1 23.895178879553647 6.239040674164698 9.872374545526503 0 0 0
2315 2 25.685771672747006 6.370898319781458 12.039999548673855 0 0 0
2637 1 27.202271114550626 6.1148330907679735 9.73708910111364 0 0 0
1488 1 13.68360391496514 8.482681925093697 12.02082128026117 0 0 0
1486 1 15.361842455285402 8.502184690651866 9.777527644504799 0 0 0
1487 1 15.248005639671405 10.837121181203488 12.05579664030335 0 0 0
1521 1 13.869871502926113 10.834339306039768 9.647075279017523 0 0 0
1776 1 17.080801650407658 8.641219347467993 11.996990053853214 0 0 0
1809 1 17.016365893750013 10.82969223620199 9.758756448765174 0 0 0
1774 1 18.736498291621007 8.673720204722123 9.85325808047158 0 0 0
1775 1 18.889334602429862 10.784503886315179 12.06304455584178 0 0 0
2064 1 20.61290413195161 8.647178335164682 12.02639258776315 0 0 0
2097 1 20.608428694347996 10.859585362386818 9.632445238063358 0 0 0
2063 1 22.175242376608555 10.925386163809238 12.106830104105486 0 0 0
2062 1 22.18226887677982 8.524999624167108 9.813287661912021 0 0 0
2352 1 24.023973614949814 8.557804041845877 12.01712149913995 0 0 0
2385 1 23.942138984326593 10.75557618317319 9.729404247326805 0 0 0
2350 1 25.724536915975207 8.502485026002965 9.946348856266418 0 0 0
2640 1 27.199469176254247 8.643506518666932 12.361253564762796 0 0 0
2351 1 25.622982962086226 10.879268567958096 12.115491148779725 0 0 0
2673 1 27.300363547156525 10.837591824639759 9.640650822795397 0 0 0
1522 1 15.421684566232233 13.26202973000956 9.923943015310337 0 0 0
1524 1 13.707741551013825 13.11644164045729 12.085405609490513 0 0 0
1812 1 17.1536675825389 13.058526363386846 11.917753786628785 0 0 0
1810 1 18.867202686342882 13.075379552916514 9.670558380814168 0 0 0
2100 1 20.54790892986016 13.060211750188335 12.036543215335891 0 0 0
2098 1 22.43702421510885 13.06290238808809 9.789429657956779 0 0 0
2388 1 23.98181290287319 13.03007993787883 12.119021991884505 0 0 0
2386 1 25.496985830523382 13.134024375817658 9.839233690909303 0 0 0
2676 1 27.26490735023434 13.119683175176046 12.032986884508993 0 0 0
1523 1 15.423418356409417 15.320036236855154 11.940848549344754 0 0 0
1557 1 13.802208188868601 15.42013478859615 9.68499286719575 0 0 0
1845 1 17.228895107803567 15.384921429211 9.798439091885733 0 0 0
1811 1 18.812426202403163 15.233549930228941 12.15321503656952 0 0 0
2133 2 20.52263629982537 15.272409271100198 9.797245275702366 0 0 0
2099 1 22.267371910697374 15.386855455404088 11.919372364353004 0 0 0
2421 1 23.937801573503965 15.598037021342195 9.711184702461189 0 0 0
2387 1 25.51025399870322 15.474880720382972 12.114103726807429 0 0 0
2709 1 27.28728234246217 15.392537082999015 9.765601849175761 0 0 0
1560 1 13.701536519527949 17.811566917388774 12.059588084586897 0 0 0
1558 1 15.440119721036254 17.664075025294192 9.745329625865198 0 0 0
1559 1 15.524348607273389 19.990363610461227 11.953253341796918 0 0 0
1593 1 13.832025701183685 19.969420248103177 9.693057815003684 0 0 0
1881 1 17.346656302552866 19.877373834938194 9.770202042830357 0 0 0
1848 1 17.152054031607904 17.57285725127607 11.883958679988098 0 0 0
1846 1 18.97112443215381 17.494487400623896 9.803946898100103 0 0 0
1847 2 19.138706010093717 19.753402202989328 11.934131546463355 0 0 0
2136 1 20.678950789198304 17.535532296414555 11.96349375292846 0 0 0
2169 1 20.4010667778593 19.784879885565026 9.6257472269704 0 0 0
2135 1 22.147012528574688 19.889761491087967 11.894319955458258 0 0 0
2134 1 22.02003365727419 17.66974154624273 9.806233518790565 0 0 0
2424 2 23.909931660767572 17.701976169241142 11.832000601188769 0 0 0
2457 1 23.71775179607495 19.900548820198416 9.854273695715747 0 0 0
2422 1 25.670966043117566 17.647954499294308 9.816828461847038 0 0 0
2712 1 27.05366260732744 17.64910418186612 12.104467216469487 0 0 0
2423 1 25.558557351544895 20.082925655076313 11.88658310551476 0 0 0
2745 1 27.465365463607835 20.10492816536062 9.823212743896795 0 0 0
1456 1 13.991253093698926 3.993369535654086 16.61994134079321 0 0 0
1454 2 15.54336610893768 4.283204106601543 14.33630652687048 0 0 0
1744 1 17.222432574612128 4.112541257527237 16.67888392335404 0 0 0
1742 1 18.56628816553634 4.000399706985851 14.277267296309663 0 0 0
2032 1 20.40475729354745 4.04764461780221 16.523218834298493 0 0 0
2030 2 22.28510344291063 4.022652144009031 14.354737453528818 0 0 0
2320 1 23.928304039371422 4.170077173857158 16.606924306401197 0 0 0
2318 1 25.593491263774123 4.205040443678129 14.38467059806853 0 0 0
2608 1 27.21131482851997 4.063478190908659 16.5446472562936 0 0 0
1489 1 13.678005062737178 6.357812255602983 14.209635249302949 0 0 0
1455 1 15.523036057579354 6.189203936066738 16.606898701398535 0 0 0
1777 1 17.261492765930598 6.599681251545317 14.215990762591776 0 0 0
1743 1 18.813078121629076 6.34153723988364 16.69355451872657 0 0 0
2065 1 20.517868974077732 6.415251803992162 14.377660767225796 0 0 0
2031 1 22.134635851124713 6.199909398977324 16.425795846501266 0 0 0
2353 1 23.798671248115877 6.340742767687786 14.324699622589463 0 0 0
2319 2 25.609122628608024 6.422532665752318 16.65435435853287 0 0 0
2641 1 27.133881360226805 6.3664382611376125 14.422709679780253 0 0 0
1492 1 13.786225984372475 8.531235973401134 16.505443658744888 0 0 0
1491 1 15.425484506395701 10.88525000912771 16.571602305135727 0 0 0
1490 1 15.396827696868964 8.738024100324274 14.224345400937862 0 0 0
1525 2 13.578339992088864 11.054444910063316 14.34769853258383 0 0 0
1780 1 17.077237016274307 8.594397985858635 16.602861804645364 0 0 0
1813 1 17.12766687661598 10.923626238811035 14.19038055077046 0 0 0
1779 1 18.76950327353613 10.958467644878798 16.534524189136494 0 0 0
1778 1 18.960337297567715 8.651072281905787 14.328269648164765 0 0 0
2068 1 20.556418380003052 8.571783930965514 16.560450320689363 0 0 0
2101 2 20.504714150664828 10.923331610621808 14.263509711618845 0 0 0
2067 1 22.177768566761646 10.839536889780003 16.478374295630246 0 0 0
2066 1 22.245929262014148 8.549171672439279 14.242436280860598 0 0 0
2356 1 23.80434836211083 8.46324739882905 16.526953753138123 0 0 0
2389 1 23.806299935036265 10.829620124767203 14.389217903683406 0 0 0
2354 1 25.48830244245183 8.480015020269748 14.424129541228131 0 0 0
2355 1 25.58575613639456 10.975478381800821 16.56322560908749 0 0 0
2644 1 27.211220564405885 8.704361355628846 16.735687794375387 0 0 0
2677 1 27.26044325243218 10.648242047618497 14.48233608859677 0 0 0
1526 1 15.368062223480756 13.099017431817847 14.309163737380633 0 0 0
1528 1 13.712710554205167 13.266891177368553 16.51278384438885 0 0 0
1816 1 17.36255292996459 13.380909018457379 16.36925242956829 0 0 0
1814 1 18.834171530389604 13.155312609569856 14.2595217139553 0 0 0
2104 1 20.44661359956629 13.122634962181213 16.57548938913994 0 0 0
2102 1 22.248732296638842 13.107570739872054 14.38438276217605 0 0 0
2392 2 23.841935860591253 13.196300726189106 16.56458121244016 0 0 0
2390 1 25.60886630225356 13.207123053369289 14.35773135587381 0 0 0
2680 1 27.224866418509503 13.162647604543094 16.61966402096639 0 0 0
1561 1 13.997223044822867 15.425052583172935 14.283111759983871 0 0 0
1527 2 15.644978396803616 15.249777129357588 16.624984164954583 0 0 0
1849 1 17.145992467944843 15.580626220547952 14.324655995648293 0 0 0
1815 1 19.033483596994305 15.605750525293912 16.308391017231276 0 0 0
2137 1 20.73392686422754 15.501021347079702 14.211540939672059 0 0 0
2103 1 22.146897317169994 15.353366972401611 16.613364414142726 0 0 0
2425 1 23.720244825453346 15.343209757112946 14.293505925970397 0 0 0
2391 1 25.766863450468946 15.339641953229698 16.524044361593297 0 0 0
2713 1 27.311736117240144 15.448561250704294 14.223616119068538 0 0 0
1563 1 15.544200614589233 19.839646629710522 16.37040453524699 0 0 0
1564 1 13.991449522528548 17.61311867070726 16.64867499204746 0 0 0
1562 2 15.411486123691251 17.839577340255794 14.118734287981486 0 0 0
1597 1 13.733593024304529 20.030464783453365 14.139975184543044 0 0 0
1852 1 17.152215344819197 17.687376095376656 16.49527152304571 0 0 0
1851 1 18.76443188341462 19.89476451762969 16.39983734734583 0 0 0
1885 1 17.348988389305337 19.772723294489285 14.116589147659397 0 0 0
1850 1 19.01530742307907 17.677784162551973 14.191192013374481 0 0 0
2173 1 20.66554182522841 19.98028644476179 14.2201330485795 0 0 0
2140 1 20.753148617634167 17.798555743827244 16.577580030551218 0 0 0
2139 1 22.400490687591553 19.868067618420806 16.578374950239414 0 0 0
2138 1 22.398939767207388 17.74691645995354 14.162908186700848 0 0 0
2428 2 23.84176977180209 17.470801378469275 16.700566266054068 0 0 0
2461 2 23.853984639091557 20.173867604468345 14.206172973751897 0 0 0
2427 1 25.500021866727856 19.901762768051697 16.56846469599496 0 0 0
2716 1 27.43114508817987 17.69119583169845 16.441121151961923 0 0 0
2426 1 25.34527739285517 17.708653562116716 14.37730226934865 0 0 0
2749 1 26.923183410767408 19.945636855893394 14.259668621760571 0 0 0
1458 1 15.46172010018988 4.049697636192684 19.056972520576544 0 0 0
1746 1 18.964274548811797 4.146121286661616 18.934277055384047 0 0 0
2036 1 20.702395053700158 4.108600183295855 21.154861323045072 0 0 0
2034 1 22.2107424621961 4.091001375951164 18.890936380531198 0 0 0
2324 1 23.846650104193746 4.149915654070043 21.165316133253285 0 0 0
2322 1 25.674971578668305 4.146027556392492 18.98683066575808 0 0 0
2612 1 27.274428120172942 4.050545894521848 21.186996103271373 0 0 0
1493 1 13.715254013837438 6.367362557083609 18.892140012291026 0 0 0
1459 1 15.498086633248242 6.398404225009943 21.072390167738128 0 0 0
1781 1 17.163336479843284 6.340388509894773 18.94013363074016 0 0 0
2069 1 20.61807835484081 6.44647002338769 18.88365687373181 0 0 0
2357 1 23.779788712465294 6.358774697238038 18.70743009325396 0 0 0
2035 2 22.095422145512277 6.473040694701772 21.227888410240162 0 0 0
2645 2 27.29668841595664 6.573719242779212 18.820990521111245 0 0 0
2323 1 25.640967435003677 6.51506998155785 21.050298257485238 0 0 0
1494 1 15.47966057332798 8.725109089751692 18.829368741210036 0 0 0
1529 1 13.946622110822087 10.898824165229732 18.79341032828638 0 0 0
1495 1 15.46602703039871 10.766949686604958 21.233600476926785 0 0 0
1817 1 17.160090996127302 10.916083967751993 18.853814134714575 0 0 0
1784 1 17.133812384417748 8.578731497874951 21.1527358819132 0 0 0
1782 1 18.77432850451319 8.585334884353536 18.85906345192551 0 0 0
1783 1 18.832926064253375 10.831992350003993 21.235512070280517 0 0 0
2105 1 20.456209156018495 10.836553278917016 18.65091542712272 0 0 0
2072 1 20.503969833772487 8.586718381865087 21.03156294967472 0 0 0
2070 1 22.24021769697905 8.674382051554801 18.760606141527045 0 0 0
2393 1 23.993116027901724 10.996855318615143 18.858285651948197 0 0 0
2360 1 23.829371840832703 8.686510931889375 21.09299309475004 0 0 0
2358 1 25.44546743931013 8.62637921534158 18.854345909855 0 0 0
2681 2 27.214272714143025 10.79009278853551 18.83729188554297 0 0 0
2648 1 27.340802470163805 8.717372051087281 20.975812587313264 0 0 0
1530 1 15.538533393008091 13.365586723701423 18.695928774609282 0 0 0
1818 1 18.72640290337102 13.192784242567306 18.886819537511453 0 0 0
1820 2 17.070091839260694 13.041305503552362 21.042870925728483 0 0 0
2108 1 20.372541972525518 13.068493654271043 21.14727194746889 0 0 0
2106 1 22.162120727220515 13.134080012971598 18.90149661480565 0 0 0
2396 1 24.032286288538746 13.183318012600173 21.13396838524314 0 0 0
2394 1 25.602668650282727 13.168116636478333 18.82743351281102 0 0 0
2684 1 27.235762177439867 13.19320715159599 21.13375610797098 0 0 0
1565 1 13.710924949778029 15.454154620562809 18.713059981255075 0 0 0
1531 1 15.592389736070903 15.414395581076098 21.022331100611943 0 0 0
1853 2 17.356116583399565 15.632510514122478 18.738953116409498 0 0 0
1819 1 18.70500193525055 15.226639525140818 21.13040494828964 0 0 0
2141 1 20.470968297940463 15.352024443519499 18.891804146144413 0 0 0
2429 1 23.809544641802876 15.449703007523048 18.806083291723052 0 0 0
2717 1 27.23007873313787 15.468672629912792 18.858249439863847 0 0 0
1566 1 15.55274802481745 17.678995513419565 18.79602061880143 0 0 0
1601 1 13.795485138489852 19.949709463295328 18.66981837334074 0 0 0
1568 1 13.835050822311374 17.729416212543587 20.878647568269365 0 0 0
1889 1 17.11896344666169 20.04801858053636 18.622103524048807 0 0 0
1854 1 18.83812214262376 17.898801303058207 18.66559196990061 0 0 0
1856 1 17.304946007493204 17.739897874433296 20.98320836176369 0 0 0
2177 1 20.66068773640736 19.98178703281835 18.733067074918655 0 0 0
2142 1 22.084485410327062 17.613180319895598 18.741085041517263 0 0 0
2465 1 23.889473928693533 19.769032510926166 18.814557494272655 0 0 0
2143 1 22.043547683341522 19.88122918650677 21.108021742864654 0 0 0
2430 1 25.61235972137818 17.63190149383407 18.70560628508544 0 0 0
2753 1 27.239571733812287 19.89343804008433 18.686729868290406 0 0 0
1460 1 13.762808593100171 4.106007265923758 21.243497860203245 0 0 0
1462 1 15.61581721597872 3.959739996080195 23.514660032894493 0 0 0
1748 1 17.187105349467775 4.055277937698543 21.209684538804723 0 0 0
1750 1 18.803969119253676 4.07326796210342 23.330482744896834 0 0 0
2038 1 22.223259258880894 4.196937735449385 23.38372921078512 0 0 0
2326 1 25.605123762298632 4.004737659263236 23.483382379638105 0 0 0
1497 1 13.924098336557059 6.285989151971592 23.418807256959553 0 0 0
1747 1 18.877454169654584 6.412551501351484 21.115570770183975 0 0 0
1785 1 17.224885920586978 6.29645858533944 23.482469946364798 0 0 0
2073 1 20.528224507943133 6.257228713346636 23.47961892163815 0 0 0
2361 1 24.103937754545115 6.326196183644053 23.384419723727053 0 0 0
2649 1 27.23643372007654 6.402162252408157 23.313232968555567 0 0 0
1496 1 13.774248656289604 8.52839452220165 21.246653807804165 0 0 0
1498 1 15.44172531261298 8.49815875591771 23.490145184857262 0 0 0
1533 1 13.81959342127059 10.782802793364262 23.45789918423823 0 0 0
1821 1 17.07393778763884 10.95067086943698 23.508567984579656 0 0 0
1786 1 18.8788966713137 8.612186063039886 23.503017621215154 0 0 0
2109 1 20.681142532909767 10.914726074476865 23.35036860986595 0 0 0
2071 1 22.27059567168407 10.885678556309822 21.042566536053027 0 0 0
2074 1 22.08835921231663 8.5840207490361 23.363644894747747 0 0 0
2397 1 23.808772962752958 10.88539075901659 23.314776003495812 0 0 0
2359 1 25.623452829027475 10.875724940759971 21.112252155515627 0 0 0
2362 2 25.63983014631373 8.635161856783334 23.191571587629003 0 0 0
2685 1 27.310156285070036 10.99104828703464 23.253392836730914 0 0 0
1532 1 13.948660255818286 13.115174898561907 20.890937598322704 0 0 0
1534 1 15.448580096963358 13.119483343426605 23.331472008073167 0 0 0
1822 1 18.866204059025414 13.065000154315674 23.362391905995437 0 0 0
2110 1 22.225586419495354 13.217165870741127 23.325583244655824 0 0 0
2398 2 25.622234483739625 13.113979668691979 23.324744876136098 0 0 0
1569 1 13.843167553466643 15.467366238329353 23.20283445011491 0 0 0
1857 1 17.01344173526725 15.408000668460893 23.431767502035964 0 0 0
2145 1 20.333168675644206 15.354318318242646 23.460181914021774 0 0 0
2107 1 22.17086777435265 15.494496164773112 21.297017103048955 0 0 0
2433 1 24.052589589922697 15.422978482676795 23.391982883742646 0 0 0
2395 1 25.56986574590839 15.351643163904889 21.10452827534546 0 0 0
2721 1 27.10635121979259 15.394543674322167 23.31357430055633 0 0 0
1567 1 15.43008569426443 20.062389342711477 21.023210232247962 0 0 0
1570 1 15.610779749725598 17.695899591993786 23.357038918612584 0 0 0
1605 1 13.89937293595808 19.886702466754862 23.22242312839759 0 0 0
1855 1 18.764479665729677 20.16357350421281 20.77572004610392 0 0 0
1893 2 17.1817995306636 19.80802051246188 23.130294166677547 0 0 0
1858 1 18.72554872147173 17.47131095605883 23.417547789353055 0 0 0
2144 2 20.2601227871674 17.498789961306308 21.033598567224566 0 0 0
2181 1 20.3157182855659 19.72646344710911 23.253478668816363 0 0 0
2432 1 23.93442753863619 17.617282166881836 20.974772455395392 0 0 0
2146 1 22.01300350948725 17.66057043119745 23.393974212172303 0 0 0
2469 1 23.920833959076283 20.035384735478054 23.19521344078229 0 0 0
2720 1 27.24745937734644 17.591582666161845 21.163955985250276 0 0 0
2431 1 25.572976683577146 19.856128281054257 21.109363216089438 0 0 0
2757 1 27.16298392523236 19.848952661739744 23.36547665998577 0 0 0
2434 1 25.481214327620314 17.704170747852267 23.383063282848955 0 0 0
1464 1 13.980797748478992 4.1189327132638045 25.752911731313134 0 0 0
1466 1 15.442811745048381 4.081513970904316 28.114857545394393 0 0 0
1752 1 17.139312864682786 3.934884562117219 25.83237515236913 0 0 0
1754 2 18.97634764076215 3.9506706975837727 27.866125532265887 0 0 0
2040 1 20.658514081705604 3.9653149717926266 25.618913375877607 0 0 0
2042 1 22.2442881753152 4.046028766656605 27.95230096502215 0 0 0
2328 1 23.896696958598007 4.031685695293966 25.742363466039254 0 0 0
2330 1 25.722910452204523 4.1402931182158955 28.01868589874762 0 0 0
2616 1 27.333595267975248 4.159808497067773 25.782139479553663 0 0 0
1463 1 15.606928993040675 6.370291395698565 25.69250005844334 0 0 0
1501 1 13.68766527010462 6.258484927191869 27.94729684320252 0 0 0
1789 1 17.36867145975013 6.236901683409445 28.034627229732344 0 0 0
1751 1 18.834193491439883 6.266180116997969 25.65350275016444 0 0 0
2077 1 20.593000326710577 6.411553625711334 27.95626482520089 0 0 0
2039 1 22.37716443093556 6.32833741129554 25.60122905887116 0 0 0
2365 1 23.957824058376964 6.343840666435881 28.221822671285363 0 0 0
2327 1 25.53221902301415 6.224589037331517 25.731743234862805 0 0 0
2653 1 27.279508785282097 6.404818467835034 28.05952939149123 0 0 0
1500 1 13.786452135402094 8.527024733462575 25.662465375740013 0 0 0
1502 1 15.402126724568884 8.478318759663757 27.796982449486457 0 0 0
1499 1 15.435969963006954 10.869477055864923 25.691798036240268 0 0 0
1537 1 13.74067001479553 10.785060697985411 27.887185187538098 0 0 0
1788 1 17.189169827426497 8.702048154404213 25.79149673535989 0 0 0
1825 1 16.975985496720547 10.68897385335182 28.043441915909018 0 0 0
1787 1 18.888116021602414 10.863623623614892 25.598415460238623 0 0 0
1790 1 18.88110046114789 8.505155809798191 28.037066770575535 0 0 0
2076 1 20.56443782874592 8.545888744506524 25.71683176825791 0 0 0
2113 1 20.471604999535316 10.961119717487659 27.972766437105648 0 0 0
2075 2 22.24723723684276 10.893179097913 25.75555182892812 0 0 0
2078 1 22.321398889197354 8.730794792178067 27.873271914108987 0 0 0
2364 1 23.991259016490194 8.634852727535971 25.62530736307915 0 0 0
2401 1 24.041618990743526 10.870449501883293 27.833715451270933 0 0 0
2366 1 25.746024000208006 8.650927930202663 27.938798141055294 0 0 0
2363 1 25.682360722515135 10.773023364927615 25.511637756170675 0 0 0
2652 1 27.14154650954608 8.598116180907905 25.683954088367553 0 0 0
2689 1 27.16289626487887 10.997864498215684 27.96641000172905 0 0 0
1536 2 13.843660307362299 13.039623056035461 25.59440089496063 0 0 0
1538 1 15.47610615686148 12.967595025732198 27.881219757637414 0 0 0
1824 1 16.9360857536366 13.141403315866384 25.528166087271124 0 0 0
1826 1 18.72633279875856 13.015132406913951 27.710396515318 0 0 0
2112 1 20.585421776248936 13.106558113988145 25.605001673457704 0 0 0
2114 1 22.373046658682096 13.050880809989662 27.903521900523653 0 0 0
2400 1 24.015232090516744 13.118924259236426 25.4970697357207 0 0 0
2402 1 25.453479600106263 13.223534247404155 28.033261712299456 0 0 0
2688 1 27.28691191568161 13.182532311423905 25.497231373104775 0 0 0
1535 1 15.445914298355692 15.4751596255321 25.600286654189755 0 0 0
1573 1 13.776858598624099 15.35058880211308 27.786773545325545 0 0 0
1861 1 17.041741956108627 15.392880696650117 27.864123344267835 0 0 0
1823 1 18.683425284072946 15.371955342086588 25.65160762934179 0 0 0
2149 2 20.53844398551348 15.203534281924117 27.768035860213757 0 0 0
2111 1 22.140371305664555 15.471979351184988 25.529657037131074 0 0 0
2437 1 23.820273083923542 15.504855126938946 27.951865040714253 0 0 0
2399 1 25.538970204162734 15.514890834602705 25.549066148738987 0 0 0
2725 1 27.189094776228348 15.509701851173718 27.693964762072945 0 0 0
1609 1 13.674541400287684 20.23816919252716 27.703142219944873 0 0 0
1572 1 13.88355454661233 17.694766861969647 25.433536131942926 0 0 0
1571 1 15.437364915993076 19.89689391279029 25.4978322550132 0 0 0
1574 1 15.114037510471032 17.756595230933122 27.871847515316603 0 0 0
1860 2 17.075446556553114 17.684125421118125 25.81059728148274 0 0 0
1897 2 17.075053869159163 19.811258643985504 27.803717244200733 0 0 0
1862 1 18.921939661065345 17.574287520733925 27.80843349076492 0 0 0
1859 1 18.71520202110732 19.873453524408916 25.549613590796138 0 0 0
2185 1 20.443335947566787 19.97360854983096 27.797408057598957 0 0 0
2148 1 20.504289662993347 17.664844179318507 25.612089916374753 0 0 0
2150 1 22.136091199903575 17.710845435213685 27.915711211549546 0 0 0
2147 1 22.092788283284474 19.947256169010792 25.55673977074425 0 0 0
2436 1 23.865281065403604 17.659433737923464 25.668603465473034 0 0 0
2473 1 23.76640127343763 20.021371577692403 27.769313303035997 0 0 0
2435 1 25.59257730018071 19.980135983825303 25.66220916967145 0 0 0
2438 2 25.506554486803914 17.985806596100808 28.002116635971525 0 0 0
2724 1 27.21322387774565 17.796132257772165 25.673414760235882 0 0 0
2761 1 27.43244942942891 19.989071261763247 27.935542298037305 0 0 0
1468 1 13.5532706161985 4.117567220228239 30.247861612299786 0 0 0
1470 1 15.539812259531455 4.021257945638203 32.394870028556596 0 0 0
1756 1 17.354793308382867 4.070562895205618 30.146423727865002 0 0 0
1758 2 18.807417348973026 4.1376086944826564 32.62186730426454 0 0 0
2044 1 20.480862752453056 4.008911547402131 30.207327782144628 0 0 0
2046 1 22.39982206626967 4.0753007672717025 32.5032094496527 0 0 0
2332 2 24.038456260833716 4.117269067810286 30.104538775292713 0 0 0
2334 1 25.5768841733968 4.089334898623992 32.46639177110552 0 0 0
2620 1 27.265505381530108 4.071267006159347 30.354770516368212 0 0 0
1467 2 15.506674468731667 6.205679909727289 30.075725020362125 0 0 0
1505 1 13.845667414639447 6.315593552904007 32.32498036712184 0 0 0
1793 1 17.04119148957415 6.228065115173148 32.37798097733748 0 0 0
1755 1 19.098175825875263 6.220927383613784 30.365476856551872 0 0 0
2081 1 20.69934336759564 6.390729746654662 32.62213150604882 0 0 0
2043 1 22.232570735458243 6.324217483483985 30.314102650289513 0 0 0
2369 1 23.931041383353932 6.379892327687847 32.49619037223229 0 0 0
2331 1 25.728567728326606 6.372175505113377 30.33171145816461 0 0 0
2657 2 27.270581261992664 6.369299573024117 32.62484629338911 0 0 0
1504 1 13.847782980407125 8.487586787898554 30.128399066413465 0 0 0
1506 1 15.338250150271971 8.654762098520631 32.44784227873062 0 0 0
1503 1 15.45918924849257 10.888346842568817 30.35142196893175 0 0 0
1541 1 13.666571182431152 10.892558697962894 32.41123125399909 0 0 0
1792 1 17.01145019029483 8.44945268345476 30.257729674666518 0 0 0
1829 1 17.31935791999272 10.715920080843919 32.372175206516914 0 0 0
1791 1 18.74420528687524 10.806299085498345 30.1535576299397 0 0 0
1794 2 18.940319692659394 8.507116635089204 32.31280019638157 0 0 0
2080 1 20.68566574809523 8.581707215072111 30.240548754020804 0 0 0
2117 1 20.450461820182483 10.925096156536465 32.39116156426043 0 0 0
2079 1 22.278217246865033 11.02325652625435 30.151121217694794 0 0 0
2082 1 22.313966511713353 8.702213068954546 32.48258775410876 0 0 0
2368 1 23.852355368363476 8.650207259806855 30.032850244045985 0 0 0
2405 2 23.890637387114992 10.884287545664197 32.42484901809306 0 0 0
2370 1 25.5519906628378 8.524686057506225 32.38936252367729 0 0 0
2367 1 25.647060397427335 10.913688374814393 30.300395217283857 0 0 0
2656 1 27.41762557044419 8.624070006005205 30.150096817634676 0 0 0
2693 1 27.36811777252591 10.874925407108785 32.399862842773274 0 0 0
1540 1 13.751243900764393 13.021320632468985 30.107078023472756 0 0 0
1542 2 15.343099552463997 13.072586160223004 32.37761012692417 0 0 0
1828 1 17.217024663809376 13.111453854404083 30.064610733694686 0 0 0
1830 1 18.731162489568742 13.161477972648253 32.365733751207294 0 0 0
2116 2 20.46229864930994 13.175682919903647 30.04843357281159 0 0 0
2118 1 22.09325207262906 13.113347687860426 32.42199958213847 0 0 0
2404 1 23.919001040575605 13.347353611153604 30.15234386512654 0 0 0
2406 1 25.48014452277919 13.171086568713065 32.399417038133365 0 0 0
2692 2 27.32371756619804 13.138051004008014 30.103400294144304 0 0 0
1539 1 15.354518664561525 15.337182428635325 30.1042888307402 0 0 0
1577 1 13.79396802349007 15.399287696398883 32.44789825385823 0 0 0
1865 1 17.057246032362954 15.303716995220887 32.30033328215936 0 0 0
1827 1 18.847051907329245 15.526262416608201 30.030575763224864 0 0 0
2153 1 20.3871737640858 15.474599853574805 32.37921510510458 0 0 0
2115 1 22.027627659046185 15.42711669644162 30.086725844562114 0 0 0
2441 2 23.86396190228271 15.440374705455689 32.26952738353695 0 0 0
2403 1 25.651941222351997 15.539009700285634 30.032526792841832 0 0 0
2729 1 27.069120750445368 15.486999060186031 32.57860419237629 0 0 0
1575 1 15.501359025902168 20.026995666311365 30.07671551587096 0 0 0
1576 1 13.781029628911774 17.676737728829206 30.11316992634325 0 0 0
1578 1 15.627152582344628 17.64193541847215 32.32384874039239 0 0 0
1613 2 13.773506920156631 19.99249320679581 32.45638025249422 0 0 0
1901 1 17.0785965459572 19.994682114760753 32.35187453321288 0 0 0
1864 1 17.003292059651393 17.617435052693992 29.91170807706871 0 0 0
1863 1 18.684695183842138 20.06092452652336 30.031622193145353 0 0 0
1866 2 18.738794990859212 17.575077425098087 32.235383442767784 0 0 0
2152 1 20.450088373890807 17.764566250301904 30.01419172721491 0 0 0
2189 1 20.441405743264255 19.87955141652319 32.25145231398754 0 0 0
2154 1 22.06478571500014 17.693247180227416 32.483931737676585 0 0 0
2151 1 22.31594411864172 20.01009612886392 30.084833454500234 0 0 0
2440 1 23.643640409718362 17.604659640954814 30.27188501770542 0 0 0
2477 1 23.870201348265848 19.94940442921895 32.3828215234509 0 0 0
2439 1 25.49787700559431 20.043295062624175 29.897017576433942 0 0 0
2765 1 27.249487405144784 19.993118298622804 32.18101596195204 0 0 0
2728 1 27.328442043445165 17.856682911207827 29.995790530495036 0 0 0
2442 1 25.500635255247282 17.624822721102056 32.34252957109467 0 0 0
1472 1 13.845977759085823 4.131924881137334 34.810952523818514 0 0 0
1474 1 15.485485894117051 4.063408434458687 37.03811585702722 0 0 0
1760 1 17.015675768374717 4.1267603186914705 34.62184068909663 0 0 0
1762 1 18.891962071783777 4.179723396873431 36.910970241220596 0 0 0
2048 1 20.68322245667577 4.07091653903428 34.5895056004222 0 0 0
2050 1 22.21185928913777 3.814854499305976 37.01185168617144 0 0 0
2336 1 24.007495345918993 4.013084189354581 34.827510059308295 0 0 0
2338 2 25.668904271324106 4.111103166754491 36.986898448063286 0 0 0
2624 1 27.273641573422555 4.317179935194764 34.81892367791387 0 0 0
1471 1 15.48971026041081 6.49280877013476 34.766126727377525 0 0 0
1509 1 13.887591267060827 6.362932187208585 37.119580984971606 0 0 0
1797 1 17.163865607909305 6.310864339350225 37.02982377788052 0 0 0
1759 1 18.880343067118204 6.26923377650073 34.61422100017852 0 0 0
2085 1 20.60673292432681 6.2152940673859 37.05052729224373 0 0 0
2047 1 22.296926783240114 6.382597563903076 34.766734351984624 0 0 0
2373 1 23.69671536959507 6.356993814650155 37.190702354596695 0 0 0
2335 1 25.3464214289568 6.338753877824509 34.94427800162086 0 0 0
2661 1 27.298318596632175 6.453875925922045 37.07388642109022 0 0 0
1508 1 13.758450651202121 8.684165865596675 34.81907006623656 0 0 0
1510 1 15.565706739018147 8.654031171167443 36.96959645036155 0 0 0
1507 1 15.502959415332658 10.778711300206613 34.62044240021589 0 0 0
1545 1 13.727795121510002 10.941858172118584 36.96240735083387 0 0 0
1796 1 17.305985891307945 8.646695140455464 34.52429931027116 0 0 0
1833 1 17.201147911286203 10.827376291144674 36.94004584634223 0 0 0
1795 1 18.808067775874758 10.919736257619318 34.749126729715314 0 0 0
1798 1 18.79301891406306 8.501411703259013 36.94668983871357 0 0 0
2084 1 20.523368340296628 8.570042900598523 34.63751644128814 0 0 0
2121 1 20.456360040324483 10.810198922038598 37.07667913366136 0 0 0
2083 1 22.139037350204525 10.853229363068628 34.66529535946319 0 0 0
2086 2 22.11736613846169 8.624186543224308 37.05736504352345 0 0 0
2372 1 23.760817313834913 8.569907742493498 34.813098018693836 0 0 0
2409 1 23.858689895235585 10.88076484239327 36.72880888583296 0 0 0
2371 1 25.596721483821543 10.882953171312279 34.498802985971025 0 0 0
2374 1 25.346167725503914 8.517711929654979 37.05964855768727 0 0 0
2660 1 27.291870584935054 8.519511726698834 34.74842446220897 0 0 0
2697 1 27.240879054849028 10.861990952504073 36.981137160610714 0 0 0
1544 1 13.871240677532885 13.31517783105076 34.68588131838642 0 0 0
1546 1 15.362713629066189 13.111711613471352 36.975518678552476 0 0 0
1832 1 17.18017775244008 13.184607740654586 34.648851453947074 0 0 0
1834 1 18.776560102579847 13.136545948645843 37.01932581466188 0 0 0
2120 1 20.37049360446987 13.140908808257686 34.725578926103694 0 0 0
2122 1 21.996890296325386 13.121934352096632 36.963109111094624 0 0 0
2408 1 23.88736092328326 13.028820174827251 34.6495552574946 0 0 0
2410 1 25.472488286591712 13.0601136532527 37.09420108860131 0 0 0
2696 1 27.1699422770939 13.210304964028124 34.573183885990076 0 0 0
1543 1 15.545186521025766 15.65381847581505 34.749547340376694 0 0 0
1581 1 13.86536457130936 15.541748486851363 36.961417056225926 0 0 0
1869 1 17.04836288364126 15.31865380371541 37.04387433817041 0 0 0
1831 1 18.689935079026004 15.613670864007618 34.637446011255676 0 0 0
2157 1 20.470158345486755 15.407078730557288 36.84717760525777 0 0 0
2119 1 22.216428936304762 15.291396758576749 34.5702159319309 0 0 0
2445 1 23.787971405070166 15.352014669297269 36.85525989972237 0 0 0
2407 1 25.337058294819652 15.413885447315922 34.674937390635506 0 0 0
2733 1 27.07506933720501 15.35780054249106 36.83562025384445 0 0 0
1580 1 13.713749107158279 17.664876446358903 34.73128539089609 0 0 0
1582 2 15.477690685392684 17.806876281067346 36.90281797130065 0 0 0
1579 1 15.478677852256695 20.074454592727 34.76343625099045 0 0 0
1617 1 13.692041187130688 19.84529596540132 36.903262411813046 0 0 0
1868 1 17.180374970447467 17.8379964641832 34.67386430181813 0 0 0
1905 1 17.321876410543698 20.045487759557474 36.86373941301436 0 0 0
1870 1 18.802644256415785 17.65593280674181 36.99323602013058 0 0 0
1867 1 18.97911120073403 20.103778815467724 34.54897786527164 0 0 0
2156 1 20.44430525038857 17.78086149154066 34.55593916260074 0 0 0
2193 1 20.582677623228463 20.037754272135892 37.048333033431064 0 0 0
2158 1 22.15224961671388 17.640328603241535 36.961408537901434 0 0 0
2155 1 22.206239923338323 20.098806371611253 34.45426172417103 0 0 0
2444 1 23.80472283378166 17.75616558713164 34.73740859485008 0 0 0
2481 1 23.720215407721895 19.927620951890432 37.03957071678015 0 0 0
2446 2 25.45470553769121 17.692724955481808 36.9924837323168 0 0 0
2732 1 27.18323761665388 17.582050670043834 34.60424596525728 0 0 0
2769 1 27.274965228091325 19.917805552634427 36.80884869265836 0 0 0
2443 1 25.488180494995504 19.92067485215497 34.711615106443986 0 0 0
1476 1 13.636086622383726 4.049704001091864 39.19462267371806 0 0 0
1764 1 17.3824813628775 4.027383761862912 39.28866799486299 0 0 0
2736 1 27.309522678050882 17.521127446352576 39.22914526255502 0 0 0
2052 2 20.56534679547762 3.973954484204449 39.18054581795124 0 0 0
2340 1 23.927311385788002 3.956282431700851 39.1403846350493 0 0 0
2628 1 27.48379298186931 4.051214516355662 39.22433746668443 0 0 0
1475 2 15.365494237227775 6.239972624485296 39.31839994154382 0 0 0
2447 1 25.653736887338308 19.90932927196115 39.04304655027265 0 0 0
1763 1 18.982329119607254 6.2249602061681975 39.291199709408176 0 0 0
2051 1 22.123754539490857 6.2142279750763585 39.4747972024026 0 0 0
2339 1 25.61506447082687 6.359954846260474 39.09548926131673 0 0 0
1585 2 13.865452456315388 20.003301304739118 41.201121450815904 0 0 -1
1512 1 13.735527456802448 8.550138620054955 39.29742332172464 0 0 0
1511 1 15.514009880494783 10.93513945408956 39.13542340888641 0 0 0
2448 1 23.910407271852613 17.67085378703858 39.23036564779359 0 0 0
1800 1 17.107495806925844 8.528201809004795 39.22356472538195 0 0 0
1799 1 18.7764561110188 10.806387578464667 39.297818345488466 0 0 0
2088 1 20.443699600435416 8.549701485219689 39.310190833001144 0 0 0
2701 2 27.16906087742497 15.265290160461506 41.42094723133056 0 0 -1
2087 1 22.335890395711097 10.87000199324568 39.07372583737801 0 0 0
2376 1 23.76175008206179 8.549007985315544 39.374350111646976 0 0 0
2159 2 22.309270960034365 19.864029494571643 39.26206389347101 0 0 0
2664 2 27.20904339234394 8.621991609051467 38.99933915161213 0 0 0
2375 1 25.270551488497823 10.795417072061715 39.20855943940465 0 0 0
2126 1 22.156244461066823 17.680970133876507 41.384108768652595 0 0 -1
1548 1 13.550318405075583 13.10406917185293 39.222442168383026 0 0 0
1836 1 17.264233246875122 13.303672956765505 39.31092535143398 0 0 0
2124 1 20.57737254508337 13.160635131688228 39.34060556848097 0 0 0
2412 2 23.672381067048146 13.304754510027845 39.21809473396955 0 0 0
2700 1 27.36238327128891 13.027829097055726 39.16822034679694 0 0 0
1547 2 15.449699904075459 15.31291026289682 39.37472924403875 0 0 0
1513 1 13.96793984610676 10.9823511997292 41.37504527448239 0 0 -1
1835 1 18.95180980772029 15.480875871253449 39.209166622910104 0 0 0
2123 1 22.080619881075314 15.600386475793195 39.08391670903674 0 0 0
2160 1 20.463022566719093 17.874906175949448 39.15628453916679 0 0 0
2411 1 25.586511310274847 15.368361874160252 39.177843477368995 0 0 0
1514 1 15.552797879153154 13.169617259951755 41.37235611590532 0 0 -1
2665 2 27.203495501868133 11.012984614579203 41.26239454894579 0 0 -1
1584 1 13.919077061674479 17.69578033967776 39.17764183795238 0 0 0
1583 1 15.624580565011136 20.038099537636196 39.03726974724124 0 0 0
1872 1 17.041336687663403 17.655205553103656 39.21233878081763 0 0 0
1871 1 18.70008183750567 19.91294359786416 39.23780645480045 0 0 0
1837 1 17.207779639526084 15.412021637653769 41.3486570907976 0 0 -1
2413 1 23.78893905135497 15.49350171367803 41.27513607767908 0 0 -1
2378 1 25.397712296378558 13.105721234315224 41.41870914613165 0 0 -1
2737 1 27.18698280379136 19.904543124801958 41.343898382213936 0 0 -1
1550 1 15.493513582320602 17.589507912107784 41.3611438074371 0 0 -1
2306 1 25.678592791010825 3.91959140612067 41.39065658345355 0 0 -1
1765 1 17.440816000656092 6.407695189430163 41.41210574275868 0 0 -1
2629 1 27.1964086057214 6.3655955386167085 41.39697046917274 0 0 -1
1838 1 18.890689653904353 17.648516637565876 41.42606457510558 0 0 -1
1442 1 15.42533375942066 4.228874875376256 41.43005344684211 0 0 -1
2414 1 25.723362207551986 17.58335374028063 41.4321422677937 0 0 -1
1588 1 13.77883450769172 22.152231782692848 2.8366443418712985 0 0 0
1729 1 16.91068511794816 38.057184672270864 0.7963550943561177 0 -1 0
1876 1 17.08805943496577 21.9365202690001 2.9220659300048735 0 0 0
2563 1 25.477448453530624 38.01767576635698 7.54529632380247 0 0 0
2164 1 20.5930870339761 22.135391014284235 3.0225637164068755 0 0 0
2452 1 23.988198235298807 22.20723756548274 2.91570024933255 0 0 0
2740 1 27.369659730185088 22.291048237710022 2.900876429350645 0 0 0
1657 1 13.783471685592087 29.044126965232813 0.7993284207664799 0 0 0
1587 2 15.642292161441862 24.374204384656768 2.745526362949983 0 0 0
1875 1 18.909279632782464 24.388007803694144 2.9282928460309967 0 0 0
2564 1 24.098210526225316 35.59960369954752 7.403487571272406 0 0 0
2163 1 22.23617524114233 24.52219488208857 2.909293750081674 0 0 0
2451 1 25.470042188759287 24.403070255983828 2.765666659079811 0 0 0
2275 1 22.319782946085617 37.741707863289946 7.671264917832287 0 0 0
1982 1 18.76181763603237 35.73127016289853 0.7568178452369021 0 0 0
1624 1 13.890475272278398 26.771222265492273 3.1096734042101577 0 0 0
1623 1 15.68164438079074 28.953087795310555 2.944372842653454 0 0 0
1912 1 17.214287245932244 26.633543219793644 2.8751425443258554 0 0 0
1911 2 18.80373263990084 28.89527098775549 2.7253875588473147 0 0 0
2562 1 25.58939496937763 35.60999487649755 5.116616930841304 0 0 0
2200 1 20.472685004633064 26.750634343706043 2.955760370348813 0 0 0
2199 1 22.314850109482656 28.928115442371233 2.8921666755870783 0 0 0
2488 1 23.989447015971226 26.65063424408968 2.8099687593202987 0 0 0
2852 1 27.21105545772569 35.713211989807746 7.473762697494468 0 0 0
2021 1 20.46554078477152 37.970198018755504 5.395860844992449 0 -1 0
2776 1 27.234623583590576 26.63480374458125 2.7756839193116307 0 0 0
2487 1 25.53659811176734 28.971520678151304 2.840061189286284 0 0 0
1660 2 13.831009383648276 31.08459994259556 2.947903209719848 0 0 0
1987 1 18.796295816702113 38.148997597555855 7.523294924289182 0 0 0
1948 1 17.301294792694673 31.27514340218666 2.875842677900478 0 0 0
2236 1 20.584596682981072 31.120542514457167 2.826855800121883 0 0 0
2524 1 24.00654442609716 31.125246307769054 2.733228449248212 0 0 0
2812 2 27.157032691841742 31.138754840562417 3.0009350221737368 0 0 0
1659 1 15.271320288579389 33.46163513339667 2.9176399720153157 0 0 0
2276 1 20.393648668680807 35.72703972530161 7.4167795657727495 0 0 0
1947 1 18.863579071164477 33.52453296753686 2.8210646981570666 0 0 0
2235 1 22.23791633292003 33.416233361420765 2.6550674374370375 0 0 0
1733 1 17.301145316601207 38.011168103860896 5.256130152576234 0 -1 0
2523 1 25.597188970289082 33.4465869827427 2.8343048209652544 0 0 0
1696 1 13.690337185147268 35.83632094192428 2.8701040008223404 0 0 0
1695 1 15.286307416288924 38.05882182813833 3.119418335880584 0 0 0
2597 1 27.09306425995735 38.070392634109155 5.2788890727473845 0 -1 0
2274 2 22.29711624591917 35.85049779937893 5.307796328248889 0 0 0
1984 1 16.967344386510476 35.79131726846784 3.001802641289039 0 0 0
1983 2 18.76327081920163 37.86440318582814 2.9630040488793656 0 0 0
2272 1 20.702903871304297 35.75334181978122 2.9291378983338734 0 0 0
2309 1 23.93889263425284 38.071655541357956 5.251667412496632 0 -1 0
1988 1 17.18081831912935 35.78724174829067 7.432893959776072 0 0 0
2271 1 21.990845076707185 38.02226106104108 3.1805501195283323 0 0 0
2560 1 23.901774328884997 35.84587410195975 2.9986825043142926 0 0 0
2559 1 25.695861274227273 37.89747849968744 2.953634140928027 0 0 0
2848 1 27.085975066196827 35.640500549041484 2.864918950695583 0 0 0
1590 1 15.6031408839948 22.315831570405535 5.080077568950755 0 0 0
1592 1 14.044750868497136 22.12064182189288 7.444799408807727 0 0 0
1880 1 17.06271449454771 22.223875799138447 7.566590925217713 0 0 0
1878 1 18.72664435680259 22.05797362737491 5.302470114217097 0 0 0
2168 1 20.513728960102526 22.17177080928109 7.518129306724642 0 0 0
2166 1 22.19777106935592 22.151433054963693 5.164729654047817 0 0 0
2456 1 23.819453975421755 22.124171803678003 7.536452818789961 0 0 0
2454 1 25.668132761147795 22.03609246291409 5.134672907416357 0 0 0
2744 1 27.13738956712081 22.12833025408093 7.492343569892406 0 0 0
1591 1 15.534719528816655 24.662192245290825 7.376483441881406 0 0 0
1625 1 14.060556720306579 24.451643073921016 4.974422037414055 0 0 0
1913 1 17.17246892447947 24.50167770127593 5.12422426458608 0 0 0
1879 1 18.866230180140626 24.453760638994133 7.483602188552643 0 0 0
2201 1 20.63808584378554 24.501135316452814 5.155804108977677 0 0 0
2167 1 22.2085999292574 24.547976140964565 7.486182099587061 0 0 0
2489 1 23.787583246970584 24.46138645665899 5.2318876557263865 0 0 0
2455 1 25.57107323617945 24.29446385724289 7.264648477210822 0 0 0
2777 1 27.180749371061786 24.430230962557584 5.022882608881131 0 0 0
1628 1 13.713501160682533 26.68916159823527 7.386860080113208 0 0 0
1626 2 15.64085653536062 26.806496115290074 5.172562326433083 0 0 0
1661 1 13.822527438804272 29.11294507580094 5.044515254789148 0 0 0
1627 1 15.523012049958147 29.035087910786647 7.3545965147048005 0 0 0
1916 1 17.294454859785514 26.765490924970095 7.404298131604943 0 0 0
1949 1 17.266644480456428 29.080803196509258 5.27246648208126 0 0 0
1915 1 18.955963414589245 28.99815482113606 7.485844007752457 0 0 0
1914 1 18.82526727585026 26.689407475346982 5.179475387596072 0 0 0
2204 1 20.460687252202238 26.689862117475634 7.457388079863286 0 0 0
2237 1 20.403875054203127 28.97483558962691 5.017598909511758 0 0 0
2203 1 22.085081564115157 28.888772036630918 7.192895112186148 0 0 0
2202 2 22.230847838974643 26.75369615642876 5.087100121893797 0 0 0
2492 1 23.918385829238222 26.7253034942466 7.356136787844293 0 0 0
2525 1 23.919092628639483 28.821684303160673 5.040405426655937 0 0 0
2780 1 27.035719444451964 26.696345808929024 7.475645471166594 0 0 0
2490 1 25.610447212245614 26.628648057481655 5.108977423490125 0 0 0
2491 1 25.68028699308501 29.152181017708976 7.4728564499199255 0 0 0
2813 1 27.3018629606466 28.97327370067106 5.134348213850847 0 0 0
1664 1 13.85462621518359 31.306967958725988 7.3134751705428735 0 0 0
1662 1 15.635190519013538 31.381633117437584 5.215203075056482 0 0 0
1952 1 17.166264971763784 31.262655417481323 7.427125374285271 0 0 0
1950 1 18.852924212179353 31.435233546067987 5.212777033922927 0 0 0
2240 1 20.618278179353624 31.271606420572475 7.463672916289135 0 0 0
2238 1 22.278589557704088 31.077331885087805 5.088319845889132 0 0 0
2528 2 23.808307645828336 31.255226722703046 7.4756919061496925 0 0 0
2526 1 25.384641970320416 31.234144794608216 5.145396472511798 0 0 0
2816 1 27.340488364576427 31.169196821612392 7.377645733933958 0 0 0
1697 2 13.757652639337941 33.420795833855564 5.297030886044308 0 0 0
1663 1 15.624185316365732 33.442033482893734 7.3965667391541965 0 0 0
1985 1 17.247935324625196 33.64895570440474 5.081119107709738 0 0 0
1951 2 18.897131425087398 33.49781967444281 7.378903814487373 0 0 0
2273 1 20.70364759656161 33.54178392298243 5.0300789088914275 0 0 0
2239 1 22.11548461637925 33.57500485982236 7.415415775994869 0 0 0
2561 1 23.86705153347799 33.531972865760295 5.178880748427815 0 0 0
2849 1 27.26293310706968 33.36485790879919 5.282795973067707 0 0 0
2527 1 25.54749774777297 33.34609505895 7.396255337511425 0 0 0
1699 2 15.484652085122857 38.033120390438725 7.457952458413066 0 0 0
1700 1 13.66658520900403 35.753878054627734 7.603187284518217 0 0 0
1445 1 13.639948235275 38.087945707203275 5.3312514640365185 0 -1 0
1698 1 15.34376578062139 35.79828381329935 5.261476981842963 0 0 0
1986 1 18.898418839106853 35.64032470900362 5.036427582892509 0 0 0
1874 1 18.836559599533704 22.239879953499887 0.7364787573014953 0 0 0
1441 2 13.750902868151755 38.16023361788509 0.8490798837212682 0 -1 0
2017 1 20.7042192700812 37.8827023191922 0.7724811147494126 0 -1 0
2558 1 25.43252907614467 35.998581231430336 0.8166782102779029 0 0 0
1621 1 13.640582850992274 24.482595995962754 0.8379698365280132 0 0 0
2593 1 27.560513830310015 38.1258796793508 0.9378270300586335 0 -1 0
2305 1 23.748264536247824 38.05144617884266 0.862153078689278 0 -1 0
1981 1 17.067783870413106 33.43484591007346 0.7701262537411576 0 0 0
1658 1 15.494516883851524 31.303513632007675 0.7180025103751859 0 0 0
1594 2 15.690130481208886 22.096065792100653 9.886626750489667 0 0 0
1596 1 13.604700731119426 22.301516200404183 11.941255169688816 0 0 0
1884 1 17.410523117823562 22.00191440874096 12.089131053276581 0 0 0
1882 1 18.92491733243593 22.141282946965816 9.877069236391241 0 0 0
2172 2 20.421246522823044 22.216732963711145 12.226082510472235 0 0 0
2170 1 22.12498968250348 22.208979792672345 9.872028927094153 0 0 0
2460 1 23.84094088502191 22.24076369146242 11.985980833247284 0 0 0
2458 2 25.495563529702107 22.05366563994436 9.757540579131577 0 0 0
2748 1 27.34352109145578 22.2935437920609 11.83022621870936 0 0 0
1595 1 15.642699315053335 24.395192831409194 11.937653704133034 0 0 0
1629 1 13.864017788646994 24.42949906143083 9.737148153392987 0 0 0
1917 1 17.276033524733762 24.479331925297434 9.624590155267759 0 0 0
1883 1 19.05653401607021 24.54819500764229 11.782042070469908 0 0 0
2205 2 20.634678874417258 24.53167694924256 9.64353557975088 0 0 0
2171 1 22.080025247627468 24.49148855742449 12.022529159821406 0 0 0
2493 1 23.829313680013104 24.344050064477155 9.704701156727984 0 0 0
2459 1 25.712697116635567 24.530523889377807 12.060965018982401 0 0 0
2781 1 27.102678492306435 24.443432673399244 9.585452518863708 0 0 0
1632 1 13.899313304121833 26.618869989165564 11.933947745690089 0 0 0
1665 1 13.904009556766049 28.877114589969153 9.581027520464408 0 0 0
1630 1 15.513520838784096 26.712153195126895 9.537478754426422 0 0 0
1631 1 15.422919776440441 29.11224051985999 11.925295415699507 0 0 0
1920 1 17.13495557857787 26.73570876856141 12.029577628312053 0 0 0
1953 1 17.331579535887574 29.12375389393204 9.732752560193868 0 0 0
1919 1 18.927354738777453 28.940969359161787 11.991882027838955 0 0 0
1918 1 18.93882097433918 26.830099795270623 9.720396663022218 0 0 0
2208 1 20.74836124029892 26.825156119172448 11.906316191711186 0 0 0
2241 1 20.590232146611868 29.05257053757085 9.676231528250169 0 0 0
2206 1 22.14980105277779 26.637972865283885 9.61428543540776 0 0 0
2207 2 22.37738216692314 29.09975119435446 11.869367923074236 0 0 0
2496 1 24.02947284476349 26.661907579563195 11.95726096931324 0 0 0
2529 1 23.821329440356216 28.99350941757952 9.329908876210983 0 0 0
2784 1 27.34386365655177 26.710538135996046 11.771789076223087 0 0 0
2494 1 25.534088131665886 26.728698514183158 9.68998845900004 0 0 0
2495 1 25.43135414886576 28.963535474713538 11.85018861165993 0 0 0
2817 1 27.302567708350473 28.950205973387707 9.705819190102716 0 0 0
1668 1 13.799860196889668 31.330012885353064 12.06636198285597 0 0 0
1666 2 15.487504343806975 31.249763800568516 9.663764031003788 0 0 0
1956 1 17.17863646240256 31.25635931925054 12.069508101428497 0 0 0
1954 1 18.83630606654813 31.231217619656785 9.841870206719543 0 0 0
2244 1 20.652584069883012 31.23910706238726 12.04734570956818 0 0 0
2242 1 22.136963255084986 31.18078261644946 9.781283623733284 0 0 0
2532 1 23.901738023743352 31.362459719047344 12.025917173755692 0 0 0
2530 1 25.68574661263363 31.25472192818962 9.5859053982039 0 0 0
2820 1 27.101400027420276 31.206924974957484 12.05606080886187 0 0 0
1701 1 13.873880044217394 33.48051417734095 9.76511195545043 0 0 0
1667 1 15.520066356435173 33.6221977957717 12.130501370430501 0 0 0
1989 1 17.096735533651206 33.55535947040421 9.629506794137608 0 0 0
1955 2 18.7393575509268 33.56709554209614 11.946330770038966 0 0 0
2277 1 20.509977003399076 33.529706161947715 9.699067716415678 0 0 0
2243 1 22.302894418457043 33.61922053808954 11.965960635314062 0 0 0
2565 1 23.80689396950369 33.38922541358585 9.66496771653457 0 0 0
2531 1 25.557700387925777 33.55410381455107 12.036630377316694 0 0 0
2853 1 27.304464977023454 33.448100133018315 9.600560126457541 0 0 0
1704 1 13.701134900950397 35.69255384907761 12.178587050611064 0 0 0
1449 1 13.711477422968866 38.178188600029266 9.710002950107176 0 -1 0
1703 2 15.418978490440182 38.03110862301719 11.873390320686251 0 0 0
1702 1 15.411730238254695 35.849515002667424 9.715950395998188 0 0 0
1992 1 17.11598341539054 35.865269817623684 11.987614287255782 0 0 0
1737 1 17.136503054783407 38.117872840011806 9.675876769545955 0 -1 0
1991 1 18.674549031111173 37.98676714229462 12.093043977470685 0 0 0
1990 1 18.838064023455246 35.69105423794778 9.82188362823533 0 0 0
2280 1 20.359666640882146 35.77518376132907 12.045626311376232 0 0 0
2025 1 20.533660079158544 38.04530346900183 9.816051556145988 0 -1 0
2279 2 22.16645526524191 38.072060164225235 12.14371919113258 0 0 0
2568 1 23.886500956235516 35.88103499653211 12.098032402243783 0 0 0
2278 1 22.201261400450388 35.77938056465481 9.648703115276465 0 0 0
2313 1 23.785424932007846 37.992049487335855 9.831884329566352 0 -1 0
2567 1 25.61508047841438 38.05037919695449 12.022609943493972 0 0 0
2856 1 27.178770731256215 35.822401005703135 12.069163656487506 0 0 0
2566 1 25.584829845194758 35.75365182772126 9.78511582292538 0 0 0
2601 1 27.250122510185193 38.008370852257656 9.795608121035151 0 -1 0
1598 1 15.516600061853918 22.142984941417293 14.244181866783988 0 0 0
1600 1 13.804225206706985 22.07629933236625 16.305976889178943 0 0 0
1888 2 16.996531234131236 22.235811853179754 16.591141153423344 0 0 0
1886 2 18.675165528302657 22.16633036233147 14.514745506117286 0 0 0
2176 1 20.660754081225434 22.17002889082726 16.487792383276126 0 0 0
2174 1 22.273710234295898 22.436513465787094 14.23902586964114 0 0 0
2464 1 23.901443859393694 22.16110635133845 16.27086767252515 0 0 0
2462 1 25.621606247986506 22.301873014369157 14.168937876386638 0 0 0
2752 1 27.179746879227284 22.08859777680282 16.459001699352008 0 0 0
1599 1 15.420336276972854 24.444312154588477 16.45149031308953 0 0 0
1633 1 13.908472353579949 24.43132982232946 14.043192567561555 0 0 0
1921 1 17.120476246487915 24.38861635183933 14.250823726685068 0 0 0
1887 1 18.7934323717969 24.600365014351752 16.38087262323529 0 0 0
2209 1 20.470154251479936 24.58131326245112 14.359978112885035 0 0 0
2175 1 22.349770289812245 24.443462196165157 16.38329928801616 0 0 0
2497 1 24.092365842353587 24.60110993080209 14.215309995409932 0 0 0
2463 1 25.597375524947793 24.46711539498406 16.524765864572554 0 0 0
2785 2 27.230964512965453 24.47194621390737 14.211694437072243 0 0 0
1636 2 13.76871400451261 26.76807404667154 16.594464131619475 0 0 0
1634 1 15.295552790220977 26.669900975152554 14.357782412482079 0 0 0
1635 1 15.497383767053744 29.008707296328197 16.557973280253513 0 0 0
1669 2 13.847257701860872 29.10575399313463 14.195370492697702 0 0 0
1924 1 17.097497306521042 26.765642842086212 16.520151275523155 0 0 0
1957 1 16.970994143144058 28.914081633050674 14.244084384412604 0 0 0
1923 1 18.901706447517032 28.882343449663637 16.491553012309023 0 0 0
1922 1 18.89136769441385 26.8638761202859 14.226022616482421 0 0 0
2212 2 20.556215807165554 26.654552177734594 16.5202680655306 0 0 0
2245 1 20.659277052426773 29.06503415696956 14.098661620375141 0 0 0
2210 1 22.286006094500074 26.805369215988502 14.145183499903926 0 0 0
2211 1 22.352026512003814 28.81066011884131 16.34695712438105 0 0 0
2500 1 24.03563753567954 26.71474166424151 16.38752956269557 0 0 0
2533 1 23.935735788551955 28.960637044173158 14.224544947070523 0 0 0
2788 1 27.164089255713684 26.765976562923992 16.40092916508336 0 0 0
2498 1 25.635914123352883 26.806342477788807 14.098592843452481 0 0 0
2499 1 25.51500851745904 29.023825448115375 16.413210291614696 0 0 0
2821 2 27.293374634852345 29.012476860616168 14.097187803245424 0 0 0
1672 1 13.767421411153844 31.40023039227396 16.51301869984119 0 0 0
1670 1 15.515836748807057 31.35288464434881 14.260481303140605 0 0 0
1960 1 17.364615311711855 31.177722951228358 16.57077986423213 0 0 0
1958 1 18.893611281851918 31.274316772699695 14.201228964808982 0 0 0
2248 1 20.481066575661753 31.035899429643685 16.472823379488982 0 0 0
2246 1 22.26300802337704 31.33734919490514 14.440894956531722 0 0 0
2536 2 23.737774081128943 31.406079650047747 16.797477380403556 0 0 0
2824 1 27.340489027200363 31.123613319051216 16.40618342371642 0 0 0
2534 1 25.37472802499159 31.289798209221246 14.402730568819136 0 0 0
1705 2 13.82781104096108 33.5993490264743 14.338750842395926 0 0 0
1671 1 15.541259960497655 33.515505937474316 16.71229223102798 0 0 0
1993 1 17.097367673960616 33.568713556625994 14.382796673377213 0 0 0
1959 1 18.938518429427535 33.51870601245959 16.633723896889713 0 0 0
2281 1 20.416605957370084 33.64208871910789 14.193192450980693 0 0 0
2247 1 22.03491529517262 33.54760552784336 16.571969378423198 0 0 0
2569 1 23.80397476957148 33.723381431415 14.356384306366808 0 0 0
2535 1 25.50560898782412 33.407760285316286 16.55316418112543 0 0 0
2857 1 27.275093769302067 33.57821937729916 14.327594852714542 0 0 0
1708 1 13.846907966918138 35.77542945861169 16.616491100996484 0 0 0
1453 1 14.05849324573186 38.12369412086391 14.294678651253546 0 -1 0
1707 1 15.783300363124205 37.97623480396257 16.658967954775495 0 0 0
1706 1 15.530676060164854 35.776453891583486 14.283236696679852 0 0 0
1996 1 17.201763223550838 35.60469060566849 16.51793017010211 0 0 0
1741 1 16.971737295630703 38.11481689871861 14.225000019975578 0 -1 0
1995 2 18.66554072913971 38.03317225810254 16.434594945681106 0 0 0
1994 1 18.714478551427327 35.87010793558893 14.312617496639346 0 0 0
2284 1 20.361979842017018 35.875298089423 16.530096090925433 0 0 0
2029 1 20.460996910878983 38.07791684093041 14.312732187327331 0 -1 0
2282 1 22.10427470078355 35.852232597637624 14.277796639648217 0 0 0
2283 1 22.376353325408807 38.09769687757969 16.526762000949596 0 0 0
2572 2 23.873023962643007 35.674257614748846 16.588596924836036 0 0 0
2317 1 24.07432281307765 38.102745864895276 14.389323509913025 0 -1 0
2570 1 25.54834982154744 35.82608728969328 14.368117356178715 0 0 0
2571 1 25.67101229650723 37.943261219750426 16.649717219511455 0 0 0
2860 1 27.28116870083349 35.796819463958144 16.50568770037554 0 0 0
2605 1 27.274361218498417 38.0598366272692 14.327003796196454 0 -1 0
1602 1 15.39688121218569 22.203204727426016 18.758459299673135 0 0 0
1604 1 13.733118883465341 22.20220084893506 21.069648510010087 0 0 0
1890 1 18.778405512442276 22.38662935236246 18.644375406321043 0 0 0
2178 1 22.30258439690036 22.2834437993021 18.818090266803303 0 0 0
2466 1 25.609397169323266 22.117640652205043 18.74614390441713 0 0 0
1637 1 13.719872877149413 24.417690039935216 18.521439609061133 0 0 0
1925 1 17.03746022704172 24.66245372440077 18.70176710464002 0 0 0
2213 1 20.637608696681188 24.486506427012642 18.688442076025016 0 0 0
2501 1 24.043570720341307 24.43078984858472 18.727633037436615 0 0 0
2789 2 27.28850781383211 24.42845775532179 18.74802169741758 0 0 0
1673 1 13.67075180441002 29.14739414300689 18.671829913113516 0 0 0
1638 1 15.408390114034177 26.770125609910902 18.73332689267439 0 0 0
1639 1 15.372936164527946 29.048693840694042 21.01923464752992 0 0 0
1961 1 17.210131866289434 28.98857875663212 18.67619144568078 0 0 0
1927 1 18.9002165541833 28.867487926086795 20.97817565016213 0 0 0
1926 1 18.839339871692463 26.809613799249895 18.802454702554645 0 0 0
2249 1 20.598459297087807 28.931865574477307 18.593972274337986 0 0 0
2215 1 22.202260992568444 28.911157496711553 20.881919563644434 0 0 0
2214 1 22.3393009148421 26.70456747287087 18.650201435755758 0 0 0
2537 1 24.0092416501568 29.101941344525454 18.709295277875384 0 0 0
2502 1 25.74455618856916 26.82310254084373 18.66881250451756 0 0 0
2825 2 27.368066131150833 28.993136052699068 18.56066492644764 0 0 0
1674 1 15.490297022332367 31.24354870361636 18.858991545332053 0 0 0
1962 1 19.038973928405543 31.291680842692582 18.84654996984391 0 0 0
2252 1 20.61863441793253 31.1645715753798 21.12873543040486 0 0 0
2250 2 22.092674384230953 31.203265447441442 18.741317774864847 0 0 0
2538 1 25.643075854943998 31.322512683783234 18.639398703418856 0 0 0
2828 1 27.1860345025776 31.374977135903052 20.996910129730345 0 0 0
1709 1 13.742818707146341 33.60915286975837 18.867563185560623 0 0 0
1675 2 15.689839880993137 33.51711645182013 20.975331432816976 0 0 0
1997 1 17.396908749132493 33.5003692581993 18.77367404944916 0 0 0
1963 1 18.77431842682035 33.42294157772277 21.176963819547723 0 0 0
2285 1 20.545444755230836 33.658473294410335 18.823172219687294 0 0 0
2251 1 22.348823944283613 33.46802744462438 21.02840386162521 0 0 0
2573 1 23.84255723826072 33.54734963107171 18.735824948786117 0 0 0
2861 1 27.12788037883134 33.65718225657703 18.858961554857533 0 0 0
1710 2 15.682101267913993 35.72895880043652 18.821970329126444 0 0 0
1457 1 13.798531957191361 37.99311764529811 18.868665211106805 0 -1 0
1745 1 17.226714783511078 38.12985233309599 19.033996250257132 0 -1 0
1998 1 18.89328215647942 35.80431509282765 18.816446678732333 0 0 0
1999 2 18.954978751868783 38.15238317754362 21.12907385878984 0 0 0
2033 1 20.463647508079294 38.01335875245393 18.793560672493925 0 -1 0
2288 1 20.55356390522898 35.941096056141824 21.090830652814013 0 0 0
2287 1 22.153850332459236 38.08213610207464 21.034519381323136 0 0 0
2286 1 22.300590681681108 35.80072295625599 18.79980083238129 0 0 0
2321 2 23.9975483523398 38.029644095273085 18.903648677395694 0 -1 0
2574 1 25.613499306500447 35.880008744336166 18.862681609407975 0 0 0
2609 1 27.349317320845493 38.13454208046446 18.967238419171025 0 -1 0
2575 1 25.67911053753391 38.2322407541425 21.17746322700549 0 0 0
1606 1 15.546256478377597 22.213921507316968 23.433142990599364 0 0 0
1892 1 17.071997640874518 22.157377129402562 21.008055265832457 0 0 0
1894 1 18.81172284945943 21.965931782697695 23.347831414578387 0 0 0
2180 1 20.53052888620103 22.263964745492462 21.006283649500634 0 0 0
2468 1 23.916473601217927 22.10308167268682 21.095275857063303 0 0 0
2182 1 22.0455578444663 22.08150896379362 23.418026605820838 0 0 0
2756 1 27.26753477953027 22.19720358143481 21.049681520373962 0 0 0
2470 2 25.60241946416976 22.197603119450633 23.298649548922644 0 0 0
1603 1 15.536856604093739 24.38771989127314 21.064941715851685 0 0 0
1641 1 13.700807216814706 24.569366441320664 23.385131134741027 0 0 0
1891 1 18.787750720655538 24.553122679535598 20.911572875815732 0 0 0
1929 1 17.238518650792884 24.586024802706437 23.321520239497612 0 0 0
2217 1 20.435518011847194 24.326194611444098 23.318292180349083 0 0 0
2179 1 22.206222648341985 24.39422101732051 20.965736659182024 0 0 0
2505 1 23.746532753746486 24.313241317234812 23.358478756550618 0 0 0
2467 1 25.5594205674008 24.443438216934464 21.026299734873877 0 0 0
2793 1 27.356339715525817 24.474851907634147 23.293111208675263 0 0 0
1640 1 13.96485641575385 26.71666247856287 21.248966991204504 0 0 0
1642 1 15.54887934366677 26.768175547248806 23.467367022099264 0 0 0
1677 1 13.872746004997673 29.052577972247317 23.483700160861524 0 0 0
1928 2 17.09701584496065 26.722348746833234 21.14618486922288 0 0 0
1965 1 17.19293955413034 28.988061313651684 23.238922910160298 0 0 0
1930 1 18.881911165931847 26.74723426782205 23.178624263221113 0 0 0
2216 1 20.691623073119437 26.791296155311382 21.01356458317413 0 0 0
2253 2 20.520918924987516 28.895864435023668 23.17617204595229 0 0 0
2504 1 23.937009733564548 26.690068800431998 20.923535760735984 0 0 0
2218 1 22.195121953253057 26.62934468424606 23.30337988951834 0 0 0
2541 1 23.788749903083353 28.987020115363947 23.12254897726287 0 0 0
2503 1 25.60030038459168 28.996966547722465 20.876346087387883 0 0 0
2792 1 27.15401884272765 26.668797517340273 21.135250578893316 0 0 0
2506 1 25.36370974691611 26.624392490113753 23.300273965383138 0 0 0
2829 1 27.202892003024548 28.792120590374058 23.29761730695725 0 0 0
1676 1 13.853635276387628 31.313441130029474 21.03294154170967 0 0 0
1678 1 15.551169271819038 31.248305686652156 23.36520939367993 0 0 0
1964 1 17.190717844196556 31.22578273593934 20.997420035610663 0 0 0
1966 1 18.812635840479253 31.250618243297016 23.394521515257797 0 0 0
2254 1 22.267581135818098 31.03936315373731 23.37653761570218 0 0 0
2540 1 23.95378021058408 31.211737961593265 21.03826576618746 0 0 0
2542 1 25.54874487244001 31.180782649304497 23.31802077849941 0 0 0
1713 1 13.97877580135276 33.54271877022866 23.18713723707879 0 0 0
2001 1 17.145226070679204 33.63804338274271 23.33976270065614 0 0 0
2289 1 20.53161286734533 33.39524326093089 23.344021791910155 0 0 0
2577 1 23.73727211895468 33.328452357004764 23.39413642472459 0 0 0
2539 2 25.48367337055557 33.56627717464208 21.123646734155145 0 0 0
2865 1 27.26604433994748 33.49436335186205 23.23245893354235 0 0 0
1711 1 15.417169981636267 37.96570194355547 21.18859153101336 0 0 0
1712 1 13.821891634162426 35.765653424372 21.16233068350907 0 0 0
1461 1 13.783497814837116 37.95355272470274 23.428609899609633 0 -1 0
1714 2 15.532424419936458 35.78960017761262 23.493120103500004 0 0 0
2000 1 17.22860102389833 35.7319526483958 21.1453033184474 0 0 0
1749 1 17.279933757487267 38.016066771431504 23.34067193010419 0 -1 0
2002 1 18.89912363609278 35.78081707157758 23.482374293395193 0 0 0
2037 1 20.553854273972338 38.045922176156964 23.49163456523159 0 -1 0
2576 1 24.05245905315199 35.91353749784903 21.118808179334 0 0 0
2290 1 22.287963143487985 35.75914292147264 23.299994555145652 0 0 0
2325 2 23.986892065217972 38.03723543419421 23.22665032674875 0 -1 0
2864 1 27.32295943047835 35.76086818320226 21.179897632090572 0 0 0
2613 1 27.284556835164498 37.925892310404954 23.473882436606818 0 -1 0
2578 1 25.562740876846558 35.655506432624875 23.255853536313484 0 0 0
1608 2 13.83434950717881 22.287834723551843 25.627196796255447 0 0 0
1610 1 15.531526146211949 22.227066121075307 27.860730902229776 0 0 0
1896 1 17.25192082345738 22.171880139377436 25.654534232512315 0 0 0
1898 1 18.72376181128107 22.235250898374012 27.92533322142169 0 0 0
2184 2 20.328567341436596 22.145945828332263 25.681338357477575 0 0 0
2186 1 22.24231314794184 22.30997108050517 27.873908687141622 0 0 0
2472 1 23.88736396445383 22.1074893599545 25.562246107254467 0 0 0
2474 2 25.43583001926497 22.064171859391188 27.881369964486755 0 0 0
2760 1 27.364648065037496 22.216062806923922 25.5936594130881 0 0 0
1607 1 15.642959202847766 24.4237313771365 25.611590501399174 0 0 0
1645 1 13.880750066937747 24.621156079410678 27.74076719254496 0 0 0
1933 1 17.217885161287033 24.607583096214775 27.835272001872493 0 0 0
1895 1 18.974931480394645 24.40283081353701 25.57118985741747 0 0 0
2221 1 20.534458467388422 24.43892342025428 27.969680269056234 0 0 0
2183 1 22.002264181796537 24.31290665517837 25.65621262058635 0 0 0
2509 1 23.8343804531381 24.633011615383214 27.499706650808065 0 0 0
2471 1 25.485831042439475 24.281161878754844 25.400975931596278 0 0 0
2797 1 27.030513643526294 24.494732312992628 27.683303189418474 0 0 0
1644 1 13.801892032727263 26.705369124831336 25.550433398983 0 0 0
1646 1 15.560301936948402 26.909552466260727 27.704593222082877 0 0 0
1681 1 13.78007800704733 29.062749165267242 27.764719710471848 0 0 0
1643 1 15.605234442259846 28.962607776056746 25.662438724119237 0 0 0
1932 1 17.308323538708347 26.814332533901247 25.5560107597211 0 0 0
1969 1 17.22626458872961 29.129883411900316 27.826222036357795 0 0 0
1931 1 18.92920380731318 29.013375102502 25.511235849108942 0 0 0
1934 2 18.92698019631234 26.84822863113151 27.79940665743794 0 0 0
2220 1 20.50809402730566 26.698967151577136 25.470770758680523 0 0 0
2257 1 20.47229539786211 29.226618978840566 27.873348413489953 0 0 0
2222 1 22.094825170946756 26.757197252039457 27.7164192726584 0 0 0
2219 1 22.10104041864029 28.94194995783266 25.352377117456353 0 0 0
2508 2 23.810611781982885 26.751247876720903 25.580104866295503 0 0 0
2545 1 23.81128578675 28.945448941025223 27.70084061311891 0 0 0
2796 1 27.05503316197212 26.733375129424314 25.667493201992826 0 0 0
2510 1 25.387184670095564 26.86142136887572 27.809584008322336 0 0 0
2507 1 25.478283341985666 29.027464882937437 25.578165835546713 0 0 0
2833 1 27.363660942884447 28.862338973104592 27.629414253776492 0 0 0
1680 1 13.942822868488332 31.218677540025958 25.731229173072723 0 0 0
1682 2 15.440560277802913 31.324953427941697 28.068803615955638 0 0 0
1968 1 17.067804562348293 31.362459228740377 25.56266039976744 0 0 0
1970 1 18.791824084544025 31.458694164355887 27.83380583535818 0 0 0
2256 1 20.568735665403636 31.289816632243067 25.573001578798145 0 0 0
2258 2 22.302913584356084 31.455514229569104 28.00309356058539 0 0 0
2544 1 23.905316162659197 31.25652280927385 25.731998470838562 0 0 0
2546 1 25.539776180072053 31.093176441085962 27.785587102358804 0 0 0
2832 1 27.296539081134018 31.240314771611846 25.550565555347305 0 0 0
1717 1 13.813237946442456 33.513231462466635 27.863621577783885 0 0 0
1679 1 15.459577347984773 33.62810624656028 25.62066685158638 0 0 0
2005 1 17.155499101658698 33.66116093211734 27.798924823941928 0 0 0
1967 2 18.832707576579757 33.50263355897289 25.582016867383714 0 0 0
2293 1 20.42979750906427 33.590896341433066 27.809393411726145 0 0 0
2255 1 22.323659987111533 33.53444088969425 25.801123318964752 0 0 0
2581 1 24.16599570440673 33.598713354881625 27.892497352581398 0 0 0
2543 2 25.56134663090705 33.53555925581263 25.551313843939898 0 0 0
2869 1 27.127224148082103 33.44664823858551 27.900062185364934 0 0 0
1716 1 13.67578003379828 35.780890450213185 25.627717239137272 0 0 0
1465 1 13.79769747015002 38.01547502068807 27.809822934383956 0 -1 0
1715 1 15.586119436861622 37.97754387361239 25.63291277755198 0 0 0
1718 1 15.46478902085084 35.78816811114977 27.741245570811685 0 0 0
2004 1 17.308424186356078 35.83626773650828 25.657940898432273 0 0 0
1753 1 17.177913030442966 38.05862609430609 27.923429144966637 0 -1 0
2003 1 18.861839543111774 38.096745441171414 25.79654341460154 0 0 0
2006 2 18.858141296462467 35.919535176104695 27.993870651612216 0 0 0
2292 1 20.57956420357507 35.79928144343449 25.686250872762525 0 0 0
2041 1 20.714484087941564 37.993693922659546 27.915839227591533 0 -1 0
2291 1 22.36238665939436 37.94132320095579 25.49344578576019 0 0 0
2294 1 22.36863475814257 35.71823248455505 27.881439355365313 0 0 0
2580 1 24.003302938437454 35.904195565759395 25.710515976259952 0 0 0
2329 1 23.983381989866746 38.131683727418256 27.934920133107994 0 -1 0
2579 1 25.60814960829611 38.14469994792859 25.667321580922295 0 0 0
2868 1 27.056357448043673 35.64026944816557 25.626012680569154 0 0 0
2582 2 25.683295908851655 35.902284257273344 28.15510480246788 0 0 0
2617 1 27.32332357058653 38.17935252747555 27.927657655297715 0 -1 0
1612 1 13.711304345653826 22.214159200823076 30.046664258637392 0 0 0
1614 1 15.424696260719134 22.25596144914779 32.34672195934097 0 0 0
1900 1 17.188174066082038 22.248533352929133 30.089602282537683 0 0 0
1902 1 18.98744943031108 22.247583791123276 32.279722854839136 0 0 0
2188 2 20.574016012694283 22.211544967352655 29.966001759026195 0 0 0
2190 1 22.13846468185497 22.202713423201875 32.37431110455215 0 0 0
2476 1 23.9108555122775 22.13875616772343 30.25367437434431 0 0 0
2478 1 25.475480239982062 22.33361543121584 32.40637702055826 0 0 0
2764 1 27.265407316756242 22.206548425659037 30.127037928737018 0 0 0
1611 1 15.47287379067349 24.459190169903312 30.124075861819612 0 0 0
1649 1 13.828288765635342 24.47081442400458 32.29331346823959 0 0 0
1937 1 17.196650609043967 24.52436889577749 32.3038954071604 0 0 0
1899 1 18.87492485540241 24.38422564315384 30.09709088350881 0 0 0
2225 2 20.52878512792803 24.517687890989002 32.447771597963 0 0 0
2187 1 22.09482904303215 24.45473408477476 30.023885444470835 0 0 0
2513 1 23.680371006712463 24.429746777382448 32.28282279931746 0 0 0
2475 1 25.47113773468118 24.47630124207382 29.948791830172063 0 0 0
2801 1 27.244879233882283 24.38899765705714 32.24307701661649 0 0 0
1648 1 13.911322030613757 26.73382533963682 29.979666198803976 0 0 0
1650 1 15.623545582202194 26.724865277381088 32.27946183408194 0 0 0
1685 1 13.915469057827394 29.059122364241077 32.25495485819896 0 0 0
1647 1 15.541620446165695 29.013298147013966 30.068369879697297 0 0 0
1936 1 17.30485233406267 26.658467793219437 29.92126397865392 0 0 0
1973 1 17.222339899595994 28.993865351814982 32.39850209820267 0 0 0
1935 1 18.776845429704156 28.99320267619609 30.019987722706855 0 0 0
1938 1 18.829433132320034 26.695336431821694 32.34781066540377 0 0 0
2224 1 20.543693774659506 26.81190778546616 30.124616194576003 0 0 0
2261 1 20.498475023918182 29.052890764207504 32.38233995192921 0 0 0
2226 1 22.221663259643908 26.699422673971625 32.383990866550235 0 0 0
2223 1 22.231324662255552 29.008921158768405 30.053241966353823 0 0 0
2512 1 23.868761000524785 26.777663448835135 30.144488835386852 0 0 0
2549 1 24.007567984620607 28.950377357927678 32.34883583016679 0 0 0
2800 1 27.231952246675792 26.689975271583076 29.95901203081395 0 0 0
2514 1 25.702282214855163 26.757013752708037 32.26734596408568 0 0 0
2511 1 25.501440052963062 28.991343738750313 30.051510546377582 0 0 0
2837 1 27.18997426457757 29.190681924265277 32.15623258729349 0 0 0
1684 1 13.604446881362897 31.281887521290084 30.297525182444566 0 0 0
1686 2 15.583132669034995 31.363652061092928 32.35400422936604 0 0 0
1972 1 17.227071310590052 31.292945902123833 30.006518100256418 0 0 0
1974 1 18.770187222398928 31.211681958171074 32.410294198160955 0 0 0
2260 1 20.424054768520737 31.24232194895674 30.13968191039058 0 0 0
2262 2 22.290291060806627 31.25958720057952 32.240410756488046 0 0 0
2548 1 24.142099653895837 31.353249670566015 30.047075814905376 0 0 0
2550 1 25.45979815460913 31.272812881136236 32.4097225866517 0 0 0
2836 1 27.124242850508406 31.37370933093528 30.25945230247482 0 0 0
1721 1 13.600702869792574 33.4077127554515 32.28424749779731 0 0 0
1683 1 15.553197943811721 33.53633468398078 30.09676904249079 0 0 0
2009 1 17.34329832296149 33.52244583003784 32.313151635813796 0 0 0
1971 1 18.927773242922928 33.7704248433374 30.046831987067577 0 0 0
2297 1 20.35629947852005 33.4639741735252 32.438330754646906 0 0 0
2259 1 22.23920099209118 33.421369449339906 30.026613851493877 0 0 0
2585 1 23.866150119999148 33.49088691796149 32.48554980437579 0 0 0
2547 1 25.62746310190333 33.77329539749729 30.264028813020566 0 0 0
2873 2 27.36172080160043 33.56238148853804 32.481534799099094 0 0 0
1720 1 13.967452108311111 35.764145747621775 30.14918301356944 0 0 0
1469 1 13.857588194347567 37.924929420989095 32.49841557361627 0 -1 0
1719 2 15.491076740340493 38.16262654639113 30.23243594612134 0 0 0
1722 1 15.668651421493976 35.76817279193688 32.46356883426499 0 0 0
2008 1 17.09295928629576 36.00245473392968 30.197984464126755 0 0 0
1757 1 17.111763042691294 38.107380774686526 32.49930533088059 0 -1 0
2010 2 18.93738151270429 35.866134322728115 32.232720752236474 0 0 0
2007 1 18.954053211016213 38.087303869751786 30.08723070180878 0 0 0
2296 1 20.847285679617087 35.74459809913915 30.10933687628 0 0 0
2045 1 20.610364204546578 38.04625798999467 32.50175609120839 0 -1 0
2295 1 22.25440976031784 38.199612276676206 30.215578797375585 0 0 0
2584 1 23.702543306308755 35.82738361121126 30.17866271971746 0 0 0
2298 1 22.222376003674956 35.68017434330028 32.48692451245934 0 0 0
2333 1 23.89965319903586 37.78569815718775 32.50603735434501 0 -1 0
2586 1 25.633408796897662 35.73320113520357 32.48419708600822 0 0 0
2872 1 27.462344078151894 35.667651693303625 30.185591667244864 0 0 0
2583 1 25.584414114552104 37.88983814115428 30.167383363932412 0 0 0
2621 2 27.232421949227458 37.942323747048626 32.33960333661618 0 -1 0
1616 1 13.705784138317693 22.18549673361751 34.6596995478222 0 0 0
1618 2 15.397752131362733 22.11260450698805 36.95549610828459 0 0 0
1904 1 17.159426352609998 22.230839517166167 34.704096227005564 0 0 0
1906 1 18.917866490222355 22.260358283779336 36.844113621886464 0 0 0
2192 1 20.50940888203678 22.347432109511107 34.458378521509175 0 0 0
2194 1 22.1194224055016 22.423384456147446 36.83125435884524 0 0 0
2480 1 24.031263073791784 22.209881035757736 34.75352119910244 0 0 0
2482 2 25.609987794536625 22.096582213970567 36.996191984489215 0 0 0
2768 1 27.134041811930242 22.270248291489754 34.58420753616252 0 0 0
1615 1 15.5196336139776 24.402895915624054 34.5702669644879 0 0 0
1653 1 13.782294588033789 24.524541695758053 36.8593017490943 0 0 0
1941 1 17.123105036310157 24.489141476038057 36.87928592591986 0 0 0
1903 1 18.8058948856163 24.42637854407538 34.598454074641324 0 0 0
2229 2 20.4227037244952 24.61601905236215 36.7041219838854 0 0 0
2191 1 22.30626415371715 24.482247972028965 34.54912515642367 0 0 0
2517 1 24.112017673920086 24.398492708283477 36.850807430458175 0 0 0
2479 1 25.567135308241376 24.5010975771165 34.45660647666712 0 0 0
2805 1 27.244206776308975 24.433377120062005 36.815752493427595 0 0 0
1652 1 13.741930634538356 26.57280181585577 34.515251093086604 0 0 0
1654 1 15.378536412938764 26.63139035907574 36.904624227260754 0 0 0
1651 1 15.275758832413185 28.867712724578627 34.59695834020107 0 0 0
1689 1 13.735667628372617 28.907307327587862 36.88353978049928 0 0 0
1940 1 17.121546332255118 26.739688653667287 34.54496714121713 0 0 0
1977 1 17.051233464231036 28.98926403063353 36.791515469764164 0 0 0
1942 1 18.707695977220716 26.81054001819873 36.86315395269595 0 0 0
1939 1 18.90107991612439 28.932676494363356 34.59948391966698 0 0 0
2228 1 20.50217736828526 26.63962786137757 34.55331860047552 0 0 0
2265 2 20.63547423519302 28.934922521117787 36.893025807723205 0 0 0
2227 1 22.291661309552616 28.964684559533556 34.552014540711156 0 0 0
2516 2 24.09132009767643 26.709373730609656 34.4318599911408 0 0 0
2230 1 22.438632206073216 26.672200482472483 36.708733435259546 0 0 0
2553 1 23.857067671681385 28.953542784948045 36.72156876676786 0 0 0
2804 1 27.363961132279105 26.59312288739002 34.57287833749585 0 0 0
2518 1 25.51112021016483 26.795659766593104 36.825498257936516 0 0 0
2515 1 25.670756815482434 28.977307549795245 34.63087967695003 0 0 0
2841 1 27.36761323609605 28.90610016623104 36.79028876116675 0 0 0
1688 1 13.71386774831231 31.17425194255029 34.65468564490227 0 0 0
1690 1 15.312871615375578 31.102600932034992 37.054132616806044 0 0 0
1976 1 17.1101508527985 31.15709131576786 34.617030087680476 0 0 0
1978 1 18.861212738526362 31.278350272273098 36.934053212315064 0 0 0
2264 1 20.46545839834244 31.18808404484823 34.634748571078646 0 0 0
2266 1 22.21450645338282 31.21362829641894 36.84269020768727 0 0 0
2552 1 23.873374051104545 31.114541865632933 34.592320654110225 0 0 0
2554 1 25.699204876892278 31.25844165004545 36.844810869796476 0 0 0
2840 1 27.443755729285193 31.370150494628994 34.597571557181496 0 0 0
1725 1 13.88647721993081 33.34386711393808 36.861818974983066 0 0 0
1687 1 15.47352690761748 33.42139824370923 34.46177335278705 0 0 0
2013 1 17.030217689468206 33.358568494678934 36.88485709542404 0 0 0
1975 2 18.891677945186526 33.397040138251 34.79768730783144 0 0 0
2301 1 20.644603032882895 33.519525397049904 36.95518433036712 0 0 0
2263 1 22.11411606292822 33.59908552648837 34.666456304564434 0 0 0
2589 1 23.934843683030294 33.48915876004165 36.8966706118232 0 0 0
2551 1 25.607680533292854 33.41322425203293 34.538461210786025 0 0 0
2877 2 27.4207732501087 33.48249948651761 36.64131753934093 0 0 0
1724 1 13.717079697724472 35.68392507445208 34.501484491180165 0 0 0
1473 1 13.752712623035958 38.021421405020945 36.89303637524306 0 -1 0
1723 1 15.357308792211619 38.01961567673306 34.70353959519643 0 0 0
1726 1 15.499450355163678 35.62728428127946 36.81096938497619 0 0 0
2012 1 17.186711122621173 35.74443135166299 34.53196119753075 0 0 0
1761 1 17.096624370802463 37.94177927344002 36.97364163609984 0 -1 0
2014 1 18.69096238515668 35.492238996432675 36.917011207308974 0 0 0
2011 1 18.86625791562642 38.05813068797782 34.66244248121035 0 0 0
2300 1 20.442103626636772 35.796212173421175 34.73331036442707 0 0 0
2049 1 20.467977562701073 37.840253071709526 36.86882181708249 0 -1 0
2299 1 22.407157705127073 37.979617596206154 34.82895926668931 0 0 0
2302 2 22.286185756652195 35.83192079692015 36.830023390799894 0 0 0
2588 2 23.986883382918 35.5870508217119 34.67428361498085 0 0 0
2337 1 24.14924799133655 37.91995670861591 36.9892028579624 0 -1 0
2587 1 25.682754708746977 37.9465049175766 34.61747742867813 0 0 0
2876 1 27.37011290801923 35.59664481039173 34.70861456566783 0 0 0
2590 1 25.780880786026657 35.64686570891489 36.98008454742069 0 0 0
2625 1 27.402375205304335 38.1327189081786 37.00109373972742 0 -1 0
1620 1 13.849181907474282 22.11428168969463 39.15548277907125 0 0 0
1908 1 17.14225311667667 22.3613426222764 39.16279167337241 0 0 0
2196 1 20.528770164652816 22.126784203605546 39.34249207114814 0 0 0
2484 1 23.792146916316966 22.154415077875175 39.06254303594011 0 0 0
2809 1 27.134086132739267 28.86976079903028 41.15398986694062 0 0 -1
2772 1 27.335849025973204 22.145782901537498 39.19391458006605 0 0 0
1619 1 15.381757535490316 24.411705135316534 39.11667033061353 0 0 0
1910 1 19.09197238205826 26.72563997497863 41.40497849508782 0 0 -1
1907 1 18.93846319147914 24.484444153197874 39.12762687039945 0 0 0
2486 1 25.534828341666852 26.61743969786498 41.36182555132835 0 0 -1
2195 1 22.18390715259742 24.46110157493579 38.92936113773841 0 0 0
2592 1 23.966985942007156 35.490113029276834 38.978941151621385 0 0 0
2483 1 25.555737778715883 24.254772898494608 39.157244893189514 0 0 0
2450 2 25.580296714318894 22.358368265936118 41.348907296131 0 0 -1
1656 1 13.77700363517948 26.81605368195826 39.172288169847405 0 0 0
1655 1 15.49675796646742 29.10790246807704 39.158751018692485 0 0 0
1944 1 17.081098761996884 26.69382419146695 39.126252217693576 0 0 0
1943 1 18.70850098529659 28.93236290522037 39.14651547813119 0 0 0
2591 1 25.760312977955287 37.9505049271647 39.343229113022986 0 0 0
2016 1 17.12194737128274 35.63856597669911 39.20899827277452 0 0 0
2232 1 20.591335920208333 26.72792985762642 39.01057233703321 0 0 0
2231 1 22.243888985119547 29.03595977696798 39.017072994039154 0 0 0
2520 1 23.907122240549345 26.630027757099217 39.104186476168024 0 0 0
2808 1 27.22865145517411 26.63917931871142 38.99305539004942 0 0 0
2519 1 25.64128836865352 28.964098124997555 38.941385285897454 0 0 0
1945 1 17.05055135517731 28.868297262722656 41.378677283198854 0 0 -1
2015 1 18.72985339590931 37.898797921602345 39.24899557615662 0 0 0
1692 1 13.595485036198255 31.21386518503064 39.18375924385083 0 0 0
1980 1 17.200310220033124 31.200233994083778 39.193167617363486 0 0 0
2268 1 20.401311029998677 31.05684465171814 39.16389410116902 0 0 0
1727 1 15.426264424577813 37.96599070252684 39.218210313430305 0 0 0
2556 1 23.93821053269753 31.292254635426136 39.034864227243446 0 0 0
1728 1 13.990601606937748 35.66780287848955 38.950963639495555 0 0 0
2844 2 27.4519688156803 31.0506024817508 39.022504286196536 0 0 0
2880 1 27.43941554804242 35.83810495594406 39.305519183906824 0 0 0
1691 1 15.448405624435551 33.38492289795175 39.258373575317634 0 0 0
2555 1 25.887721566992166 33.309847559245924 38.92124642995533 0 0 0
1979 1 18.91032188204369 33.44451953232239 39.02586501313991 0 0 0
2304 1 20.523779983903314 35.63152765964093 39.19838209563811 0 0 0
2303 1 22.247790698675963 37.84489117881473 39.02447307012973 0 0 0
2267 2 22.165890879388115 33.405932493147375 39.27877665869295 0 0 0
2485 1 23.727291127643795 24.350074658654776 41.386894725630114 0 0 -1
1909 2 17.194356837832512 24.61811588417738 41.38545621337501 0 0 -1
2197 1 20.52086704580807 24.4065294244194 41.380419012405994 0 0 -1
2522 1 25.789882920344933 31.294817557202663 41.33004126027619 0 0 -1
2773 1 27.416080044849384 24.47740204436708 41.32425538545914 0 0 -1
1693 2 13.685259516474499 33.56388244948789 41.353135107363244 0 0 -1
1622 1 15.366850834558452 26.575046844081978 41.42160019294923 0 0 -1
1946 2 18.849276902360586 31.138029743464152 41.39667818874754 0 0 -1
2233 1 20.668647459945365 29.019418890907374 41.37687369048646 0 0 -1
2270 2 22.38452617926366 35.65311645264502 41.28514053230518 0 0 -1
2521 1 23.96669075972807 28.932771931876733 41.3977156942433 0 0 -1
2269 1 20.413415692424522 33.491911001274616 41.3581059112213 0 0 -1
2557 1 24.08461202875022 33.46224126984828 41.2335228149407 0 0 -1
2234 1 22.28359385352395 31.297567789143045 41.237632084327004 0 0 -1
1586 1 15.558514629902263 22.32932352952226 41.35774214802724 0 0 -1
2845 2 27.181658375362062 33.79165953128836 41.31802173145459 0 0 -1
1694 1 15.369394661100873 35.7766855054173 41.33805584577274 0 0 -1
2162 1 22.255592536347333 22.064236451219863 41.43472330848987 0 0 -1
2198 2 22.22884941803156 26.59216192973376 41.43988450075453 0 0 -1
2884 1 30.790121835049213 4.111496575184557 2.9429535939288023 0 0 0
3172 1 34.12462543659219 4.217820110150372 3.0193248890407394 0 0 0
44 1 44.070646591082316 8.44481492730936 7.592360321129464 -1 0 0
3460 1 37.40007073182975 4.124997634502237 2.9856052616975024 0 0 0
3206 1 35.82788137021295 8.645495035436237 0.8347602205618836 0 0 0
3748 2 40.76560774686129 4.115029353271597 3.1588549021058037 0 0 0
3205 1 34.09470468128757 6.40489579658524 0.7318636222500938 0 0 0
2595 1 28.815702921819305 6.188649502977558 3.127598281342271 0 0 0
3277 1 34.001977876399955 15.314147197155316 0.7304334022856138 0 0 0
2883 2 32.43149074666473 6.400931568133121 3.050136974385487 0 0 0
3171 1 35.800527301418214 6.393851637929306 2.997386518470041 0 0 0
2917 1 30.75576962252461 6.304415874317216 0.8252060798625718 0 0 0
3459 1 39.14142216979868 6.359219666002304 3.0240282995141303 0 0 0
3747 1 42.51822037481698 6.354861563015675 3.2915462519358085 0 0 0
2631 1 28.782800500098414 10.745698663902873 2.9542754662947113 0 0 0
2920 1 30.397958110218013 8.408073593489124 3.0293490817204085 0 0 0
2919 1 32.463347556164905 10.893311345279557 3.0135018949782477 0 0 0
3208 1 34.20841847888123 8.64761505714043 3.0990871443081196 0 0 0
3496 1 37.396529216969306 8.647472429701828 3.0313899522627223 0 0 0
3207 1 35.839386646533804 10.904554703453334 3.090948627386959 0 0 0
3860 1 40.80875119559255 17.79145977246295 7.491948365919493 0 0 0
3495 2 39.12578567686177 10.835854744972071 3.026125792137451 0 0 0
3784 1 40.94672733834545 8.707084712051703 3.0726833068793242 0 0 0
3858 1 42.64693635410935 17.575074643013835 5.206459163040585 0 0 0
3783 1 42.60788125234152 10.915589772294073 3.169361119980327 0 0 0
2953 1 30.648483008518497 10.806058596588143 0.8383389215181476 0 0 0
2956 1 30.54106927272408 13.059880429836213 2.9567615254581803 0 0 0
3244 1 34.14705610073046 12.951419448358251 3.048102907518685 0 0 0
3532 1 37.528907963414404 13.08002296970493 3.1694996854476147 0 0 0
3820 1 40.782017529624746 13.081393682481064 2.9612408569299307 0 0 0
3859 1 42.53360553676562 20.065781879991313 7.620350661138842 0 0 0
3746 1 42.3957346863152 4.149735782507325 0.9312831386548415 0 0 0
3571 2 39.05235657044775 19.839213915705766 7.418147635036146 0 0 0
2667 1 28.841276055307038 15.451857408361583 2.893257112308138 0 0 0
2955 1 32.18421961138788 15.301676521401646 3.0554052173834334 0 0 0
3243 1 35.71516201773792 15.278669510566813 3.0084783982641383 0 0 0
3531 1 39.176313275011985 15.446259281683204 2.911806841843913 0 0 0
2954 1 32.47125914459058 13.03073791118844 0.7781482770061794 0 0 0
3819 1 42.61906707244416 15.287449739705554 2.9860165873815308 0 0 0
2992 2 30.702493547585192 17.731424212080675 2.9135375536279366 0 0 0
2703 1 28.8548697751288 19.835019224411678 2.860642423251904 0 0 0
3605 1 37.485864330386185 19.8121689194613 5.136117435687662 0 0 0
3280 1 34.062470245276444 17.63423789761371 2.884641056194154 0 0 0
2991 1 32.46562396837915 19.75664097966223 2.9864435349823166 0 0 0
3568 1 37.27066344395676 17.789368653186315 2.9868307948677244 0 0 0
3279 1 35.83773286816888 19.955896332878638 2.997878512092454 0 0 0
149 1 44.06712253224669 20.044028935448086 5.270479377512304 -1 0 0
3567 1 39.29540839290756 19.758513011373076 2.9589855327898973 0 0 0
2594 2 28.94410530415569 4.240966742484456 0.8834962805803597 0 0 0
3856 1 41.03631377715139 17.563423750469735 2.8915474982927036 0 0 0
4 1 44.14008868925434 4.025806669992907 3.0336121680956634 -1 0 0
3572 1 37.20845339939878 17.683551121036338 7.443295697249238 0 0 0
3855 1 42.375413377379395 19.948371591290854 3.0113331875683937 0 0 0
2598 2 28.86105532519092 4.055419947543192 5.211873916901495 0 0 0
2888 1 30.612109766945444 4.014937373758377 7.508668748692292 0 0 0
2886 1 32.5212352884466 4.090497516584898 5.289891595498513 0 0 0
3176 1 34.112859148212934 4.146585139205495 7.534256478863679 0 0 0
3174 1 35.75559533152783 4.063437075525375 5.277246857666776 0 0 0
3464 1 37.43331498470838 4.0328252498572565 7.5756575064621 0 0 0
3462 1 39.049017170502054 4.033848558632893 5.40480086682559 0 0 0
3752 1 40.6485165995442 3.9501393599778423 7.58068304709743 0 0 0
2882 1 32.493124712173866 4.0606746283173285 0.8170996947560883 0 0 0
3750 1 42.63237601686043 4.086933518410876 5.327744462603237 0 0 0
2599 1 28.962840293043598 6.266024093195844 7.602707710384598 0 0 0
2921 1 30.652173998972685 6.2633775892321895 5.306798360297067 0 0 0
2887 2 32.28696006326994 6.272405964833893 7.608924234914548 0 0 0
3209 1 34.15616607887813 6.444862795128287 5.327536211127282 0 0 0
3175 1 35.81550539220625 6.493322556326008 7.517260155656693 0 0 0
3497 1 37.39981367416523 6.291187224837374 5.329545706313187 0 0 0
3463 1 39.109499175605045 6.272475054026078 7.638834713044935 0 0 0
3785 1 40.79615540981331 6.233486439214368 5.327586395125573 0 0 0
3751 1 42.43889329588528 6.227500825159271 7.6440207673901055 0 0 0
2635 1 29.047174474110946 10.807115620009403 7.560064865541508 0 0 0
2634 1 29.045330465647346 8.414456682491604 5.2754293168714845 0 0 0
2924 1 30.768466569979495 8.472335982027953 7.5504052959618635 0 0 0
2957 1 30.68682789211711 10.795988224001018 5.102516442353727 0 0 0
3212 1 33.97748564932457 8.49645695998954 7.519467644187514 0 0 0
2922 1 32.21405468067989 8.650839636048612 5.233276738103021 0 0 0
2923 1 32.30794230991885 10.762699354558958 7.379270172836362 0 0 0
3245 1 33.99085889923061 10.877801143818967 5.24900854393022 0 0 0
3210 2 35.88985271355116 8.592334288399439 5.424133682200489 0 0 0
3211 1 35.68314354211015 10.887799162042105 7.445712463735268 0 0 0
3500 1 37.60241016569805 8.640497435223107 7.611540196758299 0 0 0
3533 1 37.54242755777667 10.809884871055537 5.400478518059831 0 0 0
3498 1 39.26147367930219 8.471918074007462 5.265779735799202 0 0 0
3499 1 39.476389665565904 10.883734103090662 7.6141581495196275 0 0 0
3821 1 40.80500121935225 10.886583657036777 5.270765964018146 0 0 0
3788 1 40.81033024233038 8.54621374118782 7.738232346791931 0 0 0
3570 1 39.08379577884969 17.60512782606189 5.146084877298611 0 0 0
3786 1 42.477864977538104 8.531570559712403 5.462756659176439 0 0 0
3787 2 42.47753919522677 10.878539468024131 7.558053922198238 0 0 0
2960 1 30.66519540139891 13.026823946244042 7.454736522727645 0 0 0
2670 1 28.91402880675222 13.159625244022564 5.350558949532434 0 0 0
2958 2 32.35462880294485 13.100238846989622 5.1380741331687245 0 0 0
3248 1 33.86078392271101 13.005950791199327 7.451334023987729 0 0 0
3246 1 35.81986600515076 13.138859876225398 5.38321034531175 0 0 0
3536 2 37.44076037618076 13.045690605881841 7.498386810404156 0 0 0
3534 1 39.14201682721717 13.069109682323832 5.308365998335575 0 0 0
3824 1 40.987021321020144 13.20872516735921 7.380127397463389 0 0 0
3458 1 39.14530312921134 4.0409271638080835 0.7498010483333889 0 0 0
3822 1 42.74023318133286 12.962852776651184 5.332978469721188 0 0 0
2671 1 29.007695412104475 15.414745545377187 7.533083375038018 0 0 0
2993 1 30.533746240807865 15.277472308052626 5.22150252308736 0 0 0
2959 1 32.28193108992772 15.223841806901605 7.460398171686976 0 0 0
3281 1 34.07087402891142 15.354078380958711 5.263794973092543 0 0 0
3247 1 35.79820277109852 15.268462626375351 7.404289888935034 0 0 0
3569 2 37.507038176135076 15.399567664419893 5.111183301692921 0 0 0
3535 1 39.0681156768787 15.392766466076873 7.442333569805611 0 0 0
3857 1 40.95001263051166 15.468072505905521 5.275311079399081 0 0 0
3893 1 40.68034364310997 19.971758475635994 5.181188123416991 0 0 0
3823 1 42.553908979040436 15.42975886150442 7.607100917045918 0 0 0
2706 1 29.133458725808488 17.60554135234746 5.2306299112026 0 0 0
3029 1 30.730644167165195 19.89751208465036 5.056060517729534 0 0 0
2996 1 30.808366616247866 17.650752569954825 7.63593810505588 0 0 0
2707 1 29.03125831728463 20.007604936842842 7.373108177566318 0 0 0
2994 1 32.23501328690617 17.505194568866543 5.1918982488723096 0 0 0
3317 1 34.00787112195333 19.894997481957915 5.21652909705837 0 0 0
3284 1 33.955973140719095 17.626309646436027 7.5656006681530785 0 0 0
2995 2 32.373475359451255 20.118709916112138 7.573914200647314 0 0 0
3283 1 35.70211439688919 19.929751464571165 7.386893297073486 0 0 0
3282 1 35.70286583807654 17.592369585481386 5.219290409698386 0 0 0
8 1 44.04742392348464 4.052785809089756 7.543930634315755 -1 0 0
2666 1 29.12481951318889 13.18629593969377 0.7272932418224718 0 0 0
2918 1 32.42931824893202 8.594679531277938 0.9796675982410925 0 0 0
3782 1 42.649423110189424 8.628563436268498 0.897184263026577 0 0 0
3565 1 37.386518097787196 15.366103537522621 0.7689260231052836 0 0 0
3170 1 35.742346755828194 4.092830415054259 0.764097821392439 0 0 0
3494 1 39.08840160564742 8.722630957985043 0.8769888464702451 0 0 0
3781 1 40.738459232097185 6.397322502964627 0.8732278609868837 0 0 0
3493 2 37.45619628711341 6.432977243183147 0.7541865021699827 0 0 0
3817 1 40.82601870758003 10.890919657220397 0.8177330226304365 0 0 0
2702 1 28.799564027896267 17.590548096141184 0.7338448017117926 0 0 0
3566 2 39.1663418236093 17.47680482714457 0.8910322957632981 0 0 0
3241 2 34.07975412054765 10.758279342873186 0.7229362476852607 0 0 0
3025 1 30.83566212333863 19.765595202166324 0.7668158642427826 0 0 0
3818 1 42.529246871650464 13.018455598388012 0.838889725265122 0 0 0
3529 1 37.49120925582548 10.97348774237339 0.7541011553811052 0 0 0
145 1 44.1499778550725 19.879782524645982 0.753487110858938 -1 0 0
2892 2 30.26846211707992 4.072117919734655 12.118559035414979 0 0 0
2602 1 28.873621120949096 3.9722946952039084 9.72586678441721 0 0 0
2890 1 32.198917957806906 4.012580054990382 9.744304521462329 0 0 0
3180 2 34.00015965572962 4.1026444572361935 11.923003824776071 0 0 0
3178 1 35.725566339474355 4.062341861334373 9.79177372803559 0 0 0
3468 1 37.21786764147922 4.076451136613953 12.154591218330918 0 0 0
3466 1 39.024746099775946 4.041056950775872 10.009588486941176 0 0 0
3756 1 40.792672777975675 4.114661288341637 12.176179892216387 0 0 0
3754 1 42.45120876805245 4.0950845514729295 9.879418014122699 0 0 0
2925 1 30.496971354186428 6.223805893961761 9.703634624340372 0 0 0
2603 1 28.757127768056424 6.372396016435229 11.992069171345676 0 0 0
2891 1 32.15942842359697 6.2391783037115855 12.006163353524554 0 0 0
3213 1 33.90949662371974 6.21843134222403 9.863470694913367 0 0 0
3179 1 35.607175974959006 6.325183983930377 12.071728309260816 0 0 0
3501 1 37.433894617442434 6.419804636605625 9.844504558727118 0 0 0
3467 1 39.11642932396897 6.248678912478453 12.029356193374387 0 0 0
3789 1 40.80494665447245 6.230469752642978 9.854029935169644 0 0 0
3755 1 42.420162516998204 6.285244026792477 12.343112438628031 0 0 0
2928 1 30.64351495546211 8.46577236489282 12.152148449986896 0 0 0
2638 2 28.94349152387717 8.468926540999412 9.812470083614183 0 0 0
2639 1 29.09553653967459 10.865805530499086 12.060565851068544 0 0 0
2961 1 30.669347978290155 10.710473091411087 9.733784819832755 0 0 0
2926 1 32.20142963675068 8.410236999607228 9.868900993283088 0 0 0
2927 1 32.27479468335729 10.784756230814452 12.121822970753433 0 0 0
3216 1 33.9738074572217 8.632695928442683 12.063102926468066 0 0 0
3249 1 33.750063635194785 10.905633472179069 9.858554766709533 0 0 0
3214 1 35.613582703973066 8.753391510862356 9.765321238589154 0 0 0
3215 2 35.74999856651557 10.827302026819503 11.824704013499513 0 0 0
3504 1 37.35197583140791 8.582440266548627 11.98634035105379 0 0 0
3537 1 37.48646209975125 11.01180752699238 9.62514272938712 0 0 0
3792 1 40.51023602067398 8.628056205799085 12.2380761924229 0 0 0
3502 1 39.14067161821006 8.593643910257384 9.80672669271497 0 0 0
3503 1 39.014892121117036 10.883824642835867 11.97452438462245 0 0 0
3825 1 40.9327297430735 10.871748454608456 10.073293201118123 0 0 0
81 1 43.986230859770636 10.970664077403173 9.94715892179026 -1 0 0
3790 1 42.32795412592758 8.570424693156738 10.004604779839548 0 0 0
3791 2 42.51277032974877 10.617495462556116 12.214448752409885 0 0 0
124 1 44.035852531330974 17.754709294621215 16.49057764186528 -1 0 0
2674 1 29.08073531970549 13.181792743373643 9.867633214593186 0 0 0
2964 1 30.569854652688846 13.194007341263083 12.141945788505868 0 0 0
2962 1 32.26047138642002 13.170855675028221 9.919920535985344 0 0 0
3252 1 34.06745419803412 13.038817713808806 12.044252022227532 0 0 0
3250 1 35.49627329507686 13.094464347261653 9.652043637262171 0 0 0
3540 1 37.419640659710716 13.15491700428548 11.959038023395488 0 0 0
3538 1 39.2952886407119 13.175618542887277 9.638129971028135 0 0 0
3828 1 41.03562144813377 13.074585248686944 12.175297711852947 0 0 0
3826 2 42.43799468696479 13.158532112450205 9.760909906693458 0 0 0
3866 1 42.49335710878064 17.520285886648608 14.165318546702341 0 0 0
2675 2 29.00985480376456 15.51849872358806 11.983191595832032 0 0 0
2997 1 30.699201952194166 15.58081031330747 9.813595038287563 0 0 0
2963 1 32.2772672618879 15.368826327000358 12.071787955760911 0 0 0
3285 1 33.92210051419302 15.444750156668691 9.730056011649992 0 0 0
3251 1 35.69885562473197 15.436880830980565 11.969020625101766 0 0 0
3573 1 37.31575293493437 15.323496397355186 9.712845748900218 0 0 0
3539 1 39.056055683216236 15.156441610967958 11.98246975633728 0 0 0
3861 1 40.74757909277507 15.493026104254575 9.737677073640517 0 0 0
3827 1 42.44501830329406 15.416601890621534 12.009240430198599 0 0 0
3000 1 30.77617489599777 17.904232545002518 12.030840850891854 0 0 0
2710 1 29.00125982482998 17.680748687370894 9.883057900701441 0 0 0
2711 2 28.85898151571363 19.942204300721045 12.186629045553945 0 0 0
3033 1 30.48793807149078 20.076919768257433 9.878897315720522 0 0 0
3288 1 33.94622930020122 17.447887885014996 12.028915309216373 0 0 0
2999 2 32.45942960711182 19.980278728149422 11.973077286627728 0 0 0
2998 1 32.38459120137345 17.87714728764719 9.717446482024904 0 0 0
3321 1 34.26547955098943 20.030583664942107 9.613545719804264 0 0 0
3576 1 37.41033766254953 17.638140766141007 12.163899072840993 0 0 0
3286 2 35.68883129641551 17.711935558731938 9.887299588516408 0 0 0
3287 1 35.65305912742434 19.807422008680675 12.008310093467873 0 0 0
3609 1 37.40206905465558 19.96093564801333 9.694853788314516 0 0 0
3574 1 38.920030979009724 17.648575164340897 9.834760265586786 0 0 0
3575 1 39.02056715327031 19.967823364413523 11.907727978682388 0 0 0
3897 1 40.77579570479224 20.103037964296597 9.699674791772672 0 0 0
3864 1 40.61512602189668 17.7374471576167 12.040989930396982 0 0 0
3867 2 42.38111494113978 19.931226827741508 16.36645747598657 0 0 0
3862 1 42.425762794192146 17.831731882925766 9.934274364458446 0 0 0
3863 2 42.47722531405889 19.88955374692794 12.112264605428534 0 0 0
2896 1 30.719332091812 4.056520174784134 16.662050603044257 0 0 0
2606 2 28.825958710086 4.154443256764724 14.348048704441382 0 0 0
2894 1 32.350128201850154 4.021257259110361 14.074345627194724 0 0 0
3184 1 33.77993675916382 4.003763137384876 16.48225512900065 0 0 0
3182 1 35.629519256272125 4.004479702213576 14.311012734617746 0 0 0
3472 1 37.49428269019859 3.975701969124123 16.639136080168694 0 0 0
3470 1 39.06759909486643 3.998731599080772 14.444155846217976 0 0 0
3760 1 40.58004469000518 4.096453231434177 16.78826129896982 0 0 0
3758 1 42.3846329734201 4.070832723577979 14.5338288714952 0 0 0
2929 1 30.676295369876243 6.23780505484497 14.303403850550374 0 0 0
2607 1 29.113022151602188 6.421048915634997 16.554429796787446 0 0 0
2895 1 32.43435985843032 6.396459702118213 16.593502764922462 0 0 0
3217 1 33.93239747102102 6.225968368169793 14.308969253421159 0 0 0
3183 2 35.61375639787094 6.129705559225487 16.474409753320025 0 0 0
3505 1 37.32138220170694 6.357833171859374 14.32230566463988 0 0 0
3471 1 39.038018161113264 6.449704919767444 16.51480978840297 0 0 0
3793 1 40.73449106250091 6.401725702188675 14.436319697863718 0 0 0
3759 1 42.462719726910976 6.289566341115624 16.593720480235355 0 0 0
2643 1 28.92657410966512 10.895313637793384 16.713664286331934 0 0 0
2932 1 30.570776279573487 8.617291525689293 16.482048075154093 0 0 0
2642 1 28.98016864714797 8.563935317972083 14.286974932755763 0 0 0
2965 1 30.682004559882827 10.860954717424253 14.41533687113244 0 0 0
2931 1 32.42889088357714 10.837073450060002 16.43809577720141 0 0 0
2930 2 32.37754865743829 8.583692177591798 14.339307187404213 0 0 0
3220 1 34.09787410766248 8.510885405309764 16.574116039784663 0 0 0
3253 1 34.124943269164035 10.822631482546923 14.30830016622704 0 0 0
3218 1 35.667636751495145 8.54292665414841 14.201308032944407 0 0 0
3219 1 35.78600133389088 10.875621837170018 16.34448768975524 0 0 0
3508 1 37.21690588790462 8.415503401068662 16.54772155495508 0 0 0
3541 1 37.35472145226245 10.886193905089858 14.107894168161126 0 0 0
3506 2 39.012278683398506 8.639750405597816 14.509947275196584 0 0 0
3507 1 38.929312853910005 10.998088903895942 16.476099885430934 0 0 0
3796 1 40.864008865223646 8.630385284983149 16.513385109166506 0 0 0
3829 1 40.640213076377464 10.823115139023272 14.226428966841123 0 0 0
3794 1 42.481296878187145 8.690959640371705 14.386250702123004 0 0 0
3795 1 42.353784780122155 11.02952348411233 16.523813175307616 0 0 0
2968 1 30.69514112907951 13.174374147620322 16.512499619608736 0 0 0
2678 1 28.92296446314733 13.079946119982994 14.443227229651574 0 0 0
2966 1 32.35300942429106 13.27773662416119 14.334775413883715 0 0 0
3256 1 34.1764237731478 13.129878348687098 16.49864528568112 0 0 0
3254 1 35.694737476461555 13.071065717236912 14.247151310202238 0 0 0
3544 2 37.362075133681515 13.22956679622673 16.56580645829654 0 0 0
3542 1 39.01918041549556 13.062351484949515 14.247856941977592 0 0 0
3832 1 40.43785283976349 13.272406604318373 16.541831237540087 0 0 0
3830 2 42.509771755735756 12.930514883553602 14.501981789412213 0 0 0
3578 2 39.108150640669656 17.56734059749406 14.274127031949956 0 0 0
2679 1 28.970274975002305 15.401073559351058 16.519708721979338 0 0 0
3001 1 30.597526976763916 15.428866789738075 14.287272301829256 0 0 0
2967 1 32.52247911506445 15.38584523202875 16.48592386704398 0 0 0
3289 2 34.134441186231975 15.397115535538552 14.26285946034342 0 0 0
3255 1 35.812182327347834 15.454899645972283 16.43917718589561 0 0 0
3577 1 37.287581285505674 15.438443592611732 14.134999448955476 0 0 0
3543 1 39.13088218300643 15.419490243291179 16.46658080738088 0 0 0
3865 1 40.84224211253145 15.247751496702017 14.151692166644025 0 0 0
45 1 44.092303814341626 6.314902247314106 9.989116823174772 -1 0 0
3831 1 42.40665562310128 15.260591626086903 16.575168775045483 0 0 0
3037 1 30.739358584744956 20.014253881092312 14.174608965250613 0 0 0
3004 1 30.679332356240593 17.8201038793975 16.509185445132232 0 0 0
2715 2 28.89076873890378 19.998955330169036 16.39500985021877 0 0 0
2714 1 28.945530084576355 17.73219633602265 14.089002214063104 0 0 0
3292 1 34.18490902593937 17.629242021100943 16.608713726516385 0 0 0
3003 1 32.58250709999725 20.003277698402993 16.6608151178682 0 0 0
3002 1 32.48271045472198 17.732425343532512 14.260392454172692 0 0 0
3325 1 34.037917562131874 20.056504426369262 14.27819955530836 0 0 0
3291 2 35.64865084543142 20.08488805250344 16.522018043972896 0 0 0
3580 1 37.491025831207985 17.752529938557146 16.499054856443628 0 0 0
3613 1 37.35723985059459 19.98013045949972 14.314400194220969 0 0 0
3290 1 35.62522559622819 17.819043017215343 14.385939854051266 0 0 0
3868 1 40.834945282249834 17.645391985400778 16.53230155913172 0 0 0
3901 1 40.714593733187364 19.997409938828866 14.144029525692682 0 0 0
3579 1 39.146340874026095 19.98123664989553 16.52002803072534 0 0 0
84 1 44.07089670333291 12.964193796577797 12.17523502975804 -1 0 0
121 1 44.01241620993044 15.296587134226387 14.339545159037485 -1 0 0
117 1 44.077816686776266 15.607155682525056 9.795251634316056 -1 0 0
52 1 44.04035845679416 8.63116470051601 16.76129911170145 -1 0 0
16 1 44.145066122619184 4.00917063510513 16.55899073833845 -1 0 0
2610 1 28.93723179321284 4.117363510831329 18.86183960924313 0 0 0
2900 1 30.44900822713077 4.116662774011553 21.087014449143208 0 0 0
2898 1 32.314246436732404 4.1254501523026175 18.83363472262936 0 0 0
3188 1 34.00997270976574 4.07932527536493 21.089052067420813 0 0 0
3186 1 35.836629818003594 4.052833904809264 18.74220937676783 0 0 0
3474 1 39.11008886152712 4.134216873539611 18.871092603516345 0 0 0
3762 1 42.44039540938804 4.1924818323936 18.924208123417525 0 0 0
2933 1 30.769959807520635 6.209201830823743 18.77414444483631 0 0 0
2611 1 28.84790061050777 6.399980997599484 21.06834822170611 0 0 0
3221 1 33.962674109604635 6.2727151528028315 18.708804415626286 0 0 0
2899 1 32.31419933555484 6.26132185281621 21.010099270959984 0 0 0
3509 1 37.44231219156131 6.351170819366329 18.778870959886866 0 0 0
3797 2 40.68004519634823 6.405786828528544 18.937955471536565 0 0 0
3763 1 42.34937833142596 6.376817156530852 21.134745713070046 0 0 0
2646 1 29.282366374122972 8.564150351889992 18.842147732642662 0 0 0
2969 1 30.705825020528913 10.859446034280598 18.76095093893012 0 0 0
2934 1 32.47070180463401 8.628652437027078 18.881017855422883 0 0 0
3257 1 34.06938105276601 10.862881929407642 18.587358568075047 0 0 0
3222 2 35.64396539305164 8.522838894110684 18.934299457984636 0 0 0
3545 1 37.32308950552733 10.776838845948822 18.634063419909364 0 0 0
3510 1 39.06833591546867 8.627165270676011 18.595869137281507 0 0 0
3833 1 40.64932321326258 11.098744329851609 18.731122831794547 0 0 0
3798 1 42.34648585343731 8.718504886761512 18.845800218652055 0 0 0
56 1 44.071328360265674 8.594093561437901 21.121381856236976 -1 0 0
2682 1 28.977312573881015 13.134142963365186 18.866201327103447 0 0 0
2970 1 32.48056471190132 13.16448059827044 18.82259189290792 0 0 0
3260 1 34.09389554834869 13.094820609345652 21.129363926127272 0 0 0
3258 1 35.58230372255601 13.20913411341203 18.77720704584547 0 0 0
3546 1 38.8460022852302 13.12144517757519 18.97448750731458 0 0 0
3836 2 40.75304321129609 13.129479154706912 20.907086835026263 0 0 0
3834 1 42.51646183181949 13.172436080146603 18.882893999935707 0 0 0
3005 1 30.726813487429254 15.446116366467514 18.750386682725022 0 0 0
3293 2 34.08789608158827 15.585936014599463 18.798532382277415 0 0 0
2971 1 32.301575050693046 15.47164177286843 21.00708598312627 0 0 0
3581 1 37.29076696411381 15.434179545556987 18.831037524090092 0 0 0
3259 1 35.67307717158154 15.482715946185118 21.120959945410906 0 0 0
3869 1 40.720700303685 15.44251546978386 18.65301706080355 0 0 0
2718 1 28.952203724384276 17.6456447657856 18.680188527561203 0 0 0
3041 1 30.48796773025648 19.97645411346086 18.76594595239057 0 0 0
2719 1 28.683484713640837 19.87975388860152 21.109889611913356 0 0 0
3008 1 30.57104697692833 17.645249723390158 21.051248923244007 0 0 0
3006 1 32.31489721327585 17.700424027347683 18.781256721184945 0 0 0
3329 1 34.121816776836724 20.065871010276155 18.93116451521667 0 0 0
3296 1 33.90050219388283 17.774662876785683 21.026020720131744 0 0 0
3007 2 32.24285020920096 20.025535225003434 20.960496542942913 0 0 0
3294 1 35.82815952917986 17.911005398956988 18.909727983788425 0 0 0
3617 1 37.408973816512436 20.11323518063698 18.703477250136586 0 0 0
3295 1 35.843195960846685 19.974179631907905 21.040155155550192 0 0 0
3582 1 39.013707396356494 17.67308221032502 18.73390281587032 0 0 0
3905 1 40.74066603391595 19.991727104980303 18.718112890829918 0 0 0
3870 1 42.477007526764524 17.583552700092 18.866861325245488 0 0 0
3871 1 42.301300703100516 19.981779389948187 20.86347467241406 0 0 0
2614 1 29.022994808593346 4.092479042925879 23.463551951978975 0 0 0
2902 1 32.217752521812685 4.209543683935923 23.331294946375646 0 0 0
3476 1 37.2590244999014 4.129552455331245 21.261052821169468 0 0 0
3190 1 35.587262917418414 4.133809170925929 23.387263753635068 0 0 0
3764 1 40.72799996726674 4.0481586616182375 21.258952338416726 0 0 0
3478 1 39.215806787919874 4.147898251312066 23.440475607320664 0 0 0
3766 1 42.51674932090561 4.1136238084352215 23.387105238666848 0 0 0
129 2 44.032078666975345 15.316248847387286 23.495232840105345 -1 0 0
2937 1 30.628871227300138 6.416402772835105 23.42080772247163 0 0 0
3225 1 33.71829025813227 6.39269528377558 23.359413994547527 0 0 0
3187 1 35.635129298237864 6.445895467988411 21.021209313208075 0 0 0
3513 1 37.4812273542956 6.3316167251760485 23.44713229327429 0 0 0
3475 1 38.99653921495878 6.2722155306301515 21.084101613432644 0 0 0
3801 1 40.785923196903305 6.532528408962206 23.409162000724482 0 0 0
128 1 44.036393102056195 17.785794370241106 21.156325835493256 -1 0 0
2936 1 30.676326329224814 8.622029460398323 21.232584205364155 0 0 0
2647 1 29.064780568071697 10.90247412077101 21.091517802859737 0 0 0
2650 1 28.79007575332071 8.682259654386606 23.194643497624007 0 0 0
2973 1 30.43193243302398 10.936471522757111 23.45148451706205 0 0 0
2935 2 32.3349023911874 10.920628436879689 21.131943027982004 0 0 0
3224 1 33.808690318718774 8.564856191506326 21.26802371340053 0 0 0
2938 1 32.194148545947186 8.701098859405054 23.445896983191805 0 0 0
3261 1 34.168079929687245 10.939861712463491 23.265542861517314 0 0 0
3223 1 35.565390403356815 10.667685469596492 20.900008808428474 0 0 0
3512 1 37.452345573610984 8.6322827312867 20.970297562231753 0 0 0
3226 2 35.67145789910641 8.35268106930676 23.317723145011698 0 0 0
3549 1 37.28173672455741 10.718207816396326 23.195373617526773 0 0 0
3511 1 39.04752210832725 10.932609719613527 21.021451030063297 0 0 0
3800 1 40.70714208051375 8.469749098621005 21.105638348847204 0 0 0
3514 1 39.04867792062839 8.751556799847513 23.386540138051515 0 0 0
3837 1 40.801922236973304 10.909336222861802 23.334308097357134 0 0 0
3799 1 42.332356585916926 10.87043190559597 21.115694604017484 0 0 0
3802 1 42.587075169971776 8.64417583059694 23.402657944640804 0 0 0
2972 1 30.717395865897046 13.263050562506107 21.07169881694942 0 0 0
2686 1 28.996086439931624 13.241803263383991 23.266083565586197 0 0 0
2974 1 32.40560092821089 13.079998792915744 23.43215693796747 0 0 0
3548 1 37.22583787231561 13.15052062500741 21.213392229656748 0 0 0
3262 1 35.793840470519775 13.205374627319035 23.555560067388658 0 0 0
3550 1 39.01033919592095 13.207783051986297 23.43168511176407 0 0 0
3874 1 42.31250796343783 17.63442244732991 23.309253228345167 0 0 0
3838 1 42.30457751977592 13.138655337799117 23.37584244225082 0 0 0
2683 1 29.028554185198402 15.400170465779839 21.176190227672745 0 0 0
3009 2 30.669203515461284 15.346015973466281 23.3397768603399 0 0 0
3297 1 33.934306092192166 15.404179167743369 23.32102089974913 0 0 0
3585 1 37.33086735602152 15.595921765853856 23.403533445560278 0 0 0
3547 1 39.1448289881825 15.228637725681372 21.08778257520581 0 0 0
3873 1 40.68161107595663 15.43078348155706 23.36652900821197 0 0 0
3835 1 42.41795016767333 15.34878723141279 20.99308999187098 0 0 0
3909 1 40.94067167465039 20.095119985450232 23.278017889401525 0 0 0
3045 1 30.72760005574417 19.939554660456004 23.152506015888243 0 0 0
2722 1 28.968972237473622 17.670263607360702 23.387717889542575 0 0 0
3333 1 33.888026466742595 19.917186958613854 23.266142418192107 0 0 0
3010 1 32.34352215703912 17.678535493868605 23.266693189084403 0 0 0
3584 1 37.555201936567244 17.614099480617426 21.137932760264537 0 0 0
3621 1 37.3927030747451 19.858689081583876 23.40165311479656 0 0 0
3298 1 35.6652518752861 17.916749270433478 23.241816859300872 0 0 0
3872 1 40.713651303247474 17.696232108596597 20.943805464488918 0 0 0
3583 1 39.00170082997498 19.98028145414639 21.17151741863236 0 0 0
3586 1 39.17105850089958 17.773939830690153 23.368789688865792 0 0 0
161 1 43.94992351792484 19.988601198453697 18.788392544749062 -1 0 0
53 1 44.09501985770335 6.461795299445552 19.00195967215545 -1 0 0
125 2 44.10344561603974 15.448109043689474 18.7031676789911 -1 0 0
57 1 44.058296316427615 6.360665865211763 23.397538209173657 -1 0 0
165 2 43.998465557848576 19.945264145736317 23.05850268508411 -1 0 0
92 1 44.1490971968437 13.041044659298576 21.190665463639952 -1 0 0
2904 1 30.56052667940937 4.149165541139941 25.6750600798497 0 0 0
2618 1 28.996799366218056 4.187652810806335 27.997634860833042 0 0 0
2906 1 32.24883735856976 4.054013244169695 27.9245596513875 0 0 0
3192 1 33.98148978155816 4.143564899574393 25.617727876632078 0 0 0
3194 1 35.75416308506446 3.9399123643187446 27.85754876378464 0 0 0
3480 1 37.404759314609194 4.150576004365422 25.50447972260055 0 0 0
3482 1 38.9405599914488 4.098900799223154 27.8661711273477 0 0 0
3768 2 40.894646450512326 4.031669689782671 25.750820817124012 0 0 0
3770 1 42.625345246996204 4.181145459707443 28.052037470556353 0 0 0
2615 1 28.88972320987266 6.443911335467904 25.723667617362214 0 0 0
2941 1 30.428585443670343 6.313939241058936 27.927876202784482 0 0 0
2903 2 32.28793041124378 6.474795011365605 25.66768942959236 0 0 0
3229 1 34.05494430133366 6.386985246055852 27.80378422097413 0 0 0
3191 1 35.62313473190679 6.448923951467856 25.602603858958158 0 0 0
3517 2 37.37195678884326 6.362298414381028 27.82201071236684 0 0 0
3479 1 39.156822328245305 6.30922942918594 25.643045465700915 0 0 0
3805 1 40.66075210485992 6.395941768476014 27.788105390874538 0 0 0
3767 1 42.49502118358287 6.435328912046984 25.680317760687615 0 0 0
2940 1 30.46624033998615 8.588399687513558 25.661431701317458 0 0 0
2651 1 28.952977488692603 10.898257117730452 25.675307515255863 0 0 0
2977 1 30.721096830548788 10.977202115085108 27.890707136999467 0 0 0
2654 2 28.81609231939366 8.755264184812884 27.857761668056064 0 0 0
3228 1 34.016924310276245 8.760036316176363 25.698291307621375 0 0 0
2939 2 32.26974613325798 10.91509726247694 25.47974269809491 0 0 0
2942 1 32.20672757573871 8.566847854699432 27.82416716313489 0 0 0
3265 1 33.933501676155096 10.994726979275491 27.849024722038717 0 0 0
3516 1 37.33985169078026 8.665742721517896 25.530006925436382 0 0 0
3230 1 35.71097073534453 8.715788171527533 27.93173735282195 0 0 0
3227 1 35.73306409638699 11.017841692525604 25.65016747157504 0 0 0
3553 1 37.497877945198695 10.907890381037411 27.952103745913234 0 0 0
3518 1 39.01756903989725 8.702823223738186 27.832075126212725 0 0 0
3515 2 38.98419778067124 10.929992830745892 25.55543659922134 0 0 0
3804 1 40.810471373924074 8.644419806894756 25.60099098591681 0 0 0
3841 1 40.70859739862806 11.000251071092825 27.845348328771664 0 0 0
3806 1 42.406586072806206 8.609520651087436 27.799628439106698 0 0 0
3803 1 42.59333537103249 10.979744183809617 25.51695632704209 0 0 0
132 1 43.9636937381973 17.517514692565456 25.65931434184025 -1 0 0
3879 1 42.40381021722491 19.882633310640163 29.955686584492707 0 0 0
2976 1 30.715715632916726 13.102656244393888 25.597799429597284 0 0 0
2690 1 29.03596023951735 13.226113076804126 27.9152053941117 0 0 0
2978 1 32.41619004773663 13.235628161632572 27.909306713202053 0 0 0
3264 1 33.95628354895733 13.205269627251482 25.57639068413716 0 0 0
3266 1 35.671894814764926 13.186498216054144 27.883413427456254 0 0 0
3552 1 37.46895630473956 13.17440587121181 25.706632263241232 0 0 0
3554 1 38.95865294295688 13.199093727667085 27.986627607668826 0 0 0
3840 2 40.569379416075186 12.894798951188973 25.647891538074035 0 0 0
3842 1 42.53500852585139 13.14056305096474 27.934158524454784 0 0 0
2687 1 28.888274628136276 15.46165147518939 25.481365692021093 0 0 0
3013 2 30.63034652937784 15.426761543723694 27.853110011597526 0 0 0
2975 1 32.38288031680515 15.40110911964189 25.60346781768141 0 0 0
3301 1 33.96157515500329 15.491484435200231 27.889096203426764 0 0 0
3263 1 35.58799401501162 15.32033450280517 25.552405946244654 0 0 0
3589 1 37.30976333411071 15.48630950859012 27.794018752594884 0 0 0
3551 1 39.265758602432875 15.307100250130947 25.70233844305802 0 0 0
3877 1 40.83081839489425 15.248632483208564 28.149678233725282 0 0 0
3839 1 42.187176558752675 15.167198091916138 25.779540098757526 0 0 0
3012 1 30.71507872982749 17.68565622708509 25.487904637029153 0 0 0
3049 1 30.533526806857843 20.070552926596374 27.740987989156707 0 0 0
2723 1 28.84239667174504 20.007000334290563 25.431244822695398 0 0 0
2726 1 29.107655953260796 17.576538649298953 27.77299757073473 0 0 0
3300 1 34.03098293197421 17.74808855510546 25.50520187362289 0 0 0
3337 1 33.93605254495997 19.95945717178246 27.7618861338303 0 0 0
3011 1 32.24247933742653 20.041146072795417 25.472237784209824 0 0 0
3014 1 32.185718014805744 17.639078720976926 27.825936795216748 0 0 0
3588 1 37.44718479604847 17.719739280372472 25.62412014812538 0 0 0
3299 2 35.74959139409342 19.93043528460279 25.647276018581508 0 0 0
3302 1 35.62800498964468 17.809441956425225 27.833976853474205 0 0 0
3625 1 37.553336231555164 19.892729770600706 27.811799473172414 0 0 0
3587 1 39.082312020015074 19.964314157642374 25.60357808163289 0 0 0
3590 2 39.30407448814334 17.74386820420665 27.986915679580168 0 0 0
3913 1 40.863791153384106 20.20652229253183 27.618211761859936 0 0 0
3876 1 40.93102324238879 17.665687343664167 25.635778846110234 0 0 0
3875 1 42.628319271735485 20.02779811917827 25.414200531664502 0 0 0
3878 1 42.384695483639746 17.70916085635144 28.0210507877153 0 0 0
3917 1 40.86102965076776 19.78388877286723 32.261028644465654 0 0 0
2622 1 28.778755579055098 4.115430869087177 32.49275121014345 0 0 0
2908 1 30.571638401590803 4.105110382826815 30.25229415191895 0 0 0
2910 1 32.510526841414425 4.188800895047534 32.52113436656295 0 0 0
3196 2 34.02998498618332 4.306089812673356 30.09568629306052 0 0 0
3198 1 35.86803930751699 4.342245231753417 32.4162315381798 0 0 0
3484 1 37.460463290464745 4.2069182045470255 30.15840740146799 0 0 0
3486 1 38.930489503581356 4.145334915047979 32.50368439527231 0 0 0
3772 2 40.67664115035599 4.135529634210833 30.284312778796032 0 0 0
3774 1 42.35560300462692 4.017879082792802 32.40128193747833 0 0 0
2945 1 30.800022140817113 6.3131109519724165 32.454823368472944 0 0 0
2619 1 28.83377250142509 6.263755467183007 30.270567549447243 0 0 0
2907 1 32.142418332729555 6.432150218210899 30.182071757437626 0 0 0
3233 1 33.92840971218847 6.490743449805903 32.26827199565726 0 0 0
3195 1 35.721960147082996 6.609065743807433 30.139682310005522 0 0 0
3521 1 37.61284606471732 6.455673820377196 32.171596494037914 0 0 0
3483 1 39.194550146421406 6.454109584476731 30.008062982299045 0 0 0
3809 1 40.56126583319053 6.211151434093785 32.39247090368056 0 0 0
3771 1 42.393203041372175 6.324948003629275 30.127745826668242 0 0 0
3882 1 42.6514825057072 17.687988274706285 32.31994965821532 0 0 0
2944 1 30.520377439423342 8.66405189707454 30.044046519344718 0 0 0
2658 1 29.044912242574256 8.537808951987206 32.42158814622026 0 0 0
2655 1 29.000509156411468 10.95329058447054 30.082367082048005 0 0 0
2981 1 30.638080772232932 10.942986992229061 32.56549781995079 0 0 0
3232 1 33.81032291993438 8.650228985860458 30.055043405674414 0 0 0
2946 2 32.306420862637495 8.706087473502702 32.37488726861798 0 0 0
2943 1 32.272056004683364 10.96295081947079 30.200576138349778 0 0 0
3269 1 33.92927676144914 10.958088462957509 32.32411701797247 0 0 0
3520 1 37.64539680679895 8.735016637031318 30.184934392537173 0 0 0
3234 1 35.723267110239135 8.622864833401193 32.43910650370033 0 0 0
3231 1 35.694243091829904 10.773054568740184 30.121581545306608 0 0 0
3557 1 37.33938331652207 10.795973629705296 32.4538229137663 0 0 0
3522 1 39.18472073131942 8.61026810070483 32.48172942006311 0 0 0
3519 1 39.196308751209536 10.911857077002422 30.19803235346731 0 0 0
3808 1 40.84630856678467 8.655612451702405 30.184527654443684 0 0 0
3845 1 40.87189206435001 11.118279564629042 32.47798109579405 0 0 0
3810 1 42.34529763294678 8.552085725140426 32.44277950732979 0 0 0
3807 1 42.382438963999725 10.920673082481573 30.1691113867764 0 0 0
3880 1 40.69008039271362 17.53843822545826 30.332662876361 0 0 0
3594 1 38.84063935933383 17.659465108258736 32.367525591515744 0 0 0
2694 1 29.016170516615226 13.241298814259824 32.39139522898938 0 0 0
2980 1 30.574452526910775 13.3496458819806 30.102048080897955 0 0 0
2982 1 32.34592608161754 13.149308536268588 32.389711687094746 0 0 0
3268 2 34.1277412041333 13.166508074115923 30.27769417888518 0 0 0
3270 1 35.57508881087539 13.044284944570224 32.61088054824879 0 0 0
3556 1 37.18704240952432 13.137208287026858 30.249138637078218 0 0 0
3558 1 38.97913926408883 13.194258970143792 32.40925440082119 0 0 0
3844 2 40.85767668827698 13.093638815137986 30.224879502251188 0 0 0
3846 1 42.57791549729959 13.180926861832834 32.44228042065028 0 0 0
2691 1 28.757221970972523 15.518867813272383 30.00612768976824 0 0 0
3017 1 30.614252996601813 15.505083189683225 32.38432934104139 0 0 0
2979 1 32.3904067962278 15.286384928163628 30.16348148425487 0 0 0
3305 1 33.98830651944021 15.302220346607012 32.51542893039402 0 0 0
3267 1 35.68002173493549 15.607773224038567 29.97801517914937 0 0 0
3593 2 37.1734133258144 15.35773757065699 32.299881447603134 0 0 0
3555 1 38.940577433810994 15.344875643708411 30.06599620295477 0 0 0
3881 1 40.848942872346704 15.330085146757115 32.326295260569026 0 0 0
3843 1 42.69636795692387 15.401666688430607 30.24852953874296 0 0 0
3016 1 30.618307964519047 17.4597203088073 30.19631860951162 0 0 0
3053 1 30.593391332269263 19.818870710049723 32.46893910223703 0 0 0
2730 1 28.755095672142197 17.787273197161888 32.31120129548002 0 0 0
2727 1 29.07296470128105 20.04095052611037 30.01987211500639 0 0 0
3015 1 32.1331565150727 20.010671532482206 29.965923142840477 0 0 0
3341 1 33.89444327344101 19.96959972076471 32.174459344192435 0 0 0
3304 1 33.799971418740924 17.786627527780425 29.996651070400155 0 0 0
3018 1 32.41524692605948 17.717454985409997 32.43255222332067 0 0 0
3303 2 35.65495886247119 19.993461452782935 29.96337841265351 0 0 0
3592 1 37.49478519086347 17.76433780696687 30.050754694405104 0 0 0
3629 1 37.46357085105555 20.01160989826059 32.16562733118003 0 0 0
3306 1 35.72171059140651 17.780218650012834 32.244149470365386 0 0 0
3591 1 39.22283774577574 20.02311892154108 29.865618757366388 0 0 0
64 1 44.08442559390144 8.54040956713786 30.22015937938391 -1 0 0
169 1 44.09992123493282 20.013164987350866 27.806371404784297 -1 0 0
28 1 44.14491867122672 4.18447257399524 30.210076259246257 -1 0 0
24 1 44.13476269369417 4.1152489458356944 25.604819061269495 -1 0 0
173 1 44.08759928241229 20.09116370782682 32.18107640722684 -1 0 0
133 2 44.108587598820435 15.37095012615553 27.80334624535941 -1 0 0
65 2 44.13882191791839 6.424406681797109 32.38034034710303 -1 0 0
2912 2 30.66369014167563 4.109486671907673 34.58998320683368 0 0 0
2626 1 29.13349164476012 4.2000906453832965 36.90950737343306 0 0 0
2914 1 32.32024831948703 4.091892608160832 37.06083436841877 0 0 0
3200 1 34.0411692890665 4.296063139804225 34.928416179185405 0 0 0
3202 1 35.83136476047743 4.147281765312784 36.97148420130283 0 0 0
3488 1 37.394087249610465 4.0153731482671535 34.73121004496605 0 0 0
3490 1 39.26633189586943 4.138610560743283 37.0665144031714 0 0 0
3776 1 40.870892745286845 4.126865161943522 34.7010029188729 0 0 0
3778 1 42.44759828505642 4.081466122018319 37.084106241019526 0 0 0
2949 1 30.682059305262577 6.345409767666631 37.070827270769385 0 0 0
2623 1 29.162125171244007 6.371427833088296 34.75148030082835 0 0 0
2911 1 32.36635315933509 6.3614033413420525 34.755275804153655 0 0 0
3237 2 34.06500793972965 6.3630393166531105 37.04443260548135 0 0 0
3199 1 35.859553300121526 6.296349016835462 34.631541419179925 0 0 0
3525 1 37.56423863319391 6.339415132478159 37.007445414587565 0 0 0
3487 2 39.04806792462979 6.382530886369405 34.66335962378717 0 0 0
3813 1 40.86575171336625 6.446926860349449 36.96405417492551 0 0 0
3775 1 42.511426864508124 6.443017657281883 34.63475392349588 0 0 0
140 1 44.031718250197095 17.54670844899463 34.812139798731536 -1 0 0
2659 1 28.812107852932204 10.883103510348565 34.59718954844196 0 0 0
2948 1 30.596268537260187 8.740780495637196 34.73512284321363 0 0 0
2662 1 29.017658344622347 8.754039971109332 36.85760620562786 0 0 0
2985 1 30.55629091344497 11.109732761762714 36.91937589291558 0 0 0
3236 1 34.11796189780095 8.488377295455296 34.64109808705798 0 0 0
2950 1 32.35111888836501 8.79601317875839 36.906779203424136 0 0 0
2947 1 32.36091883460302 10.920318614322069 34.742977767499156 0 0 0
3273 2 34.00048044056699 10.909609817323505 37.06628575756882 0 0 0
3524 1 37.312347599778995 8.603500776738446 34.65363682784506 0 0 0
3238 1 35.7185185951111 8.62283135476196 36.9597232087051 0 0 0
3235 1 35.62441979865784 10.803525734203532 34.718693038453395 0 0 0
3561 1 37.48309438045711 10.996471885095438 37.07859134901166 0 0 0
3812 2 40.741491583904015 8.536006500923234 34.69016730674444 0 0 0
3526 1 39.08468426434501 8.660607675922261 36.94098269841872 0 0 0
3523 1 39.128411335595 10.814617240919317 34.63183642324613 0 0 0
3849 1 40.91805481770636 10.867098475652508 36.804712810690376 0 0 0
3814 1 42.54333144406901 8.526081895921992 36.86167984904152 0 0 0
3811 1 42.61731770472442 10.896749769064312 34.64354641086037 0 0 0
2698 1 28.72004689106102 13.146584924632386 36.81747468741375 0 0 0
2984 2 30.54736238758811 13.08257184326777 34.75535778416193 0 0 0
2986 1 32.43050939494903 13.190470403332105 36.99290874428699 0 0 0
3272 1 33.9291112036702 13.103255639701189 34.6373925015872 0 0 0
3274 1 35.6330423331515 13.253142300375051 36.9049752852835 0 0 0
3560 1 37.44766167869983 13.185099449603772 34.68867841421613 0 0 0
3562 1 39.179008772708556 13.080269217481925 36.88910932071849 0 0 0
3848 2 40.72911006528138 13.111556028318383 34.63882512274431 0 0 0
3850 1 42.70958154041294 13.247266013671256 36.93607457671368 0 0 0
2695 1 28.922936048135796 15.389536921941179 34.753643527653 0 0 0
3021 1 30.54648880229793 15.34782376727962 36.93179163969707 0 0 0
2983 1 32.28704861238724 15.488940685143467 34.74363944574594 0 0 0
3309 1 34.10359574565946 15.535910279887487 36.97234316168618 0 0 0
3271 1 35.7226180729046 15.304384899529405 34.64412745061286 0 0 0
3597 1 37.67023310750241 15.322337382022756 36.976418091644774 0 0 0
3559 1 39.10447839287835 15.420504519668976 34.554979534708906 0 0 0
3885 1 40.69937339986885 15.34593806102419 36.93981353150396 0 0 0
3847 1 42.29593583024046 15.47046704230049 34.64684974796833 0 0 0
2734 1 29.01965806394174 17.6062739837633 36.95575362004408 0 0 0
3057 1 30.727609586381355 19.913284614092962 36.78965710095804 0 0 0
3020 1 30.5289826712012 17.663050135961775 34.63347682982864 0 0 0
2731 1 28.76336936510833 20.03917877065242 34.62055607950455 0 0 0
3308 1 34.158535539989266 17.570901360509634 34.71922497323163 0 0 0
3345 1 34.14284579887627 20.007473673392415 36.95719755265321 0 0 0
3022 1 32.3581231255475 17.61313230636635 36.85516546055911 0 0 0
3019 1 32.52555495235722 19.77744695562877 34.68666630772418 0 0 0
3596 1 37.30498868992248 17.56642192947824 34.5965504381501 0 0 0
3307 1 35.67753802753551 19.878698044577316 34.45971277090656 0 0 0
3310 1 36.09173838112158 17.51528355247401 37.114509363176566 0 0 0
3633 1 37.484081780153524 20.114682356576232 36.84914059589866 0 0 0
3884 1 40.83240741357122 17.821105823099664 34.482007470897656 0 0 0
3595 1 38.963715730991275 19.763424119651717 34.61964541860847 0 0 0
3598 2 39.16319989508517 17.745605697561153 36.89977762245985 0 0 0
3921 1 40.746526432488736 20.053778085241422 36.7615408047118 0 0 0
3883 1 42.52655459474214 19.99567730689796 34.49833659051258 0 0 0
3886 1 42.07705163213504 17.707902788610774 36.94742721138286 0 0 0
3854 1 42.67588379953586 17.51362529774243 41.312878645599866 0 0 -1
2916 1 30.582760261467456 4.216287316507647 39.44016316494988 0 0 0
68 1 44.10185746159017 8.650000383421391 34.58648135778114 -1 0 0
3204 1 34.0968431322463 4.113654314419765 39.26963627100656 0 0 0
3492 1 37.50703852142915 4.100676252315619 39.274827143012544 0 0 0
3780 1 40.85692196627914 3.989578653677007 39.36339622875366 0 0 0
3312 1 33.975860996400144 17.628623321177297 39.10627818128985 0 0 0
3889 1 40.76384815780591 19.623679881714235 41.42548318382009 0 0 -1
2627 1 29.051236779418502 6.463905502357634 39.332570391245554 0 0 0
2915 1 32.397608837936545 6.360394277253987 39.34827927829386 0 0 0
3023 1 32.32226792575661 19.88315536226309 39.084629638907316 0 0 0
3203 1 35.812620719389244 6.339145802413646 39.22033977812208 0 0 0
3491 1 39.253466878244986 6.506286764401261 39.281665580087164 0 0 0
3311 2 35.7801603248881 19.757357364027087 39.113056605891856 0 0 0
3779 1 42.523214042904954 6.339604816178595 39.399964588927745 0 0 0
2663 1 28.979551943089092 10.754825053867165 39.26282683827277 0 0 0
2952 1 30.866930540108513 8.572980434690855 39.33716900103664 0 0 0
32 1 44.14134255672832 4.066982842253873 34.663991304588976 -1 0 0
177 1 44.02909885362937 19.879234148719128 36.92799755825206 -1 0 0
3240 1 34.10631881658716 8.568860216368131 39.26671603073734 0 0 0
2951 1 32.20338360399659 10.892733269377493 39.249440532657474 0 0 0
3853 1 40.926059522159086 15.311242372276919 41.432106003181005 0 0 -1
3275 1 35.696429397036205 15.267095329250939 39.19387046520801 0 0 0
3887 1 42.33653140091653 19.863025743704828 39.12745920980092 0 0 0
3528 1 37.415650701245575 8.65815680102547 39.34425994920605 0 0 0
3239 1 35.7059948227873 10.822742701997614 39.197656519732035 0 0 0
3527 1 39.30226513473666 10.904969951797506 39.14312958614846 0 0 0
3816 1 40.85793882513279 8.617371689051438 39.33163206021956 0 0 0
2735 1 29.006682772770176 19.953101693455526 39.06770280514435 0 0 0
3599 1 39.20825795169988 19.933140085289832 39.091264405181605 0 0 0
3024 1 30.72812555817155 17.614178870657927 39.14568007064001 0 0 0
3815 1 42.547880819338815 10.81866488816997 39.30700984571634 0 0 0
3313 1 34.106704441951265 19.967072900062526 41.33146918151121 0 0 -1
36 1 43.91733494379745 3.968711634400762 39.41129306141215 -1 0 0
2988 1 30.671499508228578 13.015775290678402 39.21824472215198 0 0 0
3276 1 34.01562113777754 13.028261323183596 39.25504532861132 0 0 0
3888 1 40.672314975194475 17.457558649587035 39.223760935558914 0 0 0
3564 2 37.350591619640404 13.124549373450513 39.16136020040091 0 0 0
3601 1 37.489539575936526 19.897537075320088 41.28392849471554 0 0 -1
3852 1 40.91653774295614 13.156106648181014 39.102141545421574 0 0 0
3851 1 42.63966389059084 15.408001775167639 39.140573422485986 0 0 0
3530 1 39.06081789705431 13.144677267273256 41.392782239805655 0 0 -1
2699 1 29.094776900179063 15.273627292190834 39.21597846523569 0 0 0
2987 2 32.36741662987491 15.318613147248685 39.07394936443647 0 0 0
3563 2 39.12515567429604 15.124564813652595 39.293230713197005 0 0 0
3600 1 37.61769741401879 17.575959041807153 39.27690628145942 0 0 0
2989 1 30.80906036979958 15.501654663004764 41.351474743910345 0 0 -1
2630 1 28.793460628781226 8.674749580926921 41.39670808538665 0 0 -1
2990 1 32.44813929379496 17.5441343297067 41.42541027539871 0 0 -1
3242 1 35.742561238411525 13.07811365914401 41.43264130052045 0 0 -1
3278 1 35.743561318163735 17.702141174344433 41.43436322847946 0 0 -1
3028 1 30.776339794043892 22.18346510871576 2.8420582446414695 0 0 0
220 1 44.05344830909952 31.289468834089433 2.963215874249153 -1 0 0
3316 1 34.020134094699166 22.26195131880144 2.861431688567418 0 0 0
3604 1 37.44527651731656 22.141150872118114 2.810347964231731 0 0 0
5 2 44.147947290414585 37.98114326231596 5.322206934227642 -1 -1 0
3892 1 40.812131974714426 22.18480391049949 2.8916221358281966 0 0 0
4002 1 42.39337609577176 35.889716939924845 5.234990968688465 0 0 0
221 1 44.067627969062066 29.01343744900638 5.359044762225327 -1 0 0
2739 2 29.15405938408967 24.49884307722667 2.8651682654975263 0 0 0
3027 1 32.206521320506354 24.591387431109364 2.87269040270104 0 0 0
3457 1 37.481675173963545 38.115112884581166 0.8311516580786187 0 -1 0
3315 2 35.80886698139915 24.43986493846107 2.7266271556015598 0 0 0
181 1 44.14485833314595 24.421839094316695 0.744596686714723 -1 0 0
3603 1 39.00054999137771 24.3593704857897 2.8330791922748437 0 0 0
3891 1 42.33328272168753 24.459747254459263 2.886763125226025 0 0 0
3064 1 30.633573921174886 26.96367497419605 3.079307370232914 0 0 0
2775 1 28.674220001479803 28.970498221645975 2.8402444466160572 0 0 0
188 1 44.05713698390278 26.833216039360572 7.5456471411675885 -1 0 0
224 1 43.950081420608974 31.32761125509835 7.490872538485064 -1 0 0
3352 1 34.099393207589536 26.694556094385955 2.9273565923505562 0 0 0
3063 1 32.32496599880506 29.095814110856136 2.9123276439503707 0 0 0
257 1 43.9198970117021 33.71134328153913 5.199542140076043 -1 0 0
3640 1 37.40678504355701 26.88374970723089 2.872571629139671 0 0 0
3351 1 35.72520687053213 28.996181414163196 2.843004588586357 0 0 0
3749 1 40.785923712662274 38.21505739520012 5.238739141782928 0 -1 0
3928 1 40.64520216704205 26.68655549261517 2.9190784395559906 0 0 0
3639 1 39.02783628809942 29.02625001053915 2.8547364899210166 0 0 0
3927 1 42.39045583612098 28.983441972222163 3.028094110854269 0 0 0
260 1 44.0625854071209 35.83819560819712 7.474855210445425 -1 0 0
152 1 44.10462864506227 22.23675509590368 7.436665081439345 -1 0 0
3100 1 30.54941767325917 31.14985969093132 2.8127929769581335 0 0 0
3715 1 39.09347147797028 37.93462985749241 7.466258467947879 0 0 0
3388 1 34.06370649629213 31.32809862774948 3.087099957603753 0 0 0
4004 1 40.88747883007093 35.81846259179592 7.406700743470619 0 0 0
3676 1 37.28594775641238 31.411347721142654 2.8508759174127762 0 0 0
3427 1 35.638455813828024 38.07403143176703 7.533139452771766 0 0 0
1 1 43.950889858808836 37.96960932408435 0.818257562138502 -1 -1 0
3964 2 40.85614438150235 31.31943314375565 2.898343337883384 0 0 0
2851 1 28.79870403165776 38.01363455277953 7.386078771133007 0 0 0
2811 1 28.69230832394381 33.51859766603752 2.922734561847542 0 0 0
3099 1 32.50437701069555 33.515949425810476 2.9571455913465283 0 0 0
217 1 44.054312401576745 29.061870399991466 0.7789483494768026 -1 0 0
3387 1 35.67884080291137 33.6949623676589 3.078841475593637 0 0 0
3461 1 37.42342398781177 37.97164333680827 5.341501399054752 0 -1 0
3675 2 39.235311920695786 33.39584829514338 2.7924224007907914 0 0 0
3963 1 42.41712667070752 33.68206017707661 2.757999804206975 0 0 0
2847 1 28.960310955100617 38.143916744704725 3.2212003284344886 0 0 0
3136 1 30.63797325490315 35.75253316473686 3.101189472960526 0 0 0
3426 1 35.66383152614267 35.68569277236629 5.254565155716024 0 0 0
2850 1 28.869076263984958 35.64120314134727 5.235264989208251 0 0 0
3424 1 34.105498543858175 35.70784909484281 2.7204970879150436 0 0 0
3135 1 32.406267052716814 38.09755715715599 3.1317213028584407 0 0 0
3139 1 32.41025895008793 38.091803367630966 7.382920081514169 0 0 0
3423 1 35.74242386988675 38.083303945299164 2.958515561702073 0 0 0
3712 1 37.514027765790296 35.67022528316753 3.0540681916680237 0 0 0
3716 1 37.32988155051591 35.80429779060738 7.4290768350515615 0 0 0
4000 1 40.632844970172435 35.838950601849305 3.109583523758585 0 0 0
3711 1 38.9744710479765 38.07249120183296 3.18860830971071 0 0 0
3138 2 32.50447627138332 35.69243465875243 5.124528014728728 0 0 0
3999 1 42.450777925903836 38.084797243233844 3.13462812098898 0 0 0
3173 1 34.105345512698676 38.12783442357401 5.200717911457246 0 -1 0
3714 2 39.17556605553481 35.943227650525195 5.388849369628993 0 0 0
2742 1 28.928877171063398 22.30483522395111 5.219157997704119 0 0 0
3032 1 30.6357817976698 22.301758017783744 7.302825954869487 0 0 0
3030 1 32.37321364335737 22.10351979696198 5.1975696910351745 0 0 0
3320 1 34.10630934691345 22.189581675308013 7.310113937216287 0 0 0
3318 1 35.78752053184536 22.164748694148987 5.126549463494968 0 0 0
3608 1 37.294435351412666 22.13216816756577 7.457937336740542 0 0 0
3606 2 39.05640083633579 22.23948431582586 5.268169747205668 0 0 0
3896 1 40.81307725042064 22.22231486319736 7.5270513185896775 0 0 0
3428 1 33.97563759716716 35.7693865070963 7.455028297909981 0 0 0
3894 1 42.29311576548043 22.215345294056625 5.220460429749085 0 0 0
2743 2 28.839780117700656 24.459308070972735 7.442721368660064 0 0 0
3065 1 30.77019513779549 24.451653528778177 5.162278411342624 0 0 0
3031 2 32.58162977260585 24.45643415266791 7.362634625559531 0 0 0
3353 1 34.2041455783203 24.40374267151265 5.036257514344314 0 0 0
3319 1 35.73223697535371 24.360447569683608 7.36045433708574 0 0 0
3641 1 37.267196887676874 24.574574207809214 4.99579619387904 0 0 0
3607 1 39.03965644087334 24.333913449930723 7.281107514533314 0 0 0
3929 1 40.68808719895127 24.48320327137904 5.232853426928317 0 0 0
3895 1 42.37432536701209 24.551854827227345 7.4293986035264075 0 0 0
3068 1 30.610863143267345 26.64571094937553 7.291769471316518 0 0 0
2778 1 28.83700405383798 26.75275521073298 5.1556193064996725 0 0 0
2779 1 28.99634261882167 29.035254856968965 7.365853356283484 0 0 0
3101 2 30.583049034613403 28.91634309951426 5.077310451014317 0 0 0
3356 1 34.046126240239325 26.798214915308286 7.633279246943836 0 0 0
3067 1 32.28610555307879 29.1071096794584 7.466423556089004 0 0 0
3066 1 32.544832862939 26.670827762528766 5.1770145265555 0 0 0
3389 1 33.89583249299068 29.189062618103982 5.193736462908245 0 0 0
3644 1 37.435769602393584 26.640054746084363 7.450171040136172 0 0 0
3354 2 35.64810803488661 26.83236018121449 5.317011676293465 0 0 0
3355 1 35.710364091388996 29.09386855334655 7.403611662429725 0 0 0
3677 1 37.509123123518975 29.028375223461154 5.157776605477048 0 0 0
3932 2 40.631044410685625 26.74616786196233 7.437620613006419 0 0 0
3642 1 39.08445106799097 26.58535609216572 5.154705612841985 0 0 0
3643 1 38.97420069895368 28.979196405662005 7.616198333038973 0 0 0
3965 1 40.70754632474541 28.807220591418957 5.303650497701234 0 0 0
4003 1 42.321221679860976 38.06499700834846 7.499558258541973 0 0 0
3930 1 42.328541776013026 26.725529937219683 5.286854188916595 0 0 0
3931 2 42.271819068072304 28.861008686081142 7.534048087831348 0 0 0
2814 1 28.958581172147568 31.190397211686058 4.9346220547995046 0 0 0
3104 1 30.682244351864874 31.3022753651983 7.553212338716785 0 0 0
3102 1 32.148793121155876 31.24607658377736 5.172659538775283 0 0 0
3392 1 34.0291834927652 31.22581650793789 7.311684790873652 0 0 0
3390 1 35.845432636737506 31.334550431390216 5.145508573564844 0 0 0
3680 1 37.43405057213423 31.302075072300063 7.515395509740894 0 0 0
3678 1 39.11909468940874 31.318532882021866 5.069952476149372 0 0 0
3968 1 40.76932812239405 31.13563981135756 7.461846957091163 0 0 0
2885 1 30.67221511058954 37.976282223474165 5.361846213158147 0 -1 0
3966 1 42.38481936954218 31.134843121458395 5.231597397408196 0 0 0
2815 1 29.004363491113253 33.52673367322042 7.5209593822840235 0 0 0
3137 1 30.789898329114557 33.59865884306406 5.292653186235503 0 0 0
3425 1 33.92912728475447 33.514978079402795 5.309175547971606 0 0 0
3103 1 32.343028069149064 33.615131580175444 7.570752341973768 0 0 0
3391 1 35.69028543240917 33.542588083660945 7.5432878355501485 0 0 0
3713 1 37.4542963675379 33.55638472746348 5.184346010581486 0 0 0
3679 1 39.100934098255564 33.55464913554481 7.458495540321502 0 0 0
4001 1 40.8311673012386 33.51544284406992 5.18071120462703 0 0 0
3967 1 42.38192993820264 33.51714025634247 7.6066943610080475 0 0 0
3140 1 30.708609183442512 35.81540379668458 7.3788465611868395 0 0 0
3097 2 30.512943899547444 29.123720838874057 0.8481977740129909 0 0 0
3062 1 32.142322942946386 26.790844099184422 0.7735604190007372 0 0 0
3926 2 42.454397319622984 26.788947119274653 0.8604901890822781 0 0 0
2881 1 30.63226062210537 38.191084389030124 0.9982425056779904 0 -1 0
3745 1 40.773020545242105 38.03552160719243 0.8429700705024168 0 -1 0
2846 1 29.14178010972241 35.72960558447839 0.7760316676204849 0 0 0
2810 1 28.75145336237229 31.30646591689885 0.8369768309831271 0 0 0
3169 1 33.90430038104067 38.06324253378938 0.7979175677396453 0 -1 0
3098 1 32.419621705583396 31.321248760193505 0.8622896454207214 0 0 0
3133 1 30.608846213629704 33.4895868421699 0.8551901300513635 0 0 0
3385 1 34.02538993738394 28.991826804338206 0.8021548216256409 0 0 0
2746 1 29.014739031096248 22.361715041319663 9.472493627072556 0 0 0
3036 1 30.532199356994646 22.094297240782247 11.951514504663981 0 0 0
3034 1 32.365404550418965 22.248395313437197 9.680538483554068 0 0 0
3324 1 34.09256336649116 22.20788480193589 12.027191288994812 0 0 0
3322 1 35.64331606778246 22.25748615226922 9.671950697046194 0 0 0
3612 1 37.51176527270238 22.236598118672177 11.931713769959295 0 0 0
3610 1 39.18404723474874 22.23455759270322 9.760146662882642 0 0 0
3900 1 40.68859672820165 22.183769999196528 12.063130937407161 0 0 0
3898 1 42.49657150763317 22.322955140769817 9.840322953398942 0 0 0
4010 1 42.42838198473293 35.758914829936444 14.264604429885226 0 0 0
2747 1 28.919465567355147 24.537953628767585 11.67669760468656 0 0 0
3069 1 30.73760803340457 24.46177057239108 9.636902215039122 0 0 0
3035 2 32.2505240816762 24.248021034904962 12.04238468579113 0 0 0
3357 1 33.982171298543726 24.47973106477541 9.840390161163771 0 0 0
3323 1 35.799302260390846 24.316080985955647 12.001391145481584 0 0 0
3645 1 37.55210750129154 24.276909283757554 9.53841136281076 0 0 0
3611 1 38.97171082785188 24.59881651150241 12.067441779817738 0 0 0
3933 1 40.682134505000285 24.545862965470562 9.679562591272004 0 0 0
3899 1 42.304710247632485 24.484613909940453 12.084672979026069 0 0 0
265 1 44.076384144289484 33.43662795222248 14.328228346166107 -1 0 0
3072 1 30.6344715960873 26.6441857936144 11.871366605438379 0 0 0
2782 1 29.11391068799199 26.511253724177223 9.598617100708937 0 0 0
2783 1 28.986940395248197 29.027997707812933 11.908540994115777 0 0 0
3105 1 30.624282127647064 28.92255397750702 9.68071181337678 0 0 0
3070 1 32.22910904728394 26.746900336856278 9.659212066710317 0 0 0
3360 1 33.88434909030049 26.67675359706525 12.026131013535256 0 0 0
3071 1 32.229666000317806 29.066957198546874 11.916841747715488 0 0 0
3393 1 34.15067143646458 28.914733243338265 9.776808258100143 0 0 0
3648 1 37.565139468715266 26.7762795256785 12.077307493127616 0 0 0
3358 1 35.67059085883916 26.590509324082383 9.838366247623627 0 0 0
3359 2 35.65635306082828 28.88081997403527 12.104753449188522 0 0 0
3681 1 37.21699082538339 28.914014863818526 9.781044528666046 0 0 0
3646 1 39.05216445097766 26.77021093799064 9.722347762700158 0 0 0
3647 1 39.14104361689172 29.151264227552872 11.923030113328085 0 0 0
3969 1 40.718312223707024 29.052671327755558 9.70435457344145 0 0 0
3936 1 40.629186654998264 26.763831469078777 11.958833381151607 0 0 0
4011 1 42.42400125429073 37.931670186725576 16.53650361719371 0 0 0
3934 1 42.2752452139501 26.758854745452616 9.683666094958237 0 0 0
3935 2 42.507233743508294 28.933065279582085 12.110533744755745 0 0 0
2818 1 28.883319680372736 31.280897542915323 9.716483262753329 0 0 0
3108 2 30.688008582222416 31.35749235586851 11.941368977215467 0 0 0
3106 1 32.3765325401088 31.128180428611454 9.789745691045038 0 0 0
3396 1 34.119512538337524 31.21183827936457 12.066369581063475 0 0 0
3394 1 35.75317816578472 31.220643564790652 9.693169536758173 0 0 0
3684 1 37.198760771619085 31.295633520265312 12.048006930944112 0 0 0
3682 1 39.05396388324809 31.275283460173274 9.782827700543525 0 0 0
3972 1 40.95880387725797 31.254033395046616 12.054167049535055 0 0 0
3970 1 42.39056507022526 31.235909738883677 9.765455555108199 0 0 0
3757 1 40.72907501095991 37.93104319792854 14.398712793681202 0 -1 0
2819 2 28.81790877071544 33.322346137209614 12.008904766889847 0 0 0
3141 1 30.635590747859695 33.49233282020995 9.907433960030797 0 0 0
3107 1 32.49413498302725 33.402633355254366 12.218798157688681 0 0 0
3429 1 34.015314774999304 33.58123952861205 9.871807394262174 0 0 0
3395 1 35.65964286342909 33.658371386833196 11.99106743702231 0 0 0
3717 1 37.30837374137245 33.48973163046472 9.758848021348976 0 0 0
3683 1 38.907575578147096 33.43548773267962 12.021985669486854 0 0 0
4005 1 40.824931559101174 33.46815406939236 9.858545672610534 0 0 0
3971 1 42.58041529487599 33.4226916394709 11.997233177962375 0 0 0
2889 1 30.563503965782218 37.97145160024581 9.624859303443825 0 -1 0
3144 1 30.664023186194022 35.57846435442392 12.036460589378125 0 0 0
2855 1 28.954509122834402 37.83372169883332 11.961912422624119 0 0 0
2854 1 28.952753099850575 35.76189126101316 9.788990409347836 0 0 0
3143 1 32.04090415114937 38.01938520492624 11.924288935044318 0 0 0
3432 2 34.05173494287556 35.95957166238853 11.811603819453508 0 0 0
3142 1 32.32173140929239 35.730878207183274 9.73982883624234 0 0 0
3177 1 34.003015510734755 38.07072117357529 9.751508054042171 0 -1 0
3465 1 37.5175831239999 38.05627534365588 9.829093710982017 0 -1 0
3720 1 37.4246323324874 35.86625626073184 12.11170030056337 0 0 0
3430 1 35.737492425563026 35.89527101904414 9.691176360328706 0 0 0
3431 1 35.733008372326545 37.98532704327919 12.001102528905175 0 0 0
3753 1 40.74307402663146 38.054963813145825 9.784501913715538 0 -1 0
3718 1 39.11853627682194 35.665731313316215 9.713673091138215 0 0 0
3719 2 39.017384305367784 38.15781910906081 12.193437753060746 0 0 0
4008 1 40.62014863493759 35.734398114984366 12.04180260082211 0 0 0
4006 1 42.50006271770734 35.805221266043496 9.638510900313108 0 0 0
4007 1 42.26987092116976 38.00816340375456 12.154124529306996 0 0 0
2750 1 28.733276687920675 22.03718464840002 14.239709391975099 0 0 0
3040 1 30.667328734953152 21.99297805959556 16.525288579991223 0 0 0
3038 1 32.32801006317909 22.300322077018777 14.154870863417058 0 0 0
3328 1 33.940790766163644 22.335708384640625 16.47795144205338 0 0 0
3326 1 35.67371177656474 22.21354867659635 14.250763152271345 0 0 0
3616 1 37.44079418786859 22.271867771850566 16.463253732098995 0 0 0
3614 1 39.142825880102556 22.228883156279945 14.253851951606231 0 0 0
3904 1 40.999221433348346 22.272080943190954 16.513404740642684 0 0 0
9 1 44.035893725656194 38.19620221396424 9.88492072635733 -1 -1 0
3902 1 42.47573220242366 22.175517622457217 14.307232354148239 0 0 0
2751 1 28.810648646695576 24.507009930799587 16.504520115641412 0 0 0
3073 1 30.265892244947025 24.342310908455037 13.987436336301927 0 0 0
3039 1 32.06948091547945 24.384243548383623 16.387161052419785 0 0 0
3361 1 34.10208720540996 24.396875024167713 14.185587695546749 0 0 0
3327 2 35.52411875963365 24.438922096603207 16.603756802496786 0 0 0
3649 1 37.300220210855265 24.569203379437976 14.30215583823234 0 0 0
3615 1 39.05287820213783 24.638065023151906 16.468125180128496 0 0 0
3937 1 40.894372321433494 24.60010986100492 14.323045240133522 0 0 0
3903 1 42.65399617346655 24.466573445551372 16.8027113597677 0 0 0
4012 1 40.83152867065501 35.69200726903533 16.555989421857774 0 0 0
3076 2 30.542405487210758 26.597352440598257 16.565326014223658 0 0 0
2786 1 28.95652103640122 26.772142796598615 14.086382783837292 0 0 0
2787 1 29.030041111025753 28.88670349020447 16.387576613564768 0 0 0
3109 1 30.712482786422484 29.01561481516315 14.110982698522323 0 0 0
3364 1 33.789012487978425 26.65126020236832 16.429499168002692 0 0 0
3074 1 32.18299793671538 26.375267783505112 14.223055113222541 0 0 0
3075 1 32.126246925659345 28.971105635083678 16.56481224211204 0 0 0
3397 1 33.72685425273858 28.946716664953403 14.241539592178771 0 0 0
3652 1 37.31484792635673 26.749028287553163 16.47280497704652 0 0 0
3362 1 35.69736018945324 26.938368344709346 14.34416312793288 0 0 0
3363 2 35.683154698426534 29.009657845134964 16.256910016974643 0 0 0
3685 1 37.654506348504285 29.031359895283213 14.32771865431327 0 0 0
3650 2 39.11194955492451 26.609872128107394 14.339164719336134 0 0 0
3651 1 39.029785914851935 28.90361840198829 16.66234140517099 0 0 0
3973 1 40.52280922358544 28.897866969307504 14.313421175213566 0 0 0
3940 1 40.994427826474116 26.722589523254 16.711793578690006 0 0 0
3938 1 42.323452387681044 27.025825559544465 14.091358328712294 0 0 0
3939 2 42.540027281002175 29.034813613310426 16.518910285620706 0 0 0
264 1 44.14299667322916 35.771130333480215 12.068661145081638 -1 0 0
2822 1 28.99058046161788 31.268549646971508 14.204046198973119 0 0 0
3112 1 30.48366749181517 31.37258454218155 16.61574458320176 0 0 0
3110 1 32.16089815123813 31.233043933131547 14.319023812299342 0 0 0
3400 1 34.023795610720335 31.19955415134075 16.597176371334207 0 0 0
3398 1 35.78740996098829 31.03270611845342 14.35454164576414 0 0 0
3688 1 37.39458234277765 31.128529379330534 16.65799120068453 0 0 0
3686 1 39.00934532068998 31.33534445310528 14.177205460554324 0 0 0
3976 1 40.62856272000481 31.145829511947483 16.581041592632474 0 0 0
3974 1 42.471874270128176 31.03650932653759 14.283392072792967 0 0 0
2823 1 28.778853888516565 33.502897509323404 16.648193454538088 0 0 0
3145 1 30.38619345564392 33.57307962829269 14.14854625028312 0 0 0
3111 1 32.36428504038887 33.40407858509021 16.409685147543232 0 0 0
3433 1 34.31201686061774 33.436310208826285 14.436557708522972 0 0 0
3399 1 35.7278464847165 33.37640202035827 16.769110269663113 0 0 0
3721 2 37.13804711881744 33.41608496120418 14.380436394122356 0 0 0
3687 1 39.021234110075426 33.47875459681083 16.64122396646904 0 0 0
4009 1 40.728162043658806 33.43069255415895 14.273885778786962 0 0 0
3975 1 42.686314745125536 33.3809742199341 16.577241681157467 0 0 0
2893 1 30.49656654211467 38.10655814974455 14.229338500331814 0 -1 0
2858 1 29.019131031947836 35.85141425517473 14.345848633761765 0 0 0
3148 1 30.648462568621134 35.65764505507609 16.59742663392561 0 0 0
2859 1 29.012990132779898 38.06633975420009 16.646727448539046 0 0 0
3181 1 33.905625642070234 38.04289375821854 14.140997713534935 0 -1 0
3436 1 34.10112857880677 35.69630932850486 16.55627511039367 0 0 0
3147 1 32.2438641831383 37.88372974828745 16.515478589551087 0 0 0
3146 1 32.392447460345174 35.64264626774721 14.258279931908591 0 0 0
3469 1 37.37322538081506 37.97651027315487 14.456303653513354 0 -1 0
3724 1 37.31621706561997 35.66491961090751 16.507911343942695 0 0 0
3435 1 35.64631158974538 37.90321449920239 16.517025292559556 0 0 0
3434 1 35.62778685253914 35.862498785801485 14.222703910711509 0 0 0
3722 1 38.98023245767113 35.76956857343234 14.479563828844638 0 0 0
3723 1 39.1945855373188 37.873284243581544 16.655431031168963 0 0 0
156 1 44.11241701487534 22.24264209014548 12.041031076732413 -1 0 0
193 1 43.92101072353517 24.520491970081594 14.381583132124522 -1 0 0
225 1 44.046654406073294 28.84323981676826 9.772802952641058 -1 0 0
160 1 44.051811463687685 22.195087484486855 16.66444351858788 -1 0 0
196 1 44.048695736841516 26.752219880258718 16.565154677753803 -1 0 0
268 1 44.07444437626976 35.71004781923211 16.484774091935872 -1 0 0
261 1 44.06894478424647 33.565765297352414 9.673111604776933 -1 0 0
189 1 44.04621302626285 24.581188842744055 9.762687172115061 -1 0 0
2754 1 28.916481115072976 22.17765856594916 18.582639854520117 0 0 0
3044 1 30.455447424025316 22.187454473309835 20.96578763277123 0 0 0
3042 1 32.23766097434044 22.149313302048757 18.721950015396555 0 0 0
3332 1 34.11944361001575 22.293761851081225 20.917508127314214 0 0 0
3330 1 35.66021742687968 22.267405275183425 18.623246321109978 0 0 0
3620 2 37.41323305581778 22.208633190036416 20.880200225200454 0 0 0
3618 1 39.227469182894 22.257413674088735 18.62899787133645 0 0 0
3906 2 42.422964167100524 22.326491518419328 19.041743808519954 0 0 0
3077 1 30.645991466622547 24.500616090060635 18.72609783328884 0 0 0
3365 1 33.869877867806984 24.483479075544942 18.715435655961542 0 0 0
3043 1 32.23805355215102 24.45400116606341 21.016016344035062 0 0 0
3653 1 37.37549613628279 24.481402034785425 18.773752810718015 0 0 0
3941 1 40.70340592029741 24.67039746617274 18.803390737097388 0 0 0
3619 1 38.914147357888716 24.51370675450259 21.041883893390068 0 0 0
3907 1 42.4270354940605 24.37525037558257 20.94802647915953 0 0 0
2790 1 28.907109374870224 26.74529798728808 18.677502420881545 0 0 0
3113 1 30.595706873293274 28.84284871318709 18.725808167067342 0 0 0
3080 2 30.566407313886437 26.72542314099069 21.00295933734907 0 0 0
3078 1 32.39417542978282 26.78224189413496 18.81463492297245 0 0 0
3401 1 34.06184783946818 29.172249636042988 18.628363871707073 0 0 0
3079 1 32.290926362682484 28.845773713178176 20.870369309508902 0 0 0
3366 1 35.58413173271063 26.655892190284757 18.60265801005697 0 0 0
3689 1 37.1977448923432 29.005358537726377 18.77836359716935 0 0 0
3656 1 37.255760271888164 26.78312417794814 20.953351993840194 0 0 0
3654 2 39.024251748588355 26.913811095550138 18.61526742792303 0 0 0
3977 1 40.91220684297299 28.986963516964245 18.72482089633986 0 0 0
3655 1 39.08642368144423 28.998485709345438 20.92471157443814 0 0 0
3944 1 40.74799535696799 26.776532881183293 21.04461838023915 0 0 0
3942 1 42.56132377095746 26.665460303914514 18.928532851576396 0 0 0
4015 1 42.64873751741223 37.962600958457344 21.1655008808615 0 0 0
2826 1 28.89913143173711 31.436787490750604 18.771521340750883 0 0 0
3114 1 32.213695588655376 31.22797541808264 18.722052258658493 0 0 0
3404 1 33.77959439071434 31.32102107300354 21.050372774028958 0 0 0
3402 2 35.66236496230118 31.467000667120228 18.91820435476319 0 0 0
3692 1 37.544014268363355 31.267701426857645 21.011877563690454 0 0 0
3690 1 39.086393782774074 31.213755020821186 18.880443065249725 0 0 0
3978 1 42.616349916926474 31.251717012741324 18.74318672223062 0 0 0
3980 1 40.94985141993226 31.286982967553605 21.054691655713576 0 0 0
3149 2 30.71209065645847 33.705814036623764 18.68315517995747 0 0 0
2827 1 28.95088450271414 33.59868758993112 20.9735598226369 0 0 0
3437 1 33.73823382638558 33.45537221407706 18.866398138289387 0 0 0
3725 1 37.44073502701034 33.5953143090852 18.945459025089647 0 0 0
3403 1 35.64235455424627 33.33428572940275 21.1636649260021 0 0 0
4013 1 40.841272950664404 33.349823344055835 18.89316624402539 0 0 0
3979 1 42.47198283608361 33.43515227172004 21.182135965705324 0 0 0
4018 2 42.602399202396654 35.75410080933767 23.40001966858623 0 0 0
2862 1 28.930489803512558 35.72180892968094 18.853076743704403 0 0 0
2897 2 30.641613720487328 38.040148715201035 18.84081545093178 0 -1 0
3152 1 30.604113684201735 35.84546999950918 21.074872443586745 0 0 0
3150 1 32.572423511295156 35.80361880390845 18.78777686752152 0 0 0
3185 1 33.948957522313655 38.08843105141809 18.839270758437245 0 -1 0
3151 1 32.24105640883 38.155667692396186 21.143199486521823 0 0 0
3440 1 33.85213685884354 35.748330424884394 21.14717745244626 0 0 0
3438 1 35.722475686483854 35.82644879579052 18.7641494073519 0 0 0
3473 1 37.32125155587504 37.94759833491236 18.870498785840873 0 -1 0
3728 2 37.37422059473722 35.66295653494534 20.96802667145967 0 0 0
3439 1 35.699018699374115 38.02152723963306 21.22291258805521 0 0 0
3727 1 38.89554368534218 37.95772204980043 21.140263666352606 0 0 0
3726 1 39.124862748571495 35.661595337668444 18.724975892286572 0 0 0
3761 1 40.81983973362853 38.01378298817634 18.96460950202563 0 -1 0
4014 1 42.57571393122689 35.73348155872009 18.828195727060045 0 0 0
2758 1 28.927230213730937 22.154465947294394 23.18804370794398 0 0 0
3046 1 32.35116249930369 22.250553265024177 23.224456902660712 0 0 0
3334 1 35.79377784025308 22.117875142754617 23.272471695935298 0 0 0
3908 1 40.57107460734639 22.250910621964795 21.10273767084415 0 0 0
3622 1 38.944163347596515 22.31064287534695 23.383356832041844 0 0 0
3910 1 42.62619461082768 22.33659697288581 23.361753235585958 0 0 0
2755 1 28.94387552240002 24.482891874202103 20.986748438961136 0 0 0
3081 1 30.59031385650141 24.40801876954266 23.372905725936373 0 0 0
3369 1 34.13615794956231 24.359200559643156 23.169429989081223 0 0 0
3331 1 35.87519637770951 24.37790701848512 21.06094029762357 0 0 0
3657 1 37.39913774490303 24.518939811651013 23.363383938295794 0 0 0
3945 1 40.81212416004226 24.373761832456722 23.405925692338403 0 0 0
3730 1 38.8297387176456 35.830844305168014 23.271739119699138 0 0 0
2791 1 28.724884951338968 28.997080288243048 20.990559782852753 0 0 0
2794 1 29.031599971975204 26.730207657900575 23.431689211605395 0 0 0
3117 1 30.461975907151427 29.052151567166938 23.10290283378123 0 0 0
3368 1 34.14938230947618 26.756281012421226 21.205273464865222 0 0 0
3082 1 32.25217753452341 26.74486719834527 23.14372731831299 0 0 0
3405 1 33.91368796953497 28.89920155812276 23.18849445814137 0 0 0
3367 2 35.54807738025347 29.10149511764932 20.85920376707406 0 0 0
3370 1 35.831418185038686 26.74806988505678 23.375671046771565 0 0 0
3693 1 37.54118697652507 28.978895287296154 23.204587688730044 0 0 0
3658 1 39.10998501447815 26.814479316375987 23.227293224956593 0 0 0
3981 1 40.757536072280146 29.073311572650372 23.2950048544288 0 0 0
3943 2 42.50502569818133 28.862149538046367 20.967596174716068 0 0 0
3946 1 42.33943574835488 26.811441049931 23.378603970495003 0 0 0
3116 1 30.569725503357546 31.181137353278064 21.01435641220394 0 0 0
2830 1 28.802652201543587 31.135038173085654 23.304456282540272 0 0 0
3118 1 32.213676810711654 31.226314007180747 23.35358546494066 0 0 0
3406 1 35.60353057134855 30.99738392410977 23.280281119881973 0 0 0
3694 2 39.225969123222676 31.401652687547696 23.388324694068878 0 0 0
3982 1 42.59152690068449 31.30396884430449 23.26446173754683 0 0 0
3153 1 30.37817306987607 33.42519851576088 23.554541801904794 0 0 0
3115 1 32.1052283728508 33.516177848247395 21.27013501697656 0 0 0
3441 1 34.047778912590886 33.52711159142683 23.471649370269677 0 0 0
3729 1 37.29516685711171 33.351039675252636 23.345796520054495 0 0 0
3691 1 39.131538855343486 33.58543169513396 21.272842593179963 0 0 0
4017 1 40.94157910492029 33.52325703178758 23.46413524560763 0 0 0
3765 1 40.70913921837081 37.83480031187553 23.148786604277902 0 -1 0
2863 1 29.000192422178763 37.9950203133277 21.160485349608877 0 0 0
2901 1 30.63240520580537 38.02920432744267 23.47459771924301 0 -1 0
2866 2 29.00698507230655 35.70789357292245 23.327352599493373 0 0 0
3154 1 32.17495877387006 35.740294766942235 23.345636573674902 0 0 0
3189 1 33.89404852478391 38.07822118734966 23.363995346853844 0 -1 0
3442 1 35.853305174916215 35.68014379909898 23.297309077330468 0 0 0
3477 2 37.37657044278419 38.11410110863206 23.521956958389275 0 -1 0
4016 1 40.90057721564314 35.66638240660003 21.086411663225583 0 0 0
237 1 44.083470050658256 29.01929042581967 23.293806195244127 -1 0 0
17 1 44.10363019237685 38.0774753659176 18.764186035184544 -1 -1 0
2762 1 28.83625532803769 22.43749754958597 27.7548680808528 0 0 0
3048 1 30.50177661907169 22.221936296185767 25.4659640152185 0 0 0
3050 1 32.36983588273223 22.27911120296392 27.833808690121888 0 0 0
3336 1 33.94305537399949 22.16954510613388 25.5341888112148 0 0 0
3338 1 35.732593006794595 22.166079542307592 27.74636207882921 0 0 0
3624 1 37.370419586185555 22.194620246963783 25.530161552026385 0 0 0
3626 1 39.203154276612786 22.323845635036708 27.804065109451475 0 0 0
3912 2 40.85980681318928 22.31615761194641 25.565541753490017 0 0 0
3914 1 42.69016115606808 22.427763957600945 27.805260433965696 0 0 0
4026 2 42.509670523547165 36.149428476585506 32.49641119676424 0 0 0
2759 2 28.957864821693363 24.58771486602077 25.675865793852832 0 0 0
3085 1 30.74198888841235 24.501758988777684 27.729648420000856 0 0 0
3047 1 32.40801583030445 24.57764420037668 25.362918845109377 0 0 0
3373 1 34.04814658537078 24.549153974127673 27.787482783396037 0 0 0
3335 1 35.58695156492464 24.4778377237254 25.54298464319939 0 0 0
3661 1 37.334055875720125 24.501914584271436 27.84451063094657 0 0 0
3623 1 38.969667651402304 24.46449419780337 25.636716168605783 0 0 0
3949 1 40.82071237188245 24.601354244318554 27.73222965986511 0 0 0
3911 1 42.67022335129286 24.497665949545205 25.42819719494476 0 0 0
3084 1 30.692605071922067 26.600632293095806 25.535760822594415 0 0 0
2798 1 28.958097449051998 26.814290815402444 27.68242141920396 0 0 0
2795 1 29.091494862972397 28.880239312521578 25.48764393562266 0 0 0
3121 1 30.445696919581017 29.11089688205838 27.992070268776313 0 0 0
3372 2 33.94353362562121 26.84742232976812 25.521633037281337 0 0 0
3083 1 32.144937954614335 28.974832666872267 25.45827312220878 0 0 0
3086 1 32.40074293451073 26.86343595562522 27.81843865776178 0 0 0
3409 1 34.201455692152734 28.951543277479033 27.87757340471955 0 0 0
3660 1 37.47921190534307 26.835529939672764 25.62069819823312 0 0 0
3374 1 35.78045353703212 26.658952103344966 27.685018331299094 0 0 0
3371 1 35.714750346797636 28.862192527893406 25.520835382338483 0 0 0
3697 1 37.36790078899321 28.977127867231356 27.863587221001556 0 0 0
3662 2 39.038548988556215 26.77225895868859 27.833110252935153 0 0 0
3659 1 39.09448748582797 29.211033044191336 25.534894138619507 0 0 0
3948 1 40.73877043482444 26.744585133722733 25.637079508656917 0 0 0
3985 1 40.66679655125062 29.075921673902755 27.755352809543606 0 0 0
3950 1 42.29624126115206 26.833225009846238 27.803503126480553 0 0 0
3947 1 42.50359219919285 28.91867367319414 25.58224133793853 0 0 0
4023 1 42.328599448127775 38.17240279610347 30.225101951044483 0 0 0
241 2 44.057245282654804 28.95384683595432 27.945048124008373 -1 0 0
2834 2 28.8403714732006 31.36477477462814 27.966168041933003 0 0 0
3120 1 30.488895983320603 31.256804278826618 25.64995460825874 0 0 0
3122 1 32.506352469623025 31.23299959432952 27.728962736047073 0 0 0
3408 1 34.13381102026224 31.21855940299445 25.57486503534979 0 0 0
3410 1 35.80986583888078 31.28938556463539 27.885880937790347 0 0 0
3696 1 37.299002408979895 31.104053479376333 25.377148042663634 0 0 0
3698 2 38.889209832184704 31.26682949707504 27.683854935585032 0 0 0
3984 1 40.99959083199463 31.30757020661363 25.478882690673757 0 0 0
3986 1 42.54920135139027 31.365207107511846 27.841271556144722 0 0 0
2831 1 28.766023348347648 33.567862078638456 25.62229033742508 0 0 0
3157 1 30.66798936276063 33.392745393842276 27.71346477818289 0 0 0
3119 1 32.33118602715216 33.47581896934072 25.605023637494874 0 0 0
3445 2 34.14863260347267 33.46921630814452 27.6264288324571 0 0 0
3407 2 35.831831565108814 33.43753395144745 25.564363560232913 0 0 0
3733 1 37.485329740025314 33.63679412289288 27.84442009115389 0 0 0
3695 1 38.91334776144405 33.307371741461765 25.536257086961612 0 0 0
4021 1 40.56333875115894 33.410861080407074 27.74503188603177 0 0 0
3983 2 42.61173897370298 33.50564874926925 25.790004728651724 0 0 0
3156 1 30.43494811619304 35.69396271276039 25.72046602972417 0 0 0
2870 1 28.659244304775246 35.8102288852843 27.856774897385247 0 0 0
2867 1 28.841032367985086 38.010811736799695 25.599932253187585 0 0 0
2905 2 30.4796529455896 37.98345262197063 27.91926623606719 0 -1 0
3193 1 33.87388018691567 38.12374477999266 27.851525397353104 0 -1 0
3444 1 34.10487107378215 35.82149304183306 25.51086980397445 0 0 0
3158 1 32.42054454189463 35.75713813638612 27.93785523686191 0 0 0
3155 1 32.17798938275358 38.082345075630094 25.71041010017557 0 0 0
3732 1 37.56715610376471 35.94109555958682 25.760255144963647 0 0 0
3446 1 35.61067082071076 35.81740561842786 27.790336910170723 0 0 0
3443 1 35.57103585083482 38.11336725484406 25.669884153264007 0 0 0
3481 1 37.462019893070895 37.970637198153774 27.878381333699277 0 -1 0
4020 1 40.750783381673365 35.57090877752421 25.460521535016994 0 0 0
3731 1 39.27778692852001 38.01836017843898 25.557971172974746 0 0 0
3734 2 39.170035704923976 35.78345235658836 28.009380208454843 0 0 0
3769 1 40.73382173879942 38.23839183101895 27.85931517197834 0 -1 0
4019 1 42.36057488616747 37.92859454824997 25.466759161241292 0 0 0
4022 1 42.22435778627569 35.64928425544268 27.958647214608177 0 0 0
4024 1 40.74287460370085 35.90034372401478 30.264748616432026 0 0 0
3736 1 37.30288669690006 35.771175542771935 30.09511421507339 0 0 0
2766 1 29.08304660754429 22.195471333005052 32.47318597372326 0 0 0
3052 1 30.380995452335377 22.334173444380863 29.982891938729658 0 0 0
3054 1 32.33346037241557 22.296084446253097 32.33363836346728 0 0 0
3340 1 34.00488995252051 22.219046782013777 30.0263666113413 0 0 0
3342 1 35.59216885458448 22.148276895055325 32.337789017393206 0 0 0
3628 1 37.41247699025347 22.205383415108113 29.954714951694477 0 0 0
3630 2 39.28266728677296 22.27957560495434 32.175771283521215 0 0 0
3916 1 40.89001070119434 22.45541679429532 29.885373479862746 0 0 0
3918 1 42.19086585946777 22.249652265586704 32.241270276881046 0 0 0
2763 1 28.785095539214346 24.47339364855687 29.995382170550283 0 0 0
3089 2 30.48170433786725 24.493533139226578 32.32412890489128 0 0 0
3051 1 32.234080741563716 24.449523147118885 30.14898280175581 0 0 0
3377 1 34.17934632535294 24.49091368074458 32.412769948380955 0 0 0
3339 1 35.64678721439682 24.35040105324169 30.176144945690545 0 0 0
3665 1 37.455372898661146 24.341555362068597 32.23233064548265 0 0 0
3627 1 39.19618979584291 24.497240803882004 30.084373764928785 0 0 0
3953 1 40.85068153263639 24.54631490980749 32.261010383654295 0 0 0
3738 1 38.91338781574756 35.80337784564968 32.578043967367186 0 0 0
3915 1 42.69032415053697 24.730106230677414 30.156750497709172 0 0 0
3088 1 30.403831599763933 26.75235469029785 29.970459355801577 0 0 0
2802 1 28.921807552920555 26.94271512950102 32.30768641193224 0 0 0
2799 1 28.799915944159657 29.098998547455164 30.062395901371723 0 0 0
3125 1 30.714723375656014 29.13707184156694 32.25660719451051 0 0 0
3376 1 34.16150733953518 26.70004378035743 30.076571345500547 0 0 0
3087 2 32.34134783217597 28.75616189668204 29.86820971674669 0 0 0
3090 1 32.162454024567026 26.741385207349794 32.10399284454833 0 0 0
3413 1 33.92848923949148 28.830809423343165 32.15594716340432 0 0 0
3664 1 37.28482022734565 26.682846997003626 30.094789938567953 0 0 0
3378 1 35.88173988434821 26.74696729140444 32.42476774487224 0 0 0
3375 1 35.791563257780815 29.025103009852355 30.074981158482373 0 0 0
3701 2 37.30978024278752 29.05958452225712 32.466998297834735 0 0 0
3666 1 38.99237041518486 26.734843191074784 32.43071737974983 0 0 0
3663 1 39.019776665818945 29.003922321773153 30.23046119065811 0 0 0
3989 1 40.73494339881104 28.92460823447253 32.395309964416505 0 0 0
3952 1 40.756537448889645 26.797226460358026 30.138188791089824 0 0 0
3954 1 42.585924668768854 26.813629671022888 32.39522953237994 0 0 0
3951 1 42.27925703851982 29.14846349797999 30.130171508118792 0 0 0
3447 1 35.7016153019607 38.13156295696802 30.139416716717186 0 0 0
3735 1 38.9871850964488 38.16483745099193 30.163824084270733 0 0 0
2838 1 29.182661181991733 31.30741672536232 32.292560409697906 0 0 0
3124 1 30.834632436008576 31.228740900927473 29.91326049457603 0 0 0
3126 2 32.3903942212392 31.302845535444835 32.51047922511943 0 0 0
3412 1 33.86956434104593 31.15840742423346 30.277975977925745 0 0 0
3414 1 35.44351605579881 31.297083349980767 32.4263458087647 0 0 0
3700 1 37.456569227260985 31.311112017102154 30.13203609702667 0 0 0
3702 1 39.14656299146391 31.338785253218457 32.41041009470892 0 0 0
3988 1 40.517161557398474 31.311144967221434 30.008018597077754 0 0 0
3990 1 42.452120614928866 31.32233607971713 32.37516448112837 0 0 0
3773 1 40.46553487550632 38.0577817745634 32.438825461168804 0 -1 0
2835 1 29.059398203145903 33.347090990249185 30.054916059109363 0 0 0
3161 1 30.803973110998584 33.59604989158676 32.261205507537326 0 0 0
3123 1 32.425667497677004 33.50534049724406 29.934741007852313 0 0 0
3449 1 34.07927230531545 33.65328339246716 32.26229381264863 0 0 0
3411 1 35.68184120333295 33.57325686983958 29.869905894657595 0 0 0
3737 1 37.237387429905475 33.5405637045551 32.3353363975758 0 0 0
3699 1 39.1397082312607 33.603687590915655 30.076981255803247 0 0 0
4025 1 40.67855814459389 33.62727709316279 32.43748951835806 0 0 0
3987 2 42.23508844363275 33.473090317474245 29.928502327225534 0 0 0
3450 1 35.6387232335613 35.8787345849407 32.396795386552995 0 0 0
2909 1 30.74535209526806 38.20807477543502 32.62026562748656 0 -1 0
2874 1 29.24232774210563 35.81867150111195 32.53212951628298 0 0 0
3160 1 30.71863746780334 35.70957714150541 30.023687094183952 0 0 0
2871 1 28.94074996732531 37.995451532779235 30.27170895705613 0 0 0
3197 1 34.13313514173999 38.36752450552176 32.31991639023346 0 -1 0
3159 1 32.28209767939311 38.13294921542826 30.272646186427433 0 0 0
3162 1 32.38727299725147 35.90117547917065 32.54311213567677 0 0 0
3448 1 33.88592020682438 35.795184168917565 30.097686976018288 0 0 0
3485 2 37.228044550299025 38.09158414803568 32.51924662146834 0 -1 0
25 1 43.91482571123545 37.9946186421589 27.76783769145668 -1 -1 0
281 1 43.97676844464684 33.72597101416754 32.25470088034324 -1 0 0
280 1 43.984687605847505 35.704102249939055 30.14950263460202 -1 0 0
240 1 44.058672239595445 31.268233812941943 25.66085649456291 -1 0 0
172 2 44.10434826615953 22.205268885198432 30.26111899207575 -1 0 0
276 1 44.11400530591917 35.70947509897291 25.774689660456072 -1 0 0
208 1 44.11392721353903 26.920159734020398 30.051760467560694 -1 0 0
2770 1 28.76641181378684 22.2457575317125 36.81450399936581 0 0 0
3056 2 30.668050031063828 21.94131971092739 34.665412735238604 0 0 0
3058 1 32.49868729343069 22.202457666806446 36.77354698016961 0 0 0
3344 1 33.932564258415674 22.24408765673802 34.62100622359493 0 0 0
3346 1 35.81508389487793 22.296039109176473 36.85796878706918 0 0 0
3632 1 37.4258962156912 22.23053818086598 34.32062406001559 0 0 0
3634 1 39.06034837763277 22.34817509355429 36.87989743676512 0 0 0
3920 1 40.71314118015345 21.997985724721744 34.580900337902904 0 0 0
3922 1 42.34575460741629 22.28737628987975 36.92817019957198 0 0 0
2767 1 29.031950530025 24.316824873959007 34.5194729249655 0 0 0
3093 1 30.578758741845327 24.354263031286145 36.8015308319834 0 0 0
3055 1 32.170015716398794 24.309953048744756 34.53851883973064 0 0 0
3381 1 34.05292409895023 24.514100103754217 36.657118601394174 0 0 0
3343 1 35.95565550007225 24.515959999195562 34.62220249782695 0 0 0
3669 1 37.44456896491654 24.630074702558904 36.8797670393663 0 0 0
3631 1 39.08304482764621 24.458111240367625 34.50388979306993 0 0 0
3957 1 40.74252733620435 24.531363362874828 36.770730071536136 0 0 0
3919 1 42.32963453176444 24.45660086546437 34.53921409027643 0 0 0
3092 1 30.660258844669535 26.625036234078024 34.473270246777645 0 0 0
2806 1 28.972532642872473 26.644577052469682 36.847362377899316 0 0 0
2803 1 28.981504371496506 28.995396161581898 34.48838831219244 0 0 0
3129 1 30.725696506580526 28.91803128820514 36.789486784728794 0 0 0
3380 2 33.86251849207809 26.471022310880908 34.363103401090584 0 0 0
3091 1 32.34868648741865 28.850440871644 34.55707603893369 0 0 0
3094 1 32.3798181652867 26.628624986754673 36.774751385478226 0 0 0
3417 2 33.697869209335806 28.951166815105694 37.10293390294444 0 0 0
3668 1 37.40884438995382 26.853885260645725 34.69290537085837 0 0 0
3382 1 35.53743605471047 26.84475168625043 36.7617493534414 0 0 0
3379 1 35.43750023477443 28.843544430102817 34.61499646428675 0 0 0
3705 1 37.32884592143911 29.024777634740715 36.84802917961726 0 0 0
3956 1 40.722528756184374 26.73671012046962 34.637263558084555 0 0 0
3670 2 38.968072901387394 26.862240416534483 37.15210103722103 0 0 0
3667 1 39.10375414139264 29.008460203380068 34.62719113118361 0 0 0
3993 1 40.90672192611853 29.04542674090508 36.901888926995866 0 0 0
3958 1 42.48471124355637 26.657998399684043 36.78958718551891 0 0 0
3955 1 42.665082435970476 29.064159079464705 34.67392913473819 0 0 0
3602 1 38.98455679220156 22.07232191277666 41.2998981468041 0 0 -1
2842 1 29.03751084229515 31.21192067284586 36.903287237006126 0 0 0
3128 1 30.70718043352909 31.2401963444348 34.76882581068499 0 0 0
3130 1 32.32517339264279 31.21772843991089 37.02657412658668 0 0 0
3416 1 34.030343512813914 31.233301321919054 34.80417750033659 0 0 0
3418 1 35.51708816799088 31.241618974611946 36.97484101076287 0 0 0
3704 1 37.06909730051931 31.08822007966023 34.636776776331686 0 0 0
3706 1 38.89478364532429 31.266785444693085 36.81306872856882 0 0 0
3992 1 40.82254581720598 31.269344324700413 34.63065894067206 0 0 0
3994 2 42.48006338347576 31.40419515907503 36.94125082076184 0 0 0
249 1 44.07027979767043 29.18992340557521 36.902680613489565 -1 0 0
2839 1 29.24808105546242 33.6329897832901 34.52977152904536 0 0 0
3165 1 30.709072100507434 33.542280711091166 36.91022176327492 0 0 0
3127 1 32.39967389731407 33.44246940411614 34.47536027898697 0 0 0
3453 1 33.980480080011496 33.60789804943701 36.950153132774986 0 0 0
3415 1 35.53596902350331 33.48625159998902 34.62396772181218 0 0 0
3741 1 37.30203191165171 33.55484042338939 36.994499133788764 0 0 0
3703 1 38.97911509701327 33.46010467982394 34.72041166524282 0 0 0
4029 1 40.67269327784249 33.562019855164806 36.934680323067525 0 0 0
3991 1 42.60203887276648 33.53081494288139 34.73825131516547 0 0 0
3164 1 30.84181240006285 35.86433154076187 34.90704183800443 0 0 0
2878 1 28.817564314332667 35.925065424155946 36.87618430459976 0 0 0
2875 1 28.779625616876793 38.07217504944707 34.65341048722634 0 0 0
2913 1 30.681089550317083 38.05954416705031 36.9227664765891 0 -1 0
3452 2 33.907136396849644 35.68424612221382 34.70217200143051 0 0 0
3166 1 32.419025661345856 35.886898526905945 37.0572211377948 0 0 0
3163 1 32.575799671288195 38.14119894487345 34.71639491304177 0 0 0
3201 1 34.062527999387925 38.24227113619443 37.03645818933312 0 -1 0
3740 1 37.29091052512223 35.78337894799883 34.70975243762838 0 0 0
3454 1 35.703970634089075 35.79006680182492 37.056944462424724 0 0 0
3451 1 35.54752072250196 37.984378009701004 34.83910550078862 0 0 0
3489 1 37.35376355966542 38.02842967871572 37.02723911728735 0 -1 0
3739 1 39.07973760546153 38.05204188159559 34.90772169845013 0 0 0
4028 1 40.723448611452866 35.79516514557106 34.57991580020075 0 0 0
3742 1 38.90863405048976 35.810751550692075 37.044174786050206 0 0 0
3777 1 40.746177565730456 37.947141275941206 36.992245542923484 0 -1 0
4027 1 42.607195207074355 38.01752587178891 34.649483586464484 0 0 0
4030 1 42.739832559576335 35.6520733284023 36.932257492087416 0 0 0
4031 1 42.40661868096862 37.95499856332184 39.175325526593824 0 0 0
3674 1 39.17255848011982 31.369973641324574 41.40568377484968 0 0 -1
3060 2 30.699233535135242 22.22207432898792 38.87603770755352 0 0 0
3348 1 34.25969835278399 22.081542099507057 39.05590399710613 0 0 0
3638 1 39.14784082372144 26.831863340442922 41.23348783815244 0 0 -1
3636 1 37.49620504362935 22.25054465298666 39.11397593655681 0 0 0
3924 1 40.78864778172517 22.34315483125927 39.18096672344181 0 0 0
3890 1 42.48484908879266 22.072466505904025 41.3811164735731 0 0 -1
2771 1 28.923914816822915 24.257348656461744 38.97574965356536 0 0 0
3061 1 30.718504248919103 24.22492602102367 41.217411492649134 0 0 -1
3059 1 32.58064313648322 24.22474638696014 39.02451945599108 0 0 0
3347 1 35.54881249285415 24.533899417452588 39.143906164688474 0 0 0
3635 1 39.330697903656386 24.586207875254114 39.139287665878996 0 0 0
3709 1 37.32179380322502 33.49386384677196 41.4194294994267 0 0 -1
253 1 44.063275414997925 33.616582734466846 41.40579015423803 -1 0 -1
3923 2 42.530661572269835 24.58941522312216 39.080195467086114 0 0 0
3096 2 30.872634655495133 26.62098193283069 39.02470324019043 0 0 0
2807 1 29.083154171316174 28.777059257176372 38.99131081411373 0 0 0
3384 1 33.8439482074781 26.862162450374377 39.15343562357934 0 0 0
3095 1 32.11285575925201 29.071075679685794 39.29034017702362 0 0 0
3743 1 39.122484267901505 37.95344847228458 39.27297335586084 0 0 0
3672 2 37.24200250429592 26.684422954316496 39.031770985673205 0 0 0
3383 1 35.66371786240022 28.97914723688371 39.07243341712949 0 0 0
4032 1 40.75810073090857 35.71809215522008 39.06533730953565 0 0 0
3455 1 35.753507275299434 38.10082149116548 39.256849369204105 0 0 0
3744 1 37.462047093927715 35.64988703976063 39.31639023431053 0 0 0
3671 1 39.041121775463985 28.923709308958475 38.91488896043184 0 0 0
3960 1 40.959751846219376 26.882839280453165 39.20504858334073 0 0 0
216 1 44.04454120483076 26.851276141192432 39.17060977380106 -1 0 0
3959 1 42.402189160008824 29.19421951075392 39.27767394210311 0 0 0
3132 1 30.60088939005029 31.22445301103933 39.3398160819561 0 0 0
3420 1 33.96314933645744 31.22301073823401 39.186364287934595 0 0 0
3708 1 37.236604655310934 31.16228962722791 39.20875252990358 0 0 0
3996 1 40.65500809095375 31.35661893309314 38.9754922890133 0 0 0
2738 1 29.06942014447261 22.118815266628875 41.312138588446814 0 0 -1
3349 1 33.905524269146625 24.608980617454982 41.370326839717364 0 0 -1
3925 1 40.89673373844223 24.487620694049365 41.34936011221565 0 0 -1
2843 1 28.849390916923557 33.371168297199205 39.24600204730598 0 0 0
3131 1 32.38853813556059 33.56044024726488 39.33141509022789 0 0 0
3419 1 35.59390297570144 33.53958311399326 39.05581135251623 0 0 0
3707 2 38.98469707227318 33.560866972022055 39.21707801368868 0 0 0
3314 1 35.82054935721361 22.29055697926653 41.43349893713577 0 0 -1
3386 2 35.51219015415895 31.33936131990398 41.40724886442864 0 0 -1
3995 1 42.48472783074455 33.56392100582552 39.04882846079202 0 0 0
3168 1 30.655960070710833 35.6313912146926 39.14556365642598 0 0 0
2879 2 29.107771823960654 38.041521866186464 39.283380684614684 0 0 0
3167 1 32.2232071385267 38.068471120007416 39.2322512337182 0 0 0
3456 1 34.0669348836671 35.98061685769196 39.28678811571349 0 0 0
3637 1 37.50949340869069 24.532302276733716 41.181949104002385 0 0 -1
2774 1 29.129618211886786 26.705444333261816 41.37677708970256 0 0 -1
3962 1 42.339431122455885 31.31358205464999 41.347469399399245 0 0 -1
3673 1 37.414159726720996 29.07197844319153 41.345364486712526 0 0 -1
180 1 44.00998121815447 22.16749613521876 39.13402447013354 -1 0 0
3026 1 32.46534359538726 22.081939717719404 41.255558711907895 0 0 -1
3350 1 35.79094960733512 26.707535015821357 41.38168546097266 0 0 -1
3422 1 35.89644206531692 35.90594748890904 41.42125393994914 0 0 -1
3134 2 32.19686623782423 35.859132371198896 41.37576372420912 0 0 -1
3961 1 40.78451547865945 29.01782945896366 41.39271982601112 0 0 -1
3997 1 40.88633385538297 33.64685193121527 41.310252787702055 0 0 -1
3421 1 34.10035379342828 33.63765463176483 41.384387034479076 0 0 -1
3710 1 39.124803227210464 35.8060417889883 41.41984920853683 0 0 -1
176 1 44.14336403159544 22.25219226428666 34.486129382051956 -1 0 0
213 1 44.11384142284132 24.35086773148136 36.755577174914166 -1 0 0
3998 1 42.33570999908513 35.82509453280146 41.43866575873232 0 0 -1

Velocities

38 0.8950543172471225 3.2229756403664074 0.9078736529307946
37 2.2355720719422534 -0.7830121820679425 -4.481658290322007
292 -3.364130636337582 0.19351394362737853 -0.500562309636037
580 2.687715099747143 1.6803311446718938 0.40872923279782175
868 -1.7722679587700274 -1.0581919514005758 -2.7876586409550135
1156 2.6140644130800896 0.4069319809946901 1.1871274928351971
938 1.4736825661689343 -4.339562621056923 -1.8159498207965274
3 -2.9508741858183165 -3.4913306348117716 1.3230494913140738
578 -2.125003942305184 0.5884685286362682 0.3041005385382598
291 1.845626371599102 1.3718566074260692 0.6520299074262986
579 -0.6793243979817546 0.7020179263242189 -1.2195927937930215
867 -1.1654921207104831 -0.8803554717922576 3.6887587876414147
1155 -0.08945168850326687 -1.2505938419992022 0.2925522362183985
39 3.8791232319004 -0.3067599427377284 0.38302928586161655
113 -2.8126909526396693 -0.9430535091703586 -2.5176581164847005
328 0.2910059867055672 4.830505539336879 1.021362894789287
327 0.227935344523938 3.043923694315667 -0.18739027921508042
1009 -6.7771492350653375 -3.7466541167727523 2.0703056791757706
112 -0.7442118760081539 -0.04109413044454751 -2.8982313760974563
361 4.12499157054094 2.6222016274784976 -2.442747239480245
616 -5.103856360211518 -0.906238946052468 0.6331912121822982
615 3.833062705710595 0.0949852442540361 -3.2838746404277206
116 0.07370135983356545 4.699328933675575 -2.257151638470363
904 -1.8500547009211308 2.5446425491460176 2.0067856576775758
903 -0.22293521740818892 -2.2359037769997214 3.621381611648365
77 1.103329092168637 -4.086595890570347 0.6163827382950425
1192 -1.2137959001533019 -0.7592041236904737 1.944834147571784
1191 2.1096483511117925 1.4008258466129435 3.576901294086199
364 1.6693850771174863 2.5567055280556388 -4.997065158851091
652 -2.9037894586226884 1.7523089081711072 -0.40953260515159173
940 -0.1510139657100897 0.07237002390837277 -1.3307261427166335
1228 -1.5957352318395477 0.8550658630419259 0.052528263017904996
75 2.8406546083339994 2.1802488350375127 -0.4348839018410358
363 1.8208288018937653 0.5639088152367818 -1.6745607887990912
651 -1.5438757539310402 -3.991791264769829 0.20522122637456802
902 -0.9465098499225209 1.0019254208705712 0.5225344347399259
939 -2.65526242298111 -0.4365189084444952 -2.859190294189572
1227 -2.305707400932822 1.7433165178136987 -2.702778894638335
1301 -3.515929088868722 0.31564821388334324 1.796647228240581
111 1.0582534961285184 -0.43169426494700175 0.749719280660517
80 3.3062641601974376 3.378279712472463 -1.0658217090289803
978 -2.6489733814767287 0.08081424668728428 0.0016338194868747082
400 -0.5904855012189151 1.1162986984883394 -0.9219577520265377
399 0.19496179812086098 3.0317259688497042 -5.510494696476294
688 -3.8134407442872797 -2.1179561373051294 4.664107526723192
687 -1.665701178507577 1.047254260664565 1.2320460687685215
1268 -4.905212894275032 0.4297397235791025 0.7393487573407461
979 4.365750079437897 1.9909991104245264 -1.7402779609016439
975 3.2102355838753533 -0.5921008659132047 0.7921380405365002
976 2.369853523761818 0.3097073704302806 1.6912227271822362
1266 -0.16567053527917514 1.758890251396387 -0.6483825462225007
1264 -1.7721746335528195 -2.48827177484882 -3.474161447705506
1263 5.451543879973598 2.037249760332005 1.661622373146147
6 -6.3033130195763025 -4.980763411520399 -1.234274578375911
296 0.5379192811904752 3.169494029254146 -4.349321964740283
294 0.712613628963578 3.0362525835638143 1.9175858300644721
584 -2.644501843854407 2.0399614796151933 -0.3469796803003769
582 -5.3767164948537545 1.3582855671773828 1.265902936727343
872 -0.7033090544379502 0.7895023975790287 -1.3558815317081228
870 2.627716115491441 4.553696367631712 2.173631888057149
1158 2.2026729592098873 1.7630801143259986 -2.907052695118792
1160 3.0885557546080014 4.651826678184564 5.920159690492229
76 0.2146385297789919 5.493366178085505 -1.1241734697657122
7 1.7986603354537007 -0.6534094780027183 0.060312976501872125
329 -5.748129759119611 2.7832150783094414 3.3604904659402863
295 0.24093491482587495 -2.1702850599018655 1.4970023143637956
617 -1.3799978250726987 1.8652521520471381 1.2545749996676718
583 -1.594591012142008 0.7287616437605945 3.6593186581149295
905 -0.6710563545300591 -3.0183032216345715 -1.3154963905844028
871 -1.0997278006282993 1.4163810263329069 1.3948939358696197
1159 -5.0797894252772995 1.5850044377548225 2.0076458082988133
1193 -2.2859156220859185 -2.833037006640555 0.4878723621559422
1267 3.8234128892097625 -0.8410642692457916 1.920726698365899
42 1.5815269315869092 -0.4203422703890924 1.2999820032926017
43 2.2041844630842884 -0.95163689534826 2.5439350998153976
332 1.3815067249003712 0.8937613879934351 3.200677219647335
330 -4.99689002151293 0.02334547164596967 4.284753961554123
331 -1.7463077911539562 1.8111232229022212 0.5003835221570051
365 -0.24732176324333432 -2.6104759699991766 0.2009022373258476
620 3.0517860932507976 5.024296295896814 0.8814675507206996
618 3.0047035885548725 2.4518016250217194 -0.48142836160414176
619 0.041035467829172285 -2.695630721196868 1.1669596776486473
653 3.854639743128251 1.5155114316514353 3.547961689622315
908 -1.0801832512794716 4.558632239114561 -1.7009355323560982
906 1.4472887670461891 -1.4179673710832528 -2.9790084421958363
907 1.9637128704569053 1.2811839709212887 2.082325584873653
941 0.5045389045504252 -5.55122361247271 0.2441323358770863
1196 0.12823797751377886 -0.7298380566445241 0.830129642455617
1194 -0.8408131984409477 -0.24951999008707582 -2.871165168278743
1195 0.5925248810722838 -0.8661518919650992 -0.2442878185083749
1229 0.033714734379204546 2.213194295231653 -2.8192407896312828
78 -0.5398173856601086 -0.972434076613412 -0.2456876726707054
368 -2.7985275081973855 2.496182360122715 2.889314593254196
366 3.649603708499437 1.0482650545772343 1.5807919088242808
656 1.123975931015595 0.24118783465672924 -7.669398249288645
654 -2.8391603520168203 -1.6030073383278622 -0.15129921376089486
944 -0.6375921842892321 -1.8386927293082405 5.624997933000346
942 -0.9592735183372321 3.3811535002322652 -0.5342493405636045
1230 1.8567973878960276 -0.7100256932191509 -2.85724900697175
1232 -0.022085329232398476 -1.366261558049036 -2.7811563390505984
79 4.491000325142027 0.37079526559874276 -0.4024943818636874
401 -1.3630546630327838 -0.5227733884614901 0.020372476029899545
367 -2.625013922685877 1.8050048821245301 -0.5375878046997962
655 -4.263439761702105 -5.183687891113334 1.140141806756039
689 5.721785216179677 2.7883800221163275 -1.49009266416875
977 5.59118660514863 1.2094444357415655 -2.568103657284345
943 -2.8725201005716516 -4.1890134002575525 -0.7130438250172962
1265 -1.09314296459012 -0.6161214660917921 -0.4672858657098586
1231 -0.569135326751918 -0.7628393954200487 -0.8083900229560259
115 1.9960862651206586 -2.504592764330394 0.23994370339470292
114 0.48620049613752625 -0.9079752472987921 -0.8823276902928919
402 0.8783493858405494 1.7233570988019604 1.7468394069068864
403 -0.8804047629339516 -4.390959591892452 0.06664084990167779
437 2.120019951388144 4.2536530901672585 -4.467901423225254
404 -0.24391092809683465 -1.2671778682571697 -1.7655609722514476
691 0.5708714251492749 1.65582975963085 -1.4023725155099818
692 -1.7722325823226388 1.6188906761010813 1.439650635004877
725 -0.8310392688800343 -2.4042669100505587 3.560523664770269
690 0.4419030626438145 -0.606038536723085 -0.6500251711667786
980 -0.5030541291555233 2.232398699386072 -2.59837625003909
1013 -1.6436367075285039 -5.763977382323262 4.87213233423828
1189 1.5255651325087334 -0.7553546273438052 -0.8827721562231617
1154 0.024361903104668323 -1.5807345207073986 -2.847959212492477
325 0.042721937363177157 2.819979608253019 1.0292031421008803
109 0.9770970702121833 3.7415012735673567 -2.3089920825009167
290 3.654993527317511 0.8043937307523299 0.2478901020429499
613 1.1585270995769652 1.470115731033327 2.5053960025066653
866 0.34261153070965167 1.7304152145389242 -0.1552021351674734
40 -1.0751247859539188 -0.8649916150076946 -0.4148140024130458
41 -0.9831023461018397 -1.5573584883375715 -0.7131451698172507
2 1.302168785218239 -1.3563489772741668 -0.6480773662466461
686 4.842940889502547 0.022181751216387473 -1.1734465339497697
974 -4.724599403893335 -1.135991471965196 0.054284420150055475
326 1.2543428632289757 -0.8571796354999001 2.484739091313511
973 -0.16951042854223689 -1.8027717112432775 2.0451780293141772
10 0.23222233189466154 -0.539329210852889 2.6415583542895242
49 -0.7576374483865019 4.15774572841563 -1.3736041275166881
300 2.111787122439299 -3.5266000780563256 -0.3190135963105269
298 1.5298609322813996 -1.352449943163486 4.45518987770818
588 -1.183859696226469 1.0999685602547709 -2.174992422373265
586 1.6162118407864705 -1.9434438270601304 2.299165087277585
876 -0.49904552897629084 0.15822451519523625 1.950858891269212
874 4.121286713647553 1.32579903707874 -6.491655023406651
1164 0.7852374884972604 -3.9169230562389985 2.321908903774297
1162 4.152214090542159 -3.053765172192728 -2.4828098322641092
11 2.010296761862857 -0.5357475304208139 -5.502608143997581
1276 0.8632068674947307 -2.535993444928059 3.149384044073245
333 1.8145372555533212 1.862063685117805 1.4289637854719115
299 -3.890131279921736 1.2406467215721966 1.3584037246626302
621 -0.7545957332268374 -0.7423555470607708 0.8170631404254848
587 -1.0072204382789711 -2.555755642838199 -3.306294285755886
909 1.246047148847186 -4.0396917845411116 0.9051929198925891
875 1.9715783702377547 -1.5369941066019213 2.585269561467785
1163 -0.35933402856119806 0.7710007065304769 0.2807087376206445
1197 1.2763691342308814 -0.9550625465586888 -5.754806201211771
46 -0.28226061631087845 3.106575372003675 2.677187154288542
47 -3.235568077567495 -2.7757011787657873 1.1794492145582776
336 3.822878797974388 -2.115552051159231 2.287839047630972
369 -2.2876073986301146 -1.3493519006240322 -1.2474390733128282
334 -1.8709721389487406 3.6498890098902796 -3.873209404444363
335 1.5801173598097606 -2.955681265076682 -0.42978194490194793
624 -4.940731031044977 3.0913072354704703 -3.0833792760374332
622 1.455928583186642 -0.6959409025699463 3.8447872607510725
623 0.1295958984458497 -1.1474986772756528 0.12419037677208324
657 -1.384543092613455 3.7243811137099483 1.1192787357837304
912 -0.5919575450376411 -3.2208343162360817 0.12297661706265585
910 1.0229391766964826 1.765792550031183 4.829370822593724
911 4.488790962596684 -1.9936734744086655 4.138833518455514
945 -4.603915711327428 -1.117919724056843 -0.28644131816807844
1200 0.6951017140923234 -0.7228896983466195 -5.510481739845788
1198 -2.168290329222301 1.7377909421596347 -3.2342682335558997
1199 -2.193962962306506 2.7634475750479606 -0.849359386335513
1233 -0.45133343275524274 -0.9099695926723779 2.72911757341672
82 -2.8230397812256034 4.219149303418018 -1.9634541325809416
372 2.349888091163888 -0.9409512636352463 -0.6119638571145807
370 -0.45336628332866236 4.878247160687707 -1.7282856512314053
660 -2.6740097864603034 0.09812716395710534 -1.4641725703282635
658 3.1380316888247486 0.7855244907414011 -1.8127354523745045
948 2.1301813110632426 3.1594880585960388 2.0506236637380644
946 3.2007325200206798 -1.352808404276538 -0.7772580322874694
1234 3.541724082977463 0.9993182448140162 -0.4115204440778051
1236 -5.4234521013501595 -3.1247888395330405 -0.7063880641601716
83 -0.11446132936722667 2.8822382379805966 0.6300796600378679
1274 5.232649246235999 -0.9682522379737662 -0.8198923419327444
405 0.42513573864225307 -1.990304742432034 -4.9603930573174795
371 1.8152884257104527 -0.47597778789237316 -1.6017966122796843
693 -0.02183350454842913 -2.0148890263905264 -0.22102450815889976
659 0.04632890013307989 3.243052680650887 2.0382765953286226
981 -2.9339371312070908 -0.6931559809211885 -6.147585853381585
947 -0.4667298437313575 -2.9624887931993826 1.3388535128817307
1235 1.3690867357583294 2.181023216354678 2.4926950266033048
1269 -3.873512305805471 0.3309614572365019 0.2568621490715765
118 -1.839996818859267 3.0120886827609876 2.675482005614852
119 1.3712514747559978 1.0978190018524776 0.3759218738649841
12 3.403422882252346 0.254076137890569 1.5350443749629743
408 2.9069232771200357 -2.371102923297588 1.8134648044405126
441 2.077282515840131 -1.3682461193472226 -2.348523622378055
406 -4.2205673323253325 1.2725872554417546 2.1157580756768155
407 1.11483084811872 6.195443894198727 -3.6578024752245386
696 -2.701236972117875 -1.1746864606298872 2.3289689067511703
694 -2.7334307472831814 0.42164330717784576 -2.137425134195475
695 0.938815043220705 3.856501766441805 2.209299526027541
729 -1.6782679745435123 -1.7863010770278662 1.8801172186422224
1017 -0.403731031980914 -1.8375333905980886 -0.2796456158789551
984 2.245340652302792 -6.051677554982607 -1.1713173007505666
982 1.9512239782803966 0.10690881785631638 1.6049449007070609
983 -3.0111088912857955 0.5297812734742994 -1.3236374205443524
1305 -4.264259233394275 0.7452599515090862 0.046460774098765416
1272 0.978334982928589 -1.502651712879507 -1.0889631571504266
1270 4.750877530936726 -0.46678850273954303 -2.9719675847426705
1271 -2.9031544216080976 0.5844955082442266 -2.584225712702673
14 -2.8035656321878846 -1.4084644622669618 0.24111683174486354
986 2.763628927508558 4.0516158316299995 2.006749436686691
304 0.044256297634057425 -0.6572710659355654 -0.06534532762506258
302 0.7219491805412769 0.25536625645583555 -2.841747366550335
592 -0.4966609155924251 -3.6974320522987667 -0.26926031872696427
590 -0.7129713968318809 2.9063123674375904 -0.4994412672417347
880 0.4006788688553876 -2.4055580948508553 -5.747741745446428
878 -3.3875557827786 -2.942123277583667 1.1625998657929075
1166 1.1578792483753941 1.0064303172056952 -1.961708885793186
1168 -4.269901412691694 -2.3125553031902237 -3.449389694597671
15 0.445288149007685 0.4580140006658646 0.8501674744848488
1309 1.6888808907599393 -3.892425022644828 -2.7343250294473105
337 -1.8466305452626819 -6.604379549249565 -3.250069580351029
303 -4.01551465861155 -1.7750524083827417 -3.328082469265457
625 1.3117760299726986 -1.7853682547673286 -4.857003945542945
591 1.2496734578821591 -0.3533867965073382 0.8903911221163269
913 -3.2009159642958553 3.3158641700411353 0.30708113043111657
879 -1.911383789607015 1.8760955564712511 -1.0234013951005956
1167 -0.3942221227723356 -4.285193144177678 0.28186850900441707
1201 0.08482972283894422 0.12757339944096102 0.3317586223828277
50 -0.4875205762130759 -0.10809694467615945 1.6126751797829124
51 -0.41769799893175363 0.336065847962398 -2.1309972928292247
85 -2.386721693904615 1.3203320196673045 0.6479493817082657
1275 -2.200975918812007 -1.19091225972588 -5.449166350139236
373 2.0815296192468464 -0.38610239725320006 2.48913156206851
340 -0.744354436661454 0.20464692806956464 -4.184313434809682
338 2.925131190425809 -2.243056220975683 -2.5150438735830827
339 1.9308745698884853 -0.4762832687686879 -0.19073963042176795
628 -1.6374031777742255 -3.048731656533875 2.003836573521905
626 4.5443117828758375 2.044542779823002 -1.34373159283083
627 3.968211035354905 -0.7849047108512108 2.4461926676088925
661 2.0011110461028454 0.9539336761068351 -3.4799136697996307
916 -0.7568462483410517 0.021240426164386147 -0.08062963818702941
915 7.588036432958503 1.5226314459500538 -3.8400651654795115
914 -1.1872420282014196 -0.00010889027594170469 0.7950159597401185
949 3.388875643621238 -2.7887544634666988 0.029610533644968733
1204 -2.5441700380946153 5.557232617567206 0.17300588723548505
1202 3.757172640655733 4.754285624866814 2.240034177576053
1203 0.0008964398338668222 -1.457437747028216 -2.597343943982081
1237 -0.3879230144539604 -1.3874783640868318 -1.6573990984131786
86 0.4220676907068629 -0.7905647466310289 -1.9508134360980678
376 1.118140979000047 1.0222949824151932 -1.313207573869561
374 -0.6027873823528886 5.731158702459717 0.711677699796864
664 0.9524363806693059 -4.618108568105643 0.41627250531812793
662 3.313605271077614 -1.9260184035156795 -0.7988521895058526
952 -1.5807576398800107 -3.2411134611671057 -0.8807658818761137
950 0.8864783880559477 -2.5890996393713346 -4.018042468216042
1238 4.464473488742768 2.854647591817341 -0.25778110549966005
1240 -1.663442852018895 -1.709829374431441 -4.6566672893371495
87 1.3216203384193188 1.9190054479258662 1.3921666533685242
409 2.418196580520626 2.7003895819931096 3.6096975780372285
375 1.3607176471853748 -0.3908163103297952 0.24840414149307083
697 0.8257319010379743 -4.5492640995504585 1.7797936840793622
663 1.2386698792713016 1.061406577740305 0.6311992778542154
985 0.47510421418814663 3.350564913743051 2.006929860261445
951 3.2141220286404835 -1.9106399486490873 -1.3602741265132325
1239 -0.31396270917764896 2.430295112062142 1.1508688390627826
1273 -0.9674526959248902 -0.43813508508158533 -2.0893616233070382
48 -0.02817484665568556 -2.316935856634655 -0.5831735238970456
988 -1.5389047158078248 -0.5326901447082868 5.792323725361869
122 5.459779125739532 -3.4717243729078118 -0.9254863784534947
123 0.022970413138752657 -1.123775131079129 0.3599417003388216
445 -0.46676041530812035 5.462641069992784 0.007632100466579715
412 0.36109574423406343 1.2940676449164161 -0.37158180317085393
411 5.440801370101217 -0.1235292616379265 3.1490061500792055
410 1.876663600198576 1.2443723656788492 2.043904624448427
699 2.764964617399198 2.5112702494418517 1.307573630948759
733 -4.736588562190792 0.44027998816984876 2.173607691079124
700 3.45826324125066 0.5224348462671644 0.9509205551288483
698 -0.24425301714496278 -3.024818378225338 2.8651176130996903
987 -2.502320843146095 -2.2406464664567682 0.8349595053732791
1021 -2.1511034353155063 4.260701747756547 5.5727769442485835
88 -2.068748928069537 -0.9174020946239436 2.6361273256164024
120 1.1980284258777518 -1.8346895867257247 -0.11193893698540137
157 -1.802804248444131 -1.8031761525698742 -0.10968166031668761
153 -0.09346036420314288 -5.800169125964335 -2.502802540077619
18 -5.456263976728917 5.089280798777153 -3.6848838788245697
306 2.6325243603055233 4.0991263703963785 -1.4962514018801212
308 -0.4230973296783912 -1.4300195303747516 -0.6364373212127711
594 0.1531462698406197 0.5375935720234231 1.9040784795848138
596 2.1714750307583492 0.3905878506528729 -1.70149910028318
882 -0.7767848714381108 -0.5794150764720825 1.0775360928159454
884 -2.042200684910662 1.9215472529122166 0.7203909354145379
1170 -1.495140738156695 3.6738905735361733 4.914867335783515
1282 4.4169841311884745 -1.8962484463213396 -0.8912931814881164
341 1.3996393133324603 -2.2833776549952365 3.344676564978091
307 -3.424108121599069 -1.6505190131718182 -2.46449757937708
629 3.4913042565170467 -1.4283526629635963 2.958625024931606
595 1.4803757540598432 -1.0154196058849316 -1.9262457845910828
917 -0.5638329771257831 0.545357313379357 1.80908818560996
883 -0.9333017208966681 -1.3013553443984571 -0.9765278441023869
1205 -0.7287019385486617 1.1840102895600286 1.9810265652333694
54 0.716014249739698 2.350785223579698 -0.2898987811840635
1317 -4.054183885346547 -1.8130172764389907 -1.4530724489561757
342 3.0585348844285147 1.6421951515552373 2.2091799302376933
377 1.716594590315071 -3.260402955387144 0.0873308672337354
343 3.050289736704572 4.025203374600776 1.1391218012220257
630 3.026873502543363 2.501227191432564 -1.721267047027892
665 0.5214710535713768 0.14583664627837484 2.2713204532529265
631 1.815145880691405 -0.5552847588362112 2.5101271190838856
632 1.0870936769508701 -0.2608181599741527 0.10613206228510783
918 3.8999978353739455 1.4749256353947644 0.22641336707598977
953 2.8354817719035044 2.546708817898995 -4.279846518755925
919 -3.3174907006222494 1.8002619914294389 0.6613887490739829
1206 -0.007077757567393498 -1.4549940914209227 2.8384765876203977
1241 3.1760251661457235 -0.09316993822145511 2.2523054209810196
1208 -0.6274135044487413 -0.8710805266634497 0.456689613868055
90 -2.536317073172792 -0.8100430563368015 -1.2482584443988096
378 -1.4522714617820771 -3.0897869466876116 3.8351403425282355
380 -4.780232737077478 -0.2702228032841467 3.7581122697716887
666 -0.5806814432932148 -1.2463841806001916 -2.0746811123124056
954 3.6116260224570036 1.452234514280369 -0.4634017573582403
956 2.6800039175876895 -2.578362944170751 -3.160052486059291
1242 -1.7130425417711796 -0.14085414053143183 -1.4498703184847739
1244 1.445788776023012 -1.9161651260683168 1.5139825241899756
89 -1.123885492313512 -1.4923431815672425 -4.882056210329478
413 -1.590886717867003 -1.8974635192847125 2.989165507950711
701 2.2659666905654334 -2.1165355658267657 -2.3492446403559084
989 1.793717877958794 1.632358136886842 -2.548005357786529
1277 -5.99650036236821 1.8301605351541526 2.5418933913025783
1243 2.324545179605052 -2.7442724598986405 0.21140265443931772
126 3.3642078948656744 -0.14864750351751618 0.9849223417575067
1029 -3.9024232432129757 -0.10428245371543515 -1.735334736724792
414 3.201571113118696 0.42421084513350626 -3.1361932443930036
449 -3.4188719214263843 1.2414326124741906 -1.4366949474746242
702 -1.9101428560287923 -1.5618981641359806 1.8166105791065639
737 2.884504128671053 0.740510989240384 -1.7495817499935753
704 2.9501943799761743 -0.4595623912541276 1.8215806414862519
1025 1.4682779944906863 1.7536825686189759 -0.3774268457723628
990 0.5635593751307822 -0.28674097169220186 3.2055108826787433
1278 -0.16413051758928657 8.185617849097007 -0.8371189668093241
1313 -1.7127409815894197 2.954021718001829 0.5361378365855187
1279 -1.3732006123178735 -1.680166050885904 0.34185979481198026
1280 2.0262692946079195 -0.06887255172874002 0.7862443652982257
22 -1.2362504616976782 0.7869326273228131 -1.4333694298456294
310 1.6298325766250086 -0.3655360458866567 0.34101182952940906
598 1.1384283374476074 4.950518378904318 2.0890400363803816
886 -0.1560691763505869 1.333664062144492 -1.2766532104912462
1172 -0.32803870112019173 3.6028641328039392 0.1552867378406325
1174 2.331010946492865 3.8352897395077385 -3.956375818182214
19 2.101447508346584 0.26933766837307443 0.7258609290472697
345 -4.718392351824826 -1.3884513550709692 -0.3368177831051118
633 1.7447543548876625 0.8131056286811276 1.47425301154397
921 2.9164382947583523 1.6624433370060567 1.6635411907078512
1171 -0.12313834845750954 0.3743211274306089 0.12360085130003366
1209 -1.9889031933584311 0.9352584694867092 2.64108988641763
55 1.0782225094713653 1.4623287013581006 0.9840653516061142
58 -5.180618619989135 -1.7562791870723566 -1.3011337648768175
991 -1.0547909007665954 0.1455736595880764 -2.0479560056362955
344 1.3436036138661174 -1.3990347890286692 -1.7458895852820835
346 0.8915573550844663 1.27969962861604 -0.04925416083954183
381 0.0044533556427601845 -0.9477129280361278 -2.476715981140048
634 -4.6028316850688205 5.615463436256759 -2.4305309756631197
669 -0.3155613225489402 -2.6396395640394705 2.6800929136354488
920 9.517904431413339 3.012319050084904 2.3122595672602433
922 0.14047523989594068 -1.511603492912265 0.9204573368211516
957 -4.422309565636178 -1.5454149566432642 -2.366875968923445
1207 2.646599313900031 -0.2477278733980688 -1.3629213762726236
1210 2.5212885866621857 -2.314984825121074 -0.566353315422464
1245 -3.9831811883744765 0.011327363387433821 -2.396151671165301
94 2.71431423470674 0.279721167549102 -0.03560912266783025
382 -2.065959559971831 0.39229111159774643 3.48289523377548
668 -3.273290137257421 5.239440628226746 4.469768193133023
670 0.567357433123615 1.6333334875623722 -0.3719382916798921
958 -2.317653367081422 -1.7621439664799012 3.8487465938841185
1246 -1.7960475170783983 3.0238453526016724 -3.3106269421821266
91 0.5192960090781482 -1.5972673651435947 -0.27334874858854197
379 -0.6780530170529303 -0.0035971879345887627 -1.1934461019436111
417 -0.748955693856864 1.757388076027235 -3.151394629068094
667 -2.0324963034118806 -1.2881890483449934 -4.158810146819203
705 -2.3159375240709092 0.1722683941870301 3.034250397196523
955 0.211838822252129 1.4817707578888777 0.752708267136417
993 -2.083924824714257 -2.462457886530229 1.7560602616378687
1281 -0.6462331991193406 -0.35108622654483296 -1.3754765638554687
127 -0.3699853662041165 1.1415953820334876 -0.17275575132032925
130 -2.7621279136044268 -2.7062068054377 0.6287366723654073
415 -0.022341598099220324 -1.383019623465471 -2.2411737036871
416 2.0445556610997855 -0.032342385025815844 -1.5318573309364332
453 -1.6179682055997116 4.265441157354839 -1.8553259190407847
418 1.5767500698938426 -0.5487302348849487 8.36393491897443
703 0.8131771497436767 0.7175127646846111 3.100585232715741
706 -0.3668163764519445 -1.3018246020568467 -0.03944691879095163
741 2.11471615310337 -0.4773828737115791 -0.04032240432316716
994 6.654141604526205 -6.795158926202719 1.937253174543047
992 0.41704206062408095 -1.054818495697726 -1.6043336078209764
93 0.7519558923918168 -3.414485062211202 10.849791202154345
20 3.544710428500156 0.24489046138881873 4.872258218932671
26 -4.21255630858813 -1.9777936930588897 -1.9191110376352472
1037 -0.4857495007415864 2.2007080367292753 3.459939677937599
312 -5.131880461648842 -3.3816435663039077 1.436099693848042
314 0.19325380698504768 1.0515779585216085 -0.11626785103864155
600 -0.645435413176905 -1.9194061648059029 2.5299510816494264
602 -1.2097904387107044 1.077376475071066 3.5742588365292316
888 -2.6184551041027757 2.9066479477333442 4.109010080743835
890 2.673207623073353 0.7033098693235568 4.141897400511976
1176 1.8754834794785074 -0.7864594674044517 -2.8913074493859194
1178 -0.31701095784597355 -0.15820050179543085 2.305281701050041
23 1.6550449270525183 3.9426940009931934 1.4381225357648477
1325 0.045463027565604705 1.302967792163756 2.2420788664291837
349 -3.038416552005356 -5.446012993415881 -1.3891623860507705
311 -0.33829755865349986 -0.09860976246507798 -1.699464233116962
637 3.438959762874928 3.2111299530255324 -1.3138979020327275
599 -1.0643629473922183 3.1576039258677118 -0.8246150926455557
925 4.817921118116698 -0.3020971713921385 4.464281724394682
887 -1.9016244412814323 -1.377174834113469 -2.5486815695875262
1175 -1.7833551915665957 2.0781363247955396 0.10765875141699428
1213 -0.15594159071761143 1.368823090068489 2.786495308995712
62 3.1444603310980366 -5.276941130947868 0.49587395980074056
59 1.210267807045778 -5.825813044045201 3.77514122079414
385 2.4383827985475968 1.9675133699216625 -3.471446280375008
348 2.699352642865216 -1.3989124509708195 -0.3005787857824801
350 -2.011774059421843 1.0032877895850694 4.17203378536594
347 -7.176400471704786 0.9195521921128613 1.6828895973729985
636 0.6972379405646191 0.3685223597718978 5.505287731421131
673 -2.993214790834499 1.4963532998454445 1.1174099847552788
638 4.919919285669923 -1.543807600954611 -0.6438185034744941
635 2.975249625298721 -3.4785954714130827 3.1889170841399164
924 0.3266140504793304 -2.088276194707535 -0.5806842132027127
923 6.404993256220587 -1.6306349213049884 -0.0547571181052582
926 -0.7892683183319691 3.2278566578680894 0.6983588143123852
961 -2.759161682133872 -0.21145938363133077 3.9904399357118376
1212 1.0247046855740436 -0.2008451380895979 2.0262106427360767
1214 0.9424737200934039 -1.101662683097354 1.7823854163855546
1211 1.8669861043413478 -2.302166584153106 -1.9574789855293029
1249 -3.0079566418367505 -1.949398148211038 -0.7590838828922013
98 -0.2073520369149807 1.1922821416183582 -0.9238192100570549
1000 2.368201909024168 0.9088867759892385 1.1976864331997867
384 1.099175106681073 -0.7568424784805862 0.010212917851185598
386 -0.5999025855051591 -2.6634104089748276 3.446025259013869
672 -0.7637204531972352 -0.2862654771319671 -0.3203876564446229
674 -2.402664627168856 2.476251598828401 1.5402024584786744
960 0.3480227633385753 2.187967836193372 0.5645631451418686
962 -3.809676455806275 1.1205363736873888 1.9575684008466427
1248 -0.5246457039806657 -0.7425819286901301 -0.24956388328925
1250 2.717498162883412 3.462230925842666 3.1413363922767688
95 -1.0718170090787655 -2.286425327869237 -0.05940198758945951
1290 -0.10508356929237564 2.0953744168480632 -4.506142982285435
421 -2.1789041012250396 -3.3030222599525603 0.0015253755839059599
383 -0.8461687020046433 4.331511267050445 -1.25221962718521
709 1.3376578324373014 -1.7693251780696855 -2.8331788283264467
671 -3.8531927202005147 4.490615409108481 1.624469179251818
997 -0.5721308993225915 1.7527146032251064 2.6369072327032046
959 0.18799442458621646 0.720937222683148 1.3383882040775426
1247 1.9333676266105777 0.33423090242831877 -0.008896848719054981
1285 0.799735268887231 -0.3020855125531147 -2.158608532209527
131 3.517082640662767 2.2699861114345206 -1.721420563157055
134 1.5227483862539297 1.3936022072123893 -2.0918341908361757
999 -1.1621442512342528 1.8225100899523607 -2.8798999783598918
457 -1.0768938945687843 -0.09672943930524386 3.273349892665117
420 -1.2756717863156193 0.7761640772995928 -1.0488114567429467
419 1.8109134588179645 -2.5106473370974847 3.005616010649391
422 -1.6296045207095795 -0.8628120128558056 1.8588179473362478
708 -1.5162655744122844 0.7929997866944116 -3.185192166060158
710 -3.8300664167399994 -4.345818510404202 -0.5506154249677265
707 -1.9221833625785811 2.4580868313428472 -1.6767585754677896
745 -2.740742651944698 1.1897257668649064 2.070045449562444
995 -4.502189199746656 -2.7524175288203443 1.7956381449801662
996 -5.12474809502372 0.5443555536715824 0.8607847954005708
998 0.03987781630689581 -2.5674695972046377 -1.15833065814569
1033 2.11245051406237 0.3516287900948416 -1.4048461785887025
1284 0.3323816306263068 -0.03410653669025437 0.2531538261853691
1286 0.2028073380223897 0.06632757421231568 3.3883568965680326
1283 -4.399522894297893 -3.513157824158877 1.105491957308982
1321 -2.4139559390541803 -1.6256992986969965 -2.811170601685509
30 1.4686001306248908 -0.8603789785194067 1.046098660956735
61 1.0767942726698598 0.20754573944198618 0.695321084477522
316 -3.6878469564335696 -5.115812516320059 0.6496699356349913
318 5.920686090633174 -2.540687701666923 0.4523335190426833
604 -0.9150755614176476 -2.3410786141170363 -2.3322187849758245
606 -5.19300904418697 -2.9393604011386993 -0.18538747298218156
892 -1.623901247335233 4.992030611561103 -0.3896667058529179
894 3.3832496878650824 2.5515432319745392 0.49120085693003906
1180 -1.1993741297530747 1.253913398237122 -4.092382000503852
1182 1.6286208836711544 -2.470995481222563 0.02324183647796835
27 0.08378965994807366 3.9117502780008704 -6.458920553985602
353 -2.4692643750924894 -2.3349866073862198 -1.8549666066843231
315 -0.5939626151742603 2.1495503686804684 -1.159783461143495
641 -2.210356228972635 -0.3398368638331973 -0.6560684770025694
603 0.090099297290411 -1.5940820897020478 -4.414688576311984
929 2.7479787823646804 -4.290335463943137 1.9397510518896226
891 0.6547032168436512 0.5884960730163955 0.1464044388141507
1179 2.509418180350332 1.9382809933804075 0.655598213727796
1217 0.06709864663981498 0.8993018911629029 1.4533973113454357
66 -1.0334759516908043 1.4801077097896989 -0.4242134221989524
63 2.6034048296543335 -0.33274264359930783 -0.6958796799139358
352 2.348673836274059 -1.7280164084003797 0.7112304054625317
389 -1.5839512106548337 -1.2349522121014298 -0.865772962390492
354 0.05842299900599987 -3.6771730635911326 -1.6981589308018068
351 -0.8446380898933717 1.0092904956844495 -4.143297874317349
640 1.8807568104087211 -3.8608772912101266 1.8705907055261437
642 1.9873006106339752 -3.1142341160050924 6.891679986975926
639 0.45884100240880726 0.13833908563322464 1.6630601093644186
677 -1.6163099210044265 0.736815997960397 -1.8128063167161605
928 0.05974408051951592 1.095799767231465 2.392870276345425
927 -6.242232839514868 -1.9638265310270715 1.4224207703492517
930 -0.13236258572212709 -0.8479230889383063 0.6228710916282724
965 0.24263010658609444 2.9188873109505407 -1.3001982688979976
1216 -3.1743908582313263 4.0329850101259686 1.2103994248890493
1218 4.538453143615084 3.6688069384884607 -0.7382535864597279
1215 -2.388309289945002 -4.095512543834019 3.219029473562622
1253 -0.5568916075790021 0.6553166835024167 -1.9439380217084645
102 -0.18312870221571975 -1.020549639805745 -1.3464064512044667
1288 -1.9098601079579527 2.0237866729400995 -3.5617540186243093
388 -0.6600081677046248 -3.6166467653471432 -1.9303108931884438
390 -0.6338100608206492 -4.028612355560359 4.810440294639385
676 1.1785807697905728 -5.885392703357979 1.564512832430709
678 1.801539193908127 0.4247824507394786 1.3419305479213466
964 -3.4222265649462726 -1.143649710589335 -0.7491960465927877
966 1.6864624298440833 -2.8256613352513718 3.0736443968696006
1252 0.3984807498047259 0.03439796459498322 -2.8405828540470703
1254 -0.9837536887843189 0.3318436288817229 4.794463369396079
99 -1.5180606393995448 -3.796272423797706 -3.094416344353745
96 -0.8387720938161873 -1.9899805197865583 -1.98231117553013
425 -1.4479720634172153 1.7774339492757842 0.14315064424633522
387 2.535338277865594 0.8499155314468831 1.3333199567990934
713 -0.4978198972591503 -0.5531854201982976 0.09537057347210398
675 -4.00140161970427 1.8682568367093866 4.360558979579797
1001 0.4733128003591413 2.096791192068153 -0.9864728247671435
963 0.7568296272225759 0.7592109224495268 -3.5709316297517257
1251 -1.2325550611073608 -0.7598896756458191 -2.8019034183915674
1289 -0.6229425415554897 0.48370241767388383 5.470889906866286
135 4.6247742397045215 -0.17364227286456302 -0.10586329297568431
138 -3.5679640689368846 -1.724690477669914 -1.1698180752899268
1287 0.7422516913445275 3.303705634190278 -3.583144127461109
137 -4.047699030306296 2.672941771365085 -1.2914657997122065
461 -1.024300056583334 -2.3724179172238773 -0.514506595841528
424 -0.9640509251922723 -1.013737359039687 1.6027227832598407
426 0.8392057048221409 0.2367819280771886 -1.235161416590904
423 1.1427587052623152 -0.012975552366298014 1.07311696162251
712 -0.11699028284637811 -3.5672431675142517 -0.46770449970946726
711 -3.768910964875348 -1.0101904134808541 -0.31885498027677533
749 -1.1953982913652872 -0.3697446110476864 -0.9020874810704785
714 2.227767312033689 -5.049278614747055 0.5399831422584815
1002 3.5663882433842358 0.9401141709140804 -1.2636634998273024
136 0.6931047604545613 2.991857650826091 -2.3025265995875963
100 0.36334158776226905 1.49661650289856 -1.3615084265224076
97 -3.2138095867354655 2.292676533744699 -0.6839203521467382
101 -0.644080104272703 -1.5637734942038444 4.7970799713343
60 1.0972166344725205 2.144026656539151 0.6854606124225135
34 1.2937320008905178 -2.0795395433586807 1.0344528677943683
108 -4.804170160117478 3.0099178125020343 3.0154665015426767
320 0.3354763804936566 -1.3627228134571865 -1.5145365838292035
322 2.6887677560613272 -2.6886420230380814 0.5272068274868689
608 5.164002569840836 -2.089951519746559 -3.8754880481024694
610 -3.0272987256695165 -0.9099543827640527 -0.4895032782168389
896 -1.0026141519750411 3.298410398454952 3.228241705006392
898 2.1302094029028438 0.8708566431136041 -0.7890458501153168
1184 -1.835869250160629 1.007571481346682 -2.546106704326526
1186 -0.1755396867436471 -1.0360663754358226 3.597383176649596
31 -0.10023377620458833 4.19063620143796 -1.7981065793635809
357 -0.4980423160115577 -1.9401273926821117 0.8096959011031318
319 -1.1118432494868828 0.8040495678112901 -0.5060274705979283
645 -2.2607068533950825 -1.7982838368826293 0.009968521564483308
607 -0.8056732718068969 1.5975316669363167 3.20032693240977
933 1.0041236707957468 3.618078607498182 0.9978159804622616
895 0.5336472679595913 -0.9681643252187045 3.9783199142872943
1221 1.838166844993108 1.5347313957928737 -3.0957359742255735
1183 1.0433850191022973 -0.7040132034079671 -2.2858292927434563
70 3.6222298991116304 1.0079394858301967 -0.42588085835865125
67 1.4982704477050135 0.229494535327303 0.7945005453923334
73 2.9007209543908807 -0.7396176195445329 2.648546733020307
397 2.377483781247617 -0.8945741348536002 0.5886515289068771
356 -0.6856593122471193 1.6394489049887844 4.175745473940518
358 -1.008719878304494 -0.23169606030317924 -0.10373517694036795
355 0.5976414810151739 -1.5820820103136304 0.44482382901541645
393 -1.5938024289156425 2.872475465262292 -4.148740389889142
644 0.5100195256372012 -4.233504093923706 -0.8419471805007063
646 -4.339183653925336 -1.5254946175173483 -0.6919021718555929
643 0.34151657910798505 1.6249266662156685 3.3755236628742926
681 3.376780934761046 -3.283491716203113 -0.8111050136550942
932 -0.43877239721805156 4.770562850532864 1.4387978489531705
931 4.346276998737305 2.3277668962751923 1.4832205974420705
934 -2.270374038848249 -0.9138955010637673 -0.7862170247089788
969 -0.8563640772525297 0.8069760028496477 -0.9033190323633197
1220 1.6111483929667283 1.5695234327732508 -2.1487428167860614
1222 0.8274794475569646 -0.4512902227445898 1.6631184092418323
1219 3.4970524937394516 -0.1991019675306403 -0.3995153227552999
1257 2.0694595783221112 0.5897270920333243 2.894310411383159
106 -1.2560329730111532 3.54459300222722 3.8401044130051383
72 3.6170956108943124 -1.8367294683094126 5.616766402401055
392 1.9699119479905196 -0.33570566949335 -1.7051222827929673
394 -1.6441904530378542 1.8088017597434989 -1.5458110210025162
680 -2.3853153456387077 -0.5403166857990596 3.3200414082754124
682 -1.2467077913326259 0.033573254885383604 -0.8129942963543256
968 -1.320511436069672 -0.8458435845366971 -2.6381838716751833
970 -1.9968498550744793 0.9582422912743717 0.6547628238707149
1256 -3.206063231348757 3.282197197332595 -3.0097794564904787
1258 5.852522096936006 -7.124070804649223 -2.188609383675167
103 -0.0195853269101825 2.1823202530441708 -1.5396342122962232
141 2.810790280808795 2.259497489620297 1.9980219713957317
429 3.3001045825456568 0.8644145880194538 -2.0785607432530666
391 3.815492924544543 2.879371396428344 -1.838233583003728
717 -3.1106412396796745 -0.29981337612800585 0.5193890082013476
679 -0.6840601153135352 2.557202607401518 -2.5244234230385727
1005 -5.4385411941605915 1.5162124439315188 -1.126868048099965
967 2.7109500639632795 1.5860321851784192 1.5579014246241163
1255 -4.508118302718617 -3.4305891564517887 -0.7419811819842996
1293 2.373733135481356 0.9552070749179701 0.9733894028081889
139 1.5250661243504755 0.7353853160474005 4.724136695085554
142 2.2219976682000473 -4.4459762166459305 0.43024029595596913
1296 4.618707869205879 -1.1820479427754904 -0.11984225140706058
428 -0.5392445899882604 1.9888379634200495 2.292640664101957
427 1.1681211928666553 -0.8701992755980145 0.02097711516335184
430 -2.4968787727185977 2.396627568162644 -0.007330942217164059
465 -0.2918439493353881 -2.5750533194591765 3.6543120654331256
716 1.190036103417283 1.337137980700391 -1.3544104786821252
718 0.9245441257497469 -0.37560880274938174 1.098678505755262
715 0.12929068194954008 0.23394771244637758 2.850611189489614
753 -1.1912517552098243 -2.6289086524514933 1.8048892190664185
1041 -1.439423256372664 -0.6412958695107651 -1.5763434538216008
1004 -1.8157373416406173 -2.913668787396379 0.821084109422228
1003 -2.0529205257184153 -0.44351631134179936 -3.022733652913773
1006 0.2732113588228833 -0.2529768306528948 -3.127021818523827
1291 -1.5164333061302984 0.8315150655613075 -0.45396149305189476
1292 0.540033702148512 1.4695841658173663 2.1317778750318794
1294 2.0579378481086597 -2.909692469121476 3.7027973088867294
1329 -1.8475642412882947 0.4986580608159729 1.2545495066640064
324 0.8517675934582851 1.5401241453729952 1.3379452893387493
144 -0.25227759332385874 -1.4573394305264167 -0.519158968728466
612 -1.7311073360155325 3.193641318271926 -2.705781591982667
1262 -1.4791514912524997 -1.8209361902761116 5.37876283042761
900 -0.692219275305924 -2.2184741705140194 -2.462171254380937
683 -1.5249159843386315 -0.9356917812020221 0.5068177711868053
1188 -0.05600695281745224 0.12332337907345968 -0.804406495024083
35 -0.3073580640516654 -3.8797032633123383 1.3945931067662052
323 0.9325347309124444 1.3225113521019256 2.121170081445199
1295 -3.3042237811290547 -0.5986514036134944 -0.9110410402611657
611 -0.4121263044242715 -0.5182876809890827 -4.4974533884639065
143 0.7546258892061063 3.9083729522865833 0.7216093684396878
899 0.961951178616767 -1.6564708660512715 -6.022881570929939
431 -1.5177921362661673 -1.3157384762535735 2.036511617172401
1297 -2.7501868527858746 4.149252490955079 -0.7222397735947387
1187 3.825915322712055 -0.9337061455696162 0.29425541255148074
71 -2.4369234485686944 -1.0825964586051635 2.4808988514751595
360 0.08395168200233236 -0.6430776320407244 3.1246477172584655
359 0.0736881346895441 4.597182001799912 1.237216714021241
648 -0.12171470937153647 2.2615490645602416 0.06786468824229999
647 3.0424133727778777 -0.049544472520186816 2.187285793151139
936 -0.46756194201241147 -0.3716144529873406 0.7744605930059764
935 -5.257221508509151 1.1922054711548211 1.2110878917832089
720 1.418690044172248 2.8255460542929427 -1.8600506729642388
1224 4.970398205266406 -4.799296148657955 -1.4400031950160328
1223 -4.006507595813232 3.956723460471499 -3.8949672984123467
1259 -1.4049093810218374 -0.2867209620823102 1.0867063037695928
719 -0.5019256049424744 -2.7224674790507017 -2.04485758423043
395 -3.2741486546931964 -2.3965165296761435 -0.45583628617486954
396 -1.483561596341981 -3.1569298608787846 1.2094369837703218
1007 3.2472411941080734 4.31079330497646 1.8998682837348608
684 5.290257868969304 5.0070100042779595 4.026934651785052
432 -1.815929797791057 0.9237192037761641 -2.070468997963151
972 0.678266827371964 -2.678540828839491 -0.7660694503323039
971 2.5862900847251984 1.0429691968535364 0.33406933937072575
1260 -3.0481500992526773 -3.1804311616095515 2.1289648975518793
1008 -1.0278581142729426 -1.801130142294509 4.111720168773809
107 -1.110234465419873 -0.9814407213542359 -0.20760850423430283
614 1.882011435032561 -2.433336708935853 -0.09271438359529095
105 2.6492671662647775 -3.2637523556679033 2.1066929428588614
69 0.24928145496427412 1.0038948894490325 0.523182845792139
1261 -4.462119912612528 1.7633598394156007 1.1228698279639764
937 1.2714748081742835 1.7158275192316355 1.87443695977163
650 -3.1108566192407383 0.9092064704714696 0.5940351536060355
721 3.8320222423966457 0.42986864483011206 -0.6174925383674642
104 -0.16725820889639417 -1.1506371958887978 -0.14075404912524372
433 2.6271235420240036 -0.30450463155746893 1.6732884791028035
398 -0.5033809724823602 1.6025226985612973 -0.6280722360616126
685 -1.248078047409485 1.2865150513096713 -1.099962161467522
1225 1.9696597564067029 -2.387518155624898 -0.783681755467838
1226 -9.126996931619244 3.9935896631828345 0.6360463904118
362 -0.852773545175493 1.4580854144301714 -3.3031916962318593
110 -1.2504698187340872 -0.3200331480947849 -2.624209702969006
1190 -1.5747592723799895 -1.4672880273092024 -0.34305276755788316
901 -1.670311315585428 -2.0022786313884366 -1.621393886434303
74 0.8555315066708248 1.4177018420139564 -1.3218984698879153
649 -2.0571447127648383 1.409490127314269 -3.405204588807992
289 3.5009457770982473 -0.5835924855579617 0.5612201961747123
436 -0.03866299375570297 -1.6237071191236119 -4.240736584959404
829 2.209579655089711 -0.7286075994611255 3.419067870745438
724 -3.9844980794545104 1.2413371015618129 2.942891250185452
1118 0.22667336931965007 2.693056262703829 -2.682191027825923
1012 3.5795270420124368 6.2101905299406415 -0.9102901306087104
505 -1.283554405958077 -2.2665988180538363 7.950191095593365
1300 3.01507946367738 2.199421039109571 -2.9271527638907084
147 -0.6423505450401683 -1.9227762866878668 0.14414998311276653
435 -3.5243828339917718 2.4842278567098415 0.28698602978643317
256 1.12686386677292 -2.2400711535119675 4.172626617070948
723 0.8007102989675874 -3.702803005365097 -4.889518590852767
185 -2.158283975978007 0.7459948562121776 1.0582375605846934
1011 -1.8415138694445397 1.4859908702506288 3.2966472909336257
1412 1.554521218991305 1.7328739936712212 3.236210057346268
1299 0.5673121743940324 0.5810621084817271 3.0984987762684995
148 1.3260841867027913 -1.4272734955991742 0.8080901840489231
183 3.010980413701653 2.522671054026299 -2.7165447281462094
1157 -0.9588086968718682 -2.010146713704494 -1.8650107998799248
472 -2.194304069198507 -0.5870525046807921 -1.421627540915357
471 1.6694464807893565 -0.23878597894744663 -1.6941740523199997
760 -2.794858417952318 1.4744968583847784 -2.207604698734585
759 1.2061203610711244 0.5480059328187422 -1.284230299099447
1123 -3.1478739103646354 -0.08207621232397908 3.734655430426878
1124 -0.15332557865627403 -2.008522795346055 0.998981976349438
1048 1.5767939625101859 0.492329191486244 2.5350871455874344
1047 0.7059105384166883 -1.9995264365738765 -2.417588923423116
542 3.6647859638486957 -1.0870978390547361 5.822142319250748
1336 -3.3790746146169486 1.2215035411093853 -2.691304840175677
1335 0.6833889581223528 -0.5310300571768206 1.0319975813048137
506 0.09416873327319976 -3.677112058745907 -1.1534253975165354
258 -0.15014121738858818 -0.7646355692917841 -2.3322387223556906
508 -1.1364815043590624 0.8681782442868158 1.5734842100667048
796 0.21901075665998251 -2.7549721279486605 -2.1087721308299403
869 1.2648267995801055 -0.26709788326730627 -0.18563104324893662
1084 -0.937869368511277 0.7608907750692007 -0.13815445103140517
184 0.3524804463244264 0.15205216622602377 -1.744050623614865
1372 -0.5517335399327004 -3.0587900628315645 -0.2899047410371123
219 -3.0316439933098973 -0.6477440830576972 -1.283952640188608
507 2.0666183463454484 -2.5194076956928284 -0.7208544244780244
1122 -1.7445183793950212 2.302938654029633 1.1991921641537704
795 0.27115636993612086 -4.64452219060355 2.4277595749851244
546 -0.23191203671317212 -3.25198850848078 1.1531057973103753
1083 1.1914574014620194 3.151426335552746 -2.4203090976925346
1371 1.9152073611483544 -1.2586018143352953 -3.2400081115885633
470 4.697467662902941 -1.133252527809139 -1.78895618928316
548 -0.44785294309416107 -0.5620274867468077 -2.3051020302830163
255 -2.259015211445947 -0.11678024809105335 -0.1338468622164415
259 -1.792423962789528 3.32569978842992 0.07771402017770666
834 -2.163991015302398 -0.12343773503765348 -1.6799379540109067
544 3.3819178772203635 0.712623218104172 0.11306827397212614
543 0.727829314245817 4.199264746589374 -3.3498852875384064
836 -0.044857405234100256 -1.248691825838166 0.07721378544180993
832 -5.881865269579104 -2.266209978830488 -2.1981006483036993
831 1.2264191450253252 -0.9296104847825771 -1.9625488082610134
1120 0.9094309520160037 -2.2564570576920784 -1.570727283735828
1119 1.6636242346749113 -3.028279950995884 2.78279739686933
547 -2.832814890868044 -0.5653641385661422 0.9029563268477324
835 5.71166471250192 2.753396830496878 -1.7438423573713107
1408 -3.7862059168852045 2.936862482692599 -1.5410563746913664
1407 -3.064960427300907 1.797585487214064 4.554301897177887
293 -1.019281941292947 2.0184746801511024 -0.9771398151050893
150 0.5495683966659781 3.81114884263695 -5.926774772773811
440 -1.8174771905973324 1.7624248776636993 -0.9762313765891213
438 -0.6489912458363492 5.415584677650837 3.0964922747247177
728 -1.065031621229307 -3.6055392234244033 0.5588540847728183
726 4.097075216626741 -1.558478121269774 -0.41032109921826265
1016 -1.9573931270856428 1.6546869098418784 -2.128465750657297
1014 2.2282008839673133 -2.6387067252450165 -0.2052062837723739
1302 1.5960238754859082 1.167627390081548 1.0123872465891597
1304 -0.12494692827104018 2.1089210068432056 -1.416087059203862
1410 -3.9962120164519113 -2.3017408458046584 -0.9758439616217884
151 2.5231607637407314 1.0016433834806404 -2.750640469629953
473 0.3120945206141145 -3.750698608040275 -0.17815882439588987
439 -1.3658836588720364 5.688319777470552 -0.4814361166203837
761 -2.7598634563579156 -1.3238304762295985 5.7062243817807214
727 1.5546598626675168 -2.865210887300174 -1.6513765357624974
1049 -0.7798691985070945 2.080712194707676 -5.159346031538231
1015 2.9993732379405786 1.044769408480917 2.1275799794263524
1303 -1.9797758337347662 -1.6974416774902839 -1.5620813859938727
1337 -0.2137490571618348 -1.707441352468962 3.568851900102875
1411 -3.581774311142445 0.5430495781525024 0.06464231159232728
186 -2.404573418136314 -3.4420453386221905 -1.8253718634215117
187 -1.628636554722366 3.9168671874070355 0.9979085653118116
476 -2.876742407405369 -0.571502324300118 2.990938999514485
509 1.9603075924241842 -3.5549176947657455 2.8282974215206176
474 -1.1552835424634602 1.030891882801026 2.3969877367557815
475 0.767929994561936 -3.774631795790633 -1.0185695477471275
764 -2.296448836182237 0.7966554585647588 0.3915155315288234
762 2.011712349397074 -0.9663868453196387 -3.6027368960740422
763 -1.5723384962954767 0.46879529862702035 -3.1104885157172406
797 -0.3742891965903095 -3.521567035407248 0.6374697029337846
1052 0.8486209541639197 3.0875839362987154 0.21940038680978036
1051 0.8347003022738531 2.724465618314102 1.5261441818323656
1050 3.0686907261674894 -3.220986240647282 2.7738475997485206
1085 -1.4773948762697278 2.285138653212964 0.34558975225962657
1340 2.4009839576948493 2.3660249179635793 0.8524720071494152
1338 0.33772776865648524 3.9319762309451205 -3.676293905888951
1339 -6.278747787085657 1.6800282519302878 -1.2311128159749587
1373 -2.1463366136664703 -0.6531409116498457 -1.32285951369635
222 2.2365161930409077 1.8531759522117157 2.1407340556373904
512 5.241265400285229 3.6996894405739207 2.3758168447127606
510 -1.5986306408213693 -0.4754122125402855 1.5608926045382105
800 4.109693253808832 0.635736595768092 2.3396670636336867
798 -0.19833447109060298 -1.103755496109466 -0.3996610302363581
1088 -4.167029783804165 -2.7076850575538005 4.26766622784831
1086 1.9551042638946077 1.4609662234644263 2.328879865262967
1374 -1.5524752362920866 3.820963737451084 0.3732755093926604
1376 -0.5768328845027796 1.6299527075829687 1.095193212016021
581 3.1596792191150893 0.1654996307209183 -0.9805244796410058
223 -4.355454936479994 2.1124283457425324 0.41997486313420235
545 0.4341662038904512 1.7595445583275138 3.270267797029124
511 0.3725201189476686 -2.1174287904243245 0.4420684156971517
833 -1.9202655043609052 -1.099419724811341 0.8309521120764418
799 -0.5071585280300798 -2.6045049928980357 4.113853656354621
1121 3.2494970218172594 4.091111415359412 0.3468920856066047
1087 -1.7951459028081271 1.547784849238981 0.7418440106355428
1375 -1.1389203932790437 -1.1630818106027112 -2.1471384320957942
1409 -4.3241153076020105 3.229310884557169 -1.7300432727175041
865 -2.7619290780087 1.5604582371241729 -0.6510959900653349
1117 1.5776907622687366 1.2409176750237587 0.24646875169565488
1082 2.3350017908149607 2.0611735393418877 0.2524168450942747
794 0.9246280807014027 1.9316397144293747 2.1605257918275473
541 -0.17407708553505963 -1.2615854154975534 0.032824580465065936
793 -0.7024932705235384 2.515321787218443 -0.7647979131930732
1081 -3.1164803593361747 2.383023469276634 -1.7974258939356136
722 2.6152300462392835 1.098810100919753 -0.032988524970284955
434 0.17694064768103437 -3.2846036323025993 -1.289553720725131
1334 -0.6011470223926992 0.23115973634805578 -2.1829923889093314
1045 -4.911322517882213 0.8526020469259448 2.9996245039278264
254 0.40683454109711614 -0.32818735178973113 -0.9543263678166829
1153 0.9901615899627048 -2.2259497253512146 -1.6754805222361808
758 2.234161133612068 3.3242077949348703 -0.7073816009068083
218 4.7777066020186 0.5893055216096647 0.18989475345598095
1010 -2.2087965152777502 0.33173657679204815 2.055840626399376
1046 3.1389654899182355 1.0163681526321071 2.7998372854317632
154 -0.21358421529228952 -0.7787012693071818 1.791711365933575
444 -1.9271184485843043 -1.9432586540490961 3.4147751884299713
442 0.9627707719871873 -0.9540436950909799 -3.9511929513955812
732 -1.887799816128457 -2.4615943284691135 2.9649006261539324
730 4.211247896416372 4.789775440630806 -0.7207693280765828
1020 0.8568239423780161 1.2448093101079907 0.09280364035566345
1018 -4.518731930641205 -1.6087236768945476 -0.13151137010594827
1306 0.9052385252113805 -3.2626116328064207 -1.9614009766683524
1308 2.7830931675197665 1.2427222439020134 -0.6136698145802894
155 -2.850507307591882 -1.1336898265191158 1.5488654402932787
477 -5.646563017695436 1.0424892750620212 0.9091858052123958
443 -3.2863977907629063 -2.1536510760864664 -1.4734494531020892
765 -0.4051225022498309 -0.7703119945370317 0.9011498597118265
731 3.842669873244234 -1.0175319765787387 -2.9834577574498087
1053 -0.5700018663187785 1.1588508477894037 -2.5700192466070244
1019 3.915741360911263 -0.4574299740255712 3.716686798716057
1307 0.6973623838174522 2.415627706878103 -0.8870953798209017
1341 0.45274031417762645 -3.0858106063858397 -0.28019317629962665
190 -2.182729793576963 -1.0205623107663682 -1.5793478821290121
191 -0.2963988810193254 3.2027789278368948 -2.431224161568965
1130 -2.095918361816252 0.2792691385473935 1.7203120964322902
513 -2.8735115963285818 -1.7415547718051216 3.350145001425531
480 0.9736542903550287 -2.229487406878264 -2.361476364064796
478 -4.9067649460746665 -4.444466133121897 0.5335726885225414
479 -1.9649727953088125 -1.2185029740025433 1.491539113113306
768 3.4249025072875847 -3.519476109565728 -0.18272088282942475
766 -1.5678478892965997 0.29068888492703654 2.34797704321048
767 -2.31183502332913 -0.3815119971969176 1.6225606803492667
801 1.2741686633125715 -1.9710083483213399 -0.7693993531695917
1056 -1.0168660936524025 2.8010099245582856 -0.831459231460391
1054 -0.22361479070367707 -2.069103229565044 -0.32042067862825957
1055 1.3648888440894145 -1.181337797189397 -0.5846397349004137
1089 -1.828114835878894 -0.8317299922769705 -0.2286328522783643
1344 1.1469094712820678 -2.0198394959206984 0.49343470400965345
1342 -3.763157680113786 0.9101216739945627 -0.2727905995883501
1343 0.7343189862604206 -0.6286766226256635 -2.0362787312487
1377 -3.786308880392309 1.0371222284007446 -2.5005114114963605
226 -1.8416291672969693 -0.824764094408196 -1.2405560085900604
516 3.9650111277854854 1.2127648464291876 -4.196300013749772
514 1.7425152784508118 -3.4021190264200576 0.16379459200814678
804 1.917844926189855 -3.105042175727612 -3.266541492877492
802 2.4021080321174124 -4.801310487682919 -0.6047430700859376
1092 0.651349162265116 -0.7352938765725441 -1.3099122973651178
1090 4.861894604826882 -1.7616500827490766 1.1155479989205521
1380 -0.7464661205567756 -1.5495387562830538 -1.1865651426246375
1378 2.9245127025681863 0.7685918641743885 -3.845114101248614
227 0.6427728497114825 2.3229379735845277 -5.389328601526471
1165 2.278317247403674 -1.117885200827739 1.2747618018048548
549 0.9868841391130702 -3.426916179253759 -0.9164968270924272
515 -0.05729460963854696 -0.22910416468347208 1.6603683828569669
837 -1.3655910961344384 -3.087775424386579 -2.10514656091065
803 0.31660846795097464 -4.449110166457529 -1.978936368959643
1125 -3.255633489581809 2.7789643919585667 -0.11702908868253596
1091 2.8597671900606705 -2.396397567662566 4.9046841949899465
1413 -3.0048002697231615 -0.9122563461732333 0.8336727977478979
1379 1.3051170430405161 -2.989307012468742 -2.8345096764520976
262 0.408919726174064 -4.187107888905195 1.8790121696782356
263 3.9135609778834657 -1.6131651517655374 0.22779133732449036
1418 -6.0789391449813035 -0.3795472838473603 0.24438696531273754
1420 1.23370891116591 3.887142047090725 -0.2098712372631686
552 2.224251815250892 -1.2157868817001483 1.5642174422241815
550 1.9222305522285639 0.049769272274076105 -6.2551231891272945
551 -0.009590625500213792 3.0025406252247877 -4.142326635098101
297 0.6631176507244372 3.0933890837239018 1.1409317199357507
840 0.10824899540103652 0.005433420243077213 -5.818748026921633
838 -1.0553763968964085 3.6847921165341915 4.873572332508562
839 2.0794152092081983 -0.7834809671954142 -1.6133501068156613
585 -2.1109165164799637 1.621005334220969 0.26675731193846397
873 -1.6275383444071208 4.492417818940886 1.224407815265128
1128 -2.945228427122358 0.10014543442928911 4.621365766384306
1126 3.1195655265987656 1.5824847100332535 0.38261668217605277
1127 0.16601904145228324 2.999958805294062 -1.2796066270959046
1416 -2.0942007391910695 -1.0809430441765282 0.6044263224571069
1161 -5.68835714304957 -0.5624307384159583 -2.597347365625433
1414 -3.4880818853431728 -2.9076601994653295 1.2234402575106784
1415 1.7891169179736066 -1.706520178954882 0.15624113866860004
158 -0.911801450783226 2.0316535047596456 1.607101135632935
448 3.0646805816605154 -6.3288133978206345 1.9582742528888009
446 -1.9501498245437376 6.600003251116883 2.286748948444064
736 -0.03306853217254316 -2.7070626613604785 0.08985780633927237
734 1.4107448384473202 0.0449543158612775 0.035827687275698274
1024 1.1287359680414952 -1.502837184105045 -1.4464201701499868
1022 0.13927959069991525 -1.4651631941093881 -1.0070093418679475
1310 -2.3832860825705167 -2.6664893320583833 0.7351362633388964
1312 1.7081840560670176 -1.3429631123737598 1.4748688162072385
159 -2.409105544724727 3.4084341535607 1.14345038656284
481 -4.221414463266717 -1.5050667146405525 3.88463810929027
447 -0.29096634447833014 4.747114056135197 -1.3122741978543682
769 3.9790143291786095 -2.044817214779374 1.4217846597931958
735 -4.424144224158625 -2.7473587150387293 1.2691956212689943
1057 -1.4602983493138308 3.8279508910724394 -3.834863387276559
1023 0.7251613173888937 -0.5655380939042898 -2.0654442981000543
1311 -1.6205606104221284 -1.072723887800142 -2.953848069859436
1345 -0.7721718658112987 -0.23033403799035496 0.3115552460141932
194 -1.2124590662352812 -2.2811178580126796 2.05528923017811
195 3.9650749175913624 0.17135631762543568 -0.5100263487621541
229 -0.42456516752154244 0.023271933581043572 -2.0654356241222387
484 -0.2541767398264846 0.6765289748792648 -0.617489567304011
517 0.5522369339437049 0.8510964017324139 1.1896189895518718
482 0.7798219686333778 4.2057148505026625 2.095580335650601
483 0.40424451772480635 1.9113812085836681 -1.133566308989256
772 -2.1150432422410597 -2.526416771851993 2.2041664573037227
770 0.7749800299486699 1.4391198865223862 2.7839289294696337
771 3.277478133832752 4.304246293946211 -5.277112538167472
805 -1.2914586217058426 -0.5000056451998149 -0.6229035398676344
1060 4.605545874073625 0.4078747393336886 -2.8949249976627054
1058 -0.5035428316879922 1.4230539069322072 2.795620503982574
1059 -2.499815177117474 -1.6324348657264223 -1.2574137564269954
1093 2.5887214211866207 2.6945726513422783 1.4427800573664222
1348 5.775883246741648 -2.9718338735405005 3.210095241986737
1346 -1.995141018231138 1.5946216887477977 -0.18404500220869546
1347 1.0112909322428068 -4.681040095283539 -0.8780395343543814
1381 -0.04647643772495937 0.143987277114492 -0.41555345925706727
230 -0.6532503505661061 2.346393094598778 -1.8500250134381506
1131 5.070816386991275 0.2658129964887729 3.0912752316733485
520 -1.2009126708737792 4.22574967934152 0.9954450846776939
518 -1.8714959182653947 3.6226141731961508 -1.0068744361947024
808 1.2936142020385226 2.3619303809844694 3.0752462463993058
806 -1.382123598304354 1.8292065588711384 1.8200419189868717
1096 -0.238961057001692 -3.0382078020364665 1.5169872275493836
1094 -2.257335809051027 -0.10888646879690166 0.8037820701440131
1382 -1.2187066802036757 0.7614088343470856 -0.9924237860102708
1384 -1.4261771267724528 2.3350000280643064 -3.010359580934167
877 -0.5139693109136445 0.586147573347653 -0.9645245972193003
231 0.6256935915222115 3.050393551474268 0.01821388602441427
553 -1.855202446364786 -1.1649284637254733 0.8134581281562376
519 -2.731577631722474 3.4783737889171453 -1.667234751604017
841 3.141873094824747 -1.030201778393977 -0.9707837581871293
807 -4.7355297820026125 -0.1186968413898239 5.64306105821328
1129 0.6067611914515089 -0.7577411126377512 -1.4682953157031484
1095 2.115895934967718 -3.71013753118133 -1.857880054314806
1383 -2.203325624704294 0.0029047151615616343 -0.5264585236422098
1417 -2.5092841937172774 -1.2856819309207672 4.180453454235649
266 -1.0987622450172823 1.8501214485624533 0.8086922593357121
267 1.1218991769668252 -1.9759683034126616 1.7219027183887825
1419 2.0707418354663525 0.3842590217566902 1.3443879260602092
1132 -1.5251294894908816 4.012034677495829 0.7550314981938349
556 -0.5603169144644804 3.4837887528673206 -0.3895206088975432
555 -0.3209120525957684 -1.4601523590723815 -1.7610886289032237
554 6.653198553813379 1.0150595072396147 1.4016383583483523
301 3.2959824056494225 0.5484223656526702 -1.7844973322252764
842 1.9786834601905152 4.412761522676111 -2.4327429106075935
844 0.8874304464320223 -2.194036070369566 -1.1478762778628047
843 -0.1339101543012043 2.6357850422962974 1.5588115783025487
589 0.6818668504325925 -1.2020773860266225 -4.933882345545154
192 -2.1442910691896406 2.3174616566732635 -1.5287577547063629
228 -3.1884499997293103 1.2648267065726673 3.3202069961731584
232 -0.15370837595211803 -0.768472900430034 -4.132463730513207
13 2.9249002340530663 4.387188325598127 2.7090120704397913
162 -1.6277056247412327 3.2400046714142214 1.504122267897045
450 -2.8771170647171984 -0.8594844423000756 4.1545015529629366
738 1.6318071363580686 -2.0617581175190485 1.0889918350325138
1026 -0.4629393647641544 -0.11573740293538577 0.43846480843256125
1314 -0.13989071814269324 1.934875548684917 0.3204435720705467
1316 -2.0752293598637572 1.6523356316499298 -4.822138673625863
847 -0.6276929585205411 -2.671434152995686 5.4619109012726295
485 0.5220347302404108 3.0280933601186275 -0.39525408954861857
773 0.9327853917159692 4.295936476167899 -1.008521324453208
1061 -2.104606051466989 1.7540603777871742 -1.4504534370535773
1349 0.9287400272160689 3.1870904608716475 2.893693997029574
198 -0.49695927635422515 -0.392138915724946 -0.08048617991891827
521 -3.148615665078332 1.06132193297404 -2.631783387979629
486 -0.6771579660167222 -0.10478325023988604 0.9367961436369147
774 2.4890078057302256 1.8666950476995108 0.19129688164795888
809 -3.8535811214138036 -1.3270797279831301 -1.242303868962417
776 0.3513051009477317 -5.268014600935119 -4.364714769859633
1062 0.9771770889175916 -3.1146743080033983 0.5788676918548269
1097 1.971258934084851 0.14710572869857777 -2.963208804934457
1063 -4.81729020164623 4.008663142539774 1.2313900981240569
1350 -0.2457237626902838 0.8454179986338821 -0.009110849800966339
1385 3.2247931102996485 2.3875979528679054 1.1669931061918462
234 0.37495849280846283 2.384500983773163 1.0296395675705268
522 -1.6187975132434778 -0.04907513805237576 -3.44888588595042
810 -0.1523042136620512 -2.808478017329068 2.2605845987893987
812 1.116720592027634 -1.4733284727955855 -0.2710936749595163
1098 -0.2921948776558603 4.850996921355856 -2.65137107987413
1100 -2.3646169719852033 0.35783223523530994 0.7201941156477432
1386 1.4932429893309196 0.34904761075800345 1.5753629563405536
557 3.745379863305751 3.2691164513573003 -1.1566413202933026
845 -5.229837457645942 7.093701504732581 -0.029604756770275405
811 -0.033170160783789523 3.05798228083614 -0.11120675834972049
1133 3.617963770304182 -0.1917771456836228 2.623632664873168
1421 1.7621924024390934 -0.3566333821004098 -3.8421720609181857
270 1.8631598481107188 1.5683596489175486 2.381630547281528
271 0.6040635489314014 -0.09905355000083574 -1.314246907987251
1173 -2.5747802420724675 7.013936245101105 0.9231480529980955
305 0.36895039562356846 4.284780819153687 -3.879831585736801
558 -0.12564346306476765 3.634350034403444 2.4532227971763305
559 -0.8036745421733112 -0.5246000592543357 -1.9906280754768728
846 -3.036146247074709 0.050219256688863886 -3.770076057639259
593 0.2549712565236735 1.223201942904335 -2.06903463954533
1134 2.927241834832743 1.1658746224613672 2.755937888268369
881 1.6670166890240605 -2.8321825321022223 -0.03383111112980553
1135 -3.5898373813391995 -1.5303671191931154 -0.20294972883831428
1424 -2.599534827663347 -2.0152700290993217 0.21856872807071961
1169 3.497136778490809 2.9417755805462593 2.235235813365592
1422 1.7046630819239288 -2.5956598057396394 -2.122330104529371
1423 -2.7893776770461023 2.4054764465166127 1.217711730383719
166 2.1433590489163197 0.0890431189188284 -0.888882111525508
850 1.8336806296486896 -4.226671983434495 -2.980017687674983
452 1.345589360677682 1.044521444475176 3.766129748989491
454 -0.19169473929187855 -0.05064844726866538 2.497086348978661
740 -2.760889505557585 2.518224835943527 -0.33720591807558403
742 -1.6253044955134028 -3.796293860254518 -2.1353596310838365
1028 2.047412222252201 -3.2594117844078774 0.38321828285933146
1030 -0.3553720566802227 0.6355167108149846 -0.7748283530655897
1318 2.8632811110626974 0.8661659848783176 1.861246835169578
163 -1.9114785916095045 0.688024297287564 -1.1716801009383555
451 -1.7987216536018091 -3.1038991622247174 -0.5641521277669956
489 3.9007248630985947 1.9244825485000732 -2.8410450959298066
739 2.7796690888936375 -1.3467622120014626 0.8686855780157854
777 -4.575630252124756 3.3832433236055146 3.1577781828033302
1027 -0.6031440477901557 -0.4407334009225375 1.8069360432312187
1065 0.3938414249490074 -0.06824606896579125 0.31740558916752537
1315 -0.882181458254775 1.9151984895500342 -3.319015163435395
1353 -5.131643348173492 1.6077232153245424 0.5010487657025466
199 -1.2839206054884198 -2.5067424132120135 1.8412531385703796
202 1.2112976686924077 1.3746912601241066 4.014152607888562
1426 2.405594085872941 1.9367490849280504 -0.0901506501713316
21 -0.4412336416141865 -0.20790271464239796 1.8091053488217166
488 2.563169175953418 -1.4992387467540993 -0.22699869393160668
487 0.12622525851877225 2.244942961532918 -2.609639470471428
525 -3.2533839972615075 -1.1173281375150101 3.024668036699013
490 2.6975499946442087 -2.0682062570388067 -1.6714451864366984
775 1.632987641740773 -1.3676080280606298 0.5072651455869999
813 0.7500062243194717 0.21293763220641007 1.086474903828671
778 4.10294046950821 -0.7673352753319003 0.07428529696387748
1064 -1.3304598860457786 -1.846290368672951 0.888350695341979
1066 -2.7772951814525815 0.4754575487472802 0.9483481621407203
1101 -2.7108743331700014 3.8841880882622535 -4.495415724544373
1351 -0.20212936413553695 0.2153840545533728 2.285728924436326
1352 2.210032399324762 -4.501660980160483 -4.529651962332552
1354 1.5242503042811615 -0.83012691753069 -1.636114916936349
1389 3.5214236220350723 3.6222737800182365 3.985331324775932
238 2.9661337907760816 0.19572697328042304 2.4608408482034356
885 0.5375408864115259 5.438117283525789 -3.47085004630644
524 2.133461162649516 -0.8099265806972205 0.9124559783744309
526 4.780164390124087 0.08038124558530838 2.3654425449503598
814 -0.963618112357622 2.6910013597876974 4.310666855569485
1102 0.3404527566197836 4.55393659519072 0.764014000827498
1388 0.2548250218319741 3.0097577857013067 1.5136889957681534
1390 0.2904161002122278 3.216840620198752 -0.9771661452672972
235 -2.00565664043672 -4.11384135452031 0.9629774075374622
523 -2.0005794651990727 1.6902900387223263 6.5536747349279265
561 2.05574985720977 -2.5088300057077193 -2.5041480216639345
849 -1.7946750077590636 -3.2623813774151644 0.09013982008451599
1099 0.5398807550563226 2.327853638169379 -1.1681594689654289
1137 -0.5825674668196437 -0.9896700495648428 1.6477216717466958
1387 2.648392680863613 -0.6112886657760456 0.4436226406386194
1425 -4.132829058751134 2.853697026137523 -2.1869959616686026
1138 -2.1100442281823906 1.7065372374870895 -2.190206312358376
274 4.9399804390123805 2.18440121580605 -1.9788305590224469
1136 0.9660735359980971 3.558328261884309 -2.925497132017094
560 1.094966024043592 -0.36122664177035746 -1.0305964787777016
562 -1.8820130273772744 -2.601233024665327 -1.2141779243016166
309 3.2929087430775668 3.1083298435669264 8.43281029742556
848 -0.5310009011495204 -1.707401379478317 -6.6815408510416585
597 -0.8589501462602468 -5.059488252642553 -2.6288532274401617
236 -1.9672129428037057 -0.4760087040574803 1.634953758882242
273 -1.8089172805200013 0.2502278650251964 -1.0274930901284824
197 0.8753647543760159 -0.8917746333432062 -2.949774029554579
164 -3.8574752734293165 0.41232722384769405 0.5195569536403032
201 0.7402703988927845 -4.146441833651081 -2.203033409685422
200 4.792602955277594 -3.1387443108094657 1.1383864244877917
269 -1.443014152815865 -2.26439402755602 0.1819472165058392
233 -1.048699948381521 1.1907017670381512 2.978195010072402
272 1.3852589282019911 -0.29604944995429033 -0.4945369365848407
170 -2.530220999283114 -1.2350856244975652 3.603937043212188
456 -3.6426146985297 0.8215790986598748 -0.42361003062527086
458 -2.375503215769471 -0.6359781530145974 -0.8288063349784897
744 -3.491118139659031 0.8908747956230331 5.753321311193465
746 0.6533551903378308 1.3359332102850967 -1.6852191818990883
1032 1.939901611843159 2.116467813876981 0.9069880776342006
1034 -1.2909840337801397 0.4001567346643269 -0.4626842912861095
1320 2.069189605845867 0.7712983525948717 -0.43351333985825
1322 1.0474128247183108 -0.24629538037279575 -1.3876584013394226
167 2.4483620509334845 1.951060752923668 -3.3228211256120765
1434 -4.976498424963126 -0.5024538667702547 2.317322134559606
493 2.4327035016083065 3.106978147121857 0.4186595485636553
455 -2.907225059484388 0.37282619591691873 1.3739127385557328
781 3.990308293313779 -1.2445939503842518 1.1178472433909945
743 -0.41659595877252237 0.11876023770039969 -0.39408014375307643
1069 -3.6595721602298075 -0.3167101766979103 -4.143770781261993
1031 3.7276723907109406 -0.7422666040285465 -1.9918406031027347
1319 -1.0978627574029045 -0.6157909347627052 -4.425006360678464
1357 0.25077266196874004 1.175373505792091 -3.866164868146812
206 -4.443636576537782 1.3077160143896411 0.024565528922241196
203 2.478193174290456 -2.682597539026538 -3.7534028510115705
529 -1.8639847880221967 3.919159825436086 -1.369168318763327
492 -1.1544401347596904 2.6776630476220573 2.201360868183281
494 3.8411524803928745 2.274204968784577 0.7468283991218103
491 -1.03690871721663 0.24751086402084474 -0.8893825188150726
780 -0.09471244246292654 3.1412125806418465 -0.22837962704713552
782 -1.5813994579607815 -1.350830220493579 -1.2650528097947524
779 -1.7119882668346242 2.52444711698443 -0.5508292081109455
817 -2.780438692869316 0.8823336937492677 -0.5126560954084178
1068 1.6142202436210462 2.421116186778678 -0.8000634245240879
1070 -0.23680015745890268 -0.9325863127640791 0.8656309764356903
1067 4.004904478172531 0.5539702060152251 -0.584261242711953
1105 -0.06760313237412864 0.2540263648511899 1.6657807798666093
1356 1.1290340171944497 -2.0852722922378337 -0.6146713518932122
1358 1.1845390763556036 3.3217850067665258 2.32819395327892
1355 -1.3961092201168288 -1.3524553172873697 -1.9501700735842724
1393 1.9804501587106949 -0.7353977410050901 2.2410770269802454
242 -1.7894564583757586 3.4764824402830508 0.1995679942154261
209 -0.9586899829792154 1.6339105993490037 2.932421775831721
528 -2.6170428425118257 -2.928419398416384 5.233561838526802
530 3.144740005680474 2.3742390670568265 -2.317363716702961
816 -2.935086293383474 1.8110144953110778 -2.425386172667962
818 -1.8013216065552176 0.46131832697885333 0.07404912212129111
1104 2.017091448118733 0.896517243497008 -0.6782652425330072
1106 1.7197592041311345 -3.656828697034446 2.3153868351568443
1392 1.9248611061623229 0.1983191701232237 -0.10644779532447288
1394 -2.662459464087204 2.46590498668981 4.349878262029342
239 -2.4808768013265445 -2.991876984763832 -2.5472972465038675
277 -1.8476866569845924 2.5509655020794773 2.014845873173781
565 1.7550015495845415 -0.40899680244900327 -0.6352472504938105
527 -0.11164766892938695 -4.759973140271028 -1.9694262519748325
853 0.6611265759698053 0.478416997557041 3.1448898025232133
815 -1.5236462110303541 0.5941436209660007 4.141506068622916
1141 4.883412327111271 1.0673072298683235 -1.9168802968456402
1103 -0.8465795358589355 2.8469372395940407 -2.7588308280287754
1391 -0.29803808486414013 1.036364232321561 1.3732860513291456
1429 -0.6590178457198879 -3.022332235301301 -2.2725204235097216
278 -2.2332241631729604 -1.6688989027508767 -2.487267444946747
275 0.025723515260943637 2.1317046840082066 4.152082950639006
313 -2.6400810416244687 -0.49339303629735964 2.57998247568341
564 -0.08249348635854849 -0.023713817332599595 -1.4305817882073255
563 1.7737200881061421 -1.3500551934468283 4.391163257928425
566 -0.9678056758762579 0.06456045930234632 2.36866448404079
852 -4.782825189822445 0.4747185706414212 3.6523824710464172
851 -0.9568806968273397 0.8110517002594547 -0.3888434170474799
854 1.3581650059052812 4.052040461715245 0.7155971023912719
601 -1.2060446177304336 -2.3025337513638133 2.288586775527906
1140 -0.711669842344456 4.097580235704033 -0.882403367557655
1139 -1.8592050175559856 -7.037566516789386 -1.1281321867619676
1142 -5.238074957182397 -0.5598670953162604 1.4137544446713557
889 3.903627605144138 -4.494354179654708 -4.492585838516241
1427 0.7221588069704807 3.5197139579802617 0.01958318857464995
1428 -1.1802999555919282 -2.1363287520510386 -0.4721546582902623
1177 -1.4470152564629615 -1.6555489543319266 4.233065202166185
1430 1.1178124084824574 -1.138677940384886 -1.404259161530272
174 -2.564266788972893 -1.1044211405806992 -0.9733962646805041
1432 1.4791126455033683 0.09427719596879984 -3.2831685990825545
460 1.2405751734548733 1.9128368616317184 2.168079597327097
462 -2.0569359822724476 -2.1828695206489295 -3.538360096141335
748 -0.5358898041141462 -1.3717701008620058 -0.4346591046755709
750 -0.3054698744333098 0.41209273294210225 2.8569174173278036
1036 -2.206535293372033 2.5521382126415912 3.4816127610536625
1038 -4.162917276164057 1.3477198461174118 -2.237741382565294
1324 4.30725978957266 0.6470356739446455 4.025724005869451
1326 0.9019356950376123 2.0964713950501115 3.2969527524411943
171 -0.4086304182792456 3.08364283575984 0.9230126298299309
497 5.958303756777001 -2.110734247942363 0.7586308460818875
459 -0.7785872331213941 2.4188536735888313 1.9204486768677749
785 2.6199891302656946 1.465688023956682 -0.43765189177266345
747 0.8635697493597742 -0.8946309825207116 3.420947362146823
1073 1.7306275019745732 -5.262025491812133 -1.7388016256719563
1035 0.7112636590888857 3.984650117953515 -1.6809538844952072
1323 2.5755108206067154 2.523837662728055 2.9798482702390237
1361 -2.8781635476545073 -2.4411876375715638 0.5598039297780462
210 -0.08566124415713419 2.5240389681304305 -0.5489528136991623
207 -3.668250757818452 -2.593700507069779 0.21388250843563453
533 -2.6764599323077247 2.5755521829931944 -0.15587424234938832
496 2.723188020250643 0.9293139563068331 9.381495965325554
498 0.4565295232889554 1.8000790630158048 -1.397242025154104
495 -0.44442949761518397 -3.25980694991675 -3.4165442649203475
784 -1.8662263959974423 -3.5163204811873685 -0.5966433892589098
786 -2.2224630602157567 -1.4816043514448902 2.5718906395154835
783 -1.0623104650786002 -3.787599247404666 -0.8037838855215825
821 1.6615891197763097 -6.1406923984144255 -2.0670774552587807
1072 1.8839734647684117 2.7885123932955813 -0.8319366687216185
1074 1.5741731789572204 0.45922411913008976 2.622904266070438
1071 2.686982514680056 -1.527209337758962 2.848920445003109
1109 -0.7809361939799885 0.36912301369155337 0.7461908716371407
1360 -3.7593127768502312 2.5441383425024 -2.3818762488142533
1362 1.8104444073302335 0.9383585386038334 3.391982188225453
1359 2.1583708168016713 -2.1362034203709457 2.9483360828322613
1397 -1.0128675533526559 -0.3383872877465632 -1.0343951180541895
246 1.470604003820576 -0.49823963907991087 -3.871489275224263
532 6.095274477357667 2.089178546979512 -2.178720850392107
534 -1.0244435185925242 -2.4566941629787196 -8.978578917211028
820 1.232373021880963 1.5481925164923827 1.519183059903552
822 -1.4266183440800624 1.4348623396790248 2.6087499901686493
1108 -2.4764644322166958 0.2544416053622356 2.560728838845771
1110 5.67759206664207 1.794099015441065 0.2488502530964425
1396 -1.7811135780319662 2.3797536320379673 3.887104875403655
1398 4.190404165358281 4.847625056995178 3.0297723137098393
243 1.103854141432873 -1.386439572969148 4.25191733888127
569 -0.8101500537916376 -1.8029879749857953 0.8439783599678212
531 3.6487945870616603 -1.6549656509703672 -3.5756577371585814
857 -0.04789989008549393 0.9179783598756996 -0.9706987507936806
819 2.9153616445523816 -1.6879186047797066 0.027860434095065643
1145 0.8639363446065511 -1.916458961519152 0.962891538495932
1107 -0.29529340015669325 -0.8103546956996378 3.300176173072559
1395 -3.1583254141694153 2.127423434694001 0.9195553589429104
1433 5.689269535170961 3.067626561137545 1.4541944776140765
1431 -1.67883429399173 -2.76177360481699 7.083807712364155
279 -3.3284941598334457 4.674546835237646 1.573485516411635
282 -1.218504433904884 -0.9220114132351026 2.0945695273111906
568 -1.0592582488738667 -0.3188397744988774 0.9610801960712471
317 0.017564722747743167 -0.26671689496482615 0.6684158389765458
570 4.215748076117357 -3.9884157933688207 2.3012935212180503
567 -0.9634237925372996 -1.0622740873801917 -2.710337677416545
855 -0.5734921866127954 -0.6421078091443289 -8.812165442738548
858 -0.8328212849593142 1.57731477929928 -6.817755768197455
605 2.2179507294766165 1.7333027610139726 -2.5327921648230185
856 0.23186222237224907 -1.5039923986899648 1.9190073297640844
893 -4.358360975180649 0.38451741773863524 -2.664705872815058
1143 4.455946765885397 2.014708234415716 -1.6427585909018765
1144 0.3238561770191027 0.27911889630711245 4.4321192451013784
1146 -1.7883350005076928 1.0424576819128322 -1.421446199184689
1181 2.8815803288299904 1.4990381509958115 1.9071724826824275
29 0.35587066204389906 1.1068417475241885 -0.27327058992695297
244 0.9658115274114514 1.4517156950821983 1.1425981792659723
168 1.564236653977904 1.7005802560339291 3.124931524011711
205 1.415046594174253 -3.2545171598241445 -1.6691324715918823
204 1.6234421368470182 1.1094313048162512 -2.1801076877064003
245 1.2173545223196476 -5.940006199370919 0.7386449234417918
178 -2.8109803878378115 -1.1405976578433665 -0.9470804796980236
285 -2.438742838739169 1.0033914390491352 -2.4873709434587234
464 -0.8339497187687634 3.989128964872533 2.2920217065044897
466 7.7360303292229045 -7.027317480141491 -1.155830443791413
752 -0.4732058446273425 -0.7906725205740907 0.9727579250174381
754 0.9186855166335628 1.886961289275092 3.6455295356072543
1040 3.395217740912299 0.05070803546826372 -4.528140506155222
1042 -2.1256540323029913 0.36498032753159987 3.6086080833086593
1328 3.126902633178836 1.942597037670438 2.1869891939824146
1330 0.3734937606055491 -2.266816050838386 -0.20804916395580306
175 -2.0051073354174473 0.26625108007786086 0.8113924907962542
501 0.15179499090995166 0.9097301848097533 -1.6320983284134143
33 1.8626720555774028 1.1491090825537877 -0.6343326545361422
463 -2.221854582867293 -0.24718693162776734 0.6942533660554749
789 -1.8333806252372848 1.7840390674254893 0.6468159308522218
751 0.8016508649506372 3.382858600586881 0.7537446797858212
1077 1.3871880401635792 0.22933253860771094 0.09126871991888004
1039 0.2602757576739207 -4.183151839891789 -1.9589508902908317
1327 0.6503529444707778 -2.3581099475665206 0.8899357936210023
1365 2.8826969014731967 -0.4295710140504945 1.3996637983936993
214 -2.1301972031587946 -3.414962770864222 -5.704709714858094
211 -0.6502106718397499 -0.9031131778399138 2.9753620279590423
1369 -2.126635622643042 0.14501923614794213 -2.810645181917584
500 -0.4439466105861832 -0.009784402876114557 -0.738080776819562
537 -1.0488681421286885 -0.6746711543373385 -1.9313751768604979
502 -1.6466833190451517 0.9199860161880404 -0.34065427742251747
499 -1.3466651001496233 -1.4259975500038138 -0.21900444284201634
788 0.23186312657260055 -2.0380008821743245 -2.259333304873139
790 1.433224090776293 -0.34578479127901685 -1.7180591807166152
787 1.5999644566137143 -4.243669929448373 0.9943223012805751
825 0.8016532132777187 -0.7620687883977275 1.2575102894951204
1076 -1.6514500815590876 1.8535489880849472 1.9610244445162186
1078 1.694112853614607 1.0017873142080418 -0.7493599145914526
1075 -3.0568936911123132 2.865032287089617 -4.357393117923079
1113 -2.730366495634302 2.7750357398906345 -0.7455363047564216
1364 -1.0023201044904089 -0.9501144325266557 1.0353589893624568
1366 0.3023964290666951 -2.696650910072453 -0.4018679277080893
1363 -1.0619560004745632 2.5574910645152524 -3.5892836146320404
1401 0.728125933171986 -1.1879064831334347 -1.4394406653658982
250 -4.345742938255169 2.613345627869231 1.0606953003894382
536 -0.2766262372692292 -2.557025737688252 -0.06501966090908212
538 5.636553564092882 -1.9663312656583287 -2.285912443585536
824 2.109827748209434 2.837277843181448 1.9233468291224591
826 -3.105047641865496 -1.3334629513071825 -0.22600532213379756
1112 1.3992069485013419 4.05419299986387 5.080979566910548
1114 2.4742552537088294 -4.613708769169617 -3.4512129651475183
1400 -3.04203255329584 -1.9953566828411946 -2.464142084905619
1402 -1.9446548582202499 2.9929666847987786 -3.2017635417739783
247 -1.814392851318987 1.7892412817164722 -1.8662171520527777
212 -1.096764895902991 -0.8516637470919688 -0.21720592097992297
573 -0.48425193811552086 1.717822884027573 2.7396304023056492
535 2.5269320623450606 1.037019988695798 0.3889614525855035
861 -0.9878657955205989 -1.4837919763569543 -0.3242938414763952
823 -0.8049188053200925 -2.9501948576983508 -2.0410983955359803
1149 0.9125954592794862 -2.8178946741367965 0.9901498573541737
1111 0.789016056937406 -1.2344034562581523 0.6313101819271852
1437 -1.8835292032313145 0.5957385175444717 -0.8050443657945258
1399 0.44893779885893503 3.920899797244899 -1.4703070241096279
283 -6.061016866404748 0.8737493150906251 -0.5478901933748523
286 -3.1582649243182233 3.2213651247827935 -5.279978100385255
572 -2.658971239250315 2.9001225879789496 -1.3325184229775289
571 -2.951366282734182 3.195000370549565 0.600330305933255
574 -0.8386537056576574 -1.451798817376927 2.3853280441662372
321 -1.8501451591588283 1.5143760747847614 -1.1983163513059454
609 2.41304765250066 1.6634528389565333 -2.7823705967426453
860 3.1278038092006124 -3.3103080271619336 -0.8443693110886907
859 -1.648979711717379 0.848292106996033 3.5460300143631227
862 -5.195096760432557 -1.805875141022347 -2.9856773434633945
897 -0.19486562597720394 2.485820005411418 -3.762722316187266
1148 2.342947431334628 2.9631846916239457 -3.024611080023872
1150 -1.345924573102663 0.49628719199229065 0.7756007016613551
1147 2.21292036178154 -1.9502501409032562 -1.957511595536949
1436 -1.9319351620361755 0.005317311451140028 4.461663165622967
1435 2.945674112104442 2.382240220443334 -2.3576603256712474
1185 -0.3336756174579963 0.25664732009366126 -1.5860633115974294
1438 -0.7964585924539818 0.8440536508835241 -0.7499941095840421
284 -0.1274016321697441 2.9545449028046513 2.1209950501002437
468 -0.1151103825791752 0.5619316411815956 -3.6526181591726985
756 2.3910508235159518 2.803008247565865 -3.307965268330062
1044 -2.8533165453735934 2.2781069363759188 1.5324949693673562
1332 -2.936254821233585 -0.17502667878454983 2.3495081098534
469 4.540059734662586 0.853110606285216 2.3446103950961836
179 4.7071141202809645 -1.171136338669299 -2.4302351395749304
467 -1.1958653870707938 1.7581544536245979 -1.276770893142776
755 -0.1503137380963596 -0.16557053517970852 -2.886098048393401
1043 -2.1928746526815526 0.6815827310337558 3.925944726518769
1331 5.3535178670129255 1.9518637288477332 -3.1950066265589916
252 0.695248048300408 -0.3552958876530739 2.108107324490272
215 -1.7233424503790222 -2.9496389887102903 -1.4212360607755579
504 2.36000506261105 1.839294451302194 2.488932510779385
503 -1.045331876028981 -0.25064352758619485 -1.6412055926434859
288 0.7876111657691515 5.561670241586689 -5.728142054581984
248 4.479229062738708 -0.412046934832147 1.8658770116368315
792 3.2874209997351334 2.371884280069332 1.4015266969158178
791 2.4162101609689697 -1.1385129492647008 -1.9183916791471163
1080 -2.1397044145909714 -1.2839527700622275 -0.29851591470011607
1079 3.065433193658271 -1.1872622821159358 0.4462309216411347
1151 1.1753125706103849 -1.5961544319832588 1.711225484462965
1368 1.2672452168652333 -1.8672434631715529 -1.5671092006221865
1367 3.507945385971853 3.1398418127543946 3.4584088514858613
1152 -1.4086504870885228 -4.253568862853184 -3.887410678245917
540 2.0037974898283495 2.614532544161495 3.453321694311275
1439 -0.6261460892260986 2.767266101579245 3.502415488980479
828 0.9595303826151952 -3.027816449199684 4.929998755521412
1440 2.7043304551772898 4.226396888669617 -3.6842499140108016
1116 -0.5027543082511975 4.638102211468255 -0.36358620432340416
1404 -0.9692268272083732 0.03132957285440941 1.4827553520110521
251 -2.418807626539046 1.5162856051098288 -3.2653282500714913
539 -2.233710063999341 -2.6686463288159725 -0.42179021277626483
830 -1.7141515881591984 -4.884516334647509 4.955709986678643
827 -2.604135044242442 -0.1696694824144634 -0.18876994243851558
1115 2.9834098437546315 2.750946663418179 -0.404526719718953
1403 -0.7894413219150841 -1.9009974576485906 -0.36597072252118856
287 -1.2505411936369515 -2.94253653756353 0.18155963338629358
575 0.7054217321349053 -5.7518644803089956 -2.4765768675593236
576 2.9788020447310366 0.17854950922454016 5.064937023653009
863 -2.9534752196489062 1.1504828527563384 -0.8039520410776927
864 -2.715165587051726 -0.9983156476460978 3.4159109960120038
1406 -1.6397392349663076 2.0294386080005946 0.4795011135040122
1405 0.3794469597340289 -3.02273003387328 1.7132117960089714
1370 4.8180527838527825 -0.8074783221805644 -2.1103648084141167
757 -3.3853491232719874 1.5020670325059569 -1.1533349755250342
146 1.8063554707294938 -0.4758364466707667 0.44442306268480036
182 0.9955030043440766 1.3971028778845218 -0.6855481106853252
1333 0.6462365068201429 -4.6388613305769235 -6.148781206769064
577 0.8428676067138589 1.3615801185882626 0.25644197514198913
1298 1.9773058534044543 -2.2865386285621585 -2.450466911692382
1444 -0.2309868463391692 -1.6541429009350581 -0.9360310211464448
2161 -1.0888934544790496 3.01278452594671 -0.6574258586607785
1732 3.600759356646702 3.7201937440348116 -3.630944149198071
2020 0.11697069726936489 -1.9066187672504613 -3.918143159671958
2308 -0.9424096582514486 3.112302607909856 0.19771173401437636
1477 -0.6964067411267413 2.0377695057549574 0.8709984516497574
2596 -2.049485316555592 1.5828197000152109 2.6949469328925764
2741 3.2393714056657643 -1.5017691617378865 2.582211721748412
1443 5.195740172706738 -1.108562824081394 -0.031011906651861963
2089 -0.1988076493741897 -5.26194974291804 -0.01802774536315828
1731 -2.6364662155658625 0.5090273409063252 -1.146421112786539
2018 -0.9597035734458186 -3.5758164779975146 -2.3261884055397957
1549 -2.057155784129652 3.5452276107167213 -1.5832362198872159
2019 1.5709744164615937 -3.1041301663716148 -2.2675087534928506
2307 -0.33481613251813974 0.2887310331188158 0.48253070835238976
1480 -3.9671540671258083 -2.1717027904746726 -0.24667665928931654
1479 -0.23197301708939538 -1.1925845874115497 0.775907541773875
2708 -2.468617890740422 0.7644633562836207 -2.411259297090211
1768 2.106724326263883 0.3625205037181204 -2.7824570635992045
1767 -6.138715442775093 1.129549330870016 0.9407854911545522
2418 -5.575441074073251 1.4146529115546225 -5.422140761345911
2056 -0.8558100048472504 -4.585444725262944 -0.2629600008498917
2419 -1.3974599690591425 -3.3950055610518786 -4.174417711110146
2055 -1.7329750678903497 2.5041560122844277 -0.7935673904284922
2344 2.1276516553935982 -0.5095150754128062 -0.3134026058772625
1478 0.7641694606321603 -0.12651910256309368 -3.1643151968028995
2343 1.692506499453145 -1.7155395540443017 3.114466140730343
2632 4.885770571202662 0.635277808029072 1.3102955057250276
1873 2.243023207027511 -5.508018278305423 -0.7511357254444158
2131 2.7214891357801156 -2.571677622738912 -2.235383241376139
1516 -2.5869127668530996 -0.5182088664721989 -2.4127285192309786
1804 0.056269575901243214 -2.366828071941598 3.947031525443567
2130 3.88436651294187 1.4602779352052144 -1.0176624416706592
2092 0.6296700516995349 2.145427639810412 5.81566243655009
2380 -1.7859262583769853 1.243726810468538 -1.357262474748441
2453 -2.3136275579783954 -1.2437816530480306 0.23574349082113186
2668 0.01701813595119677 -3.562761038574276 0.8704967563390066
2420 1.4009849998492643 0.8105033415386986 -0.14022211558305725
1515 2.7634408288860257 -0.7215139584930058 0.4544703234882589
2165 0.259364357380462 -0.645631390795691 -2.2537027165318904
1803 0.8909972997721274 2.0071022599158836 -0.2503466482292449
2091 -1.8419604515488806 -0.7520692504990931 2.297235426122566
2449 2.6786264353398557 0.5283361376108264 -2.610691922497559
2054 -0.6217624071354748 2.3226874809106937 0.3137901905476202
2379 -0.7015231380081242 -2.9729709511730493 -0.010265008103615733
1552 -2.4696198198054566 -1.979155753314063 0.26971530027261786
1551 -3.2422082513048744 0.3749136273883634 -1.9239697740179407
2132 4.46983039077975 0.17738563422415504 -2.0075818957756777
1840 2.4588939145649955 -1.7504163055049318 -1.4947181049952545
1839 -5.2454285626579304 1.2097792547511461 -4.437026162701393
1843 1.2535675506743544 5.053898226408609 7.178541877429229
2128 0.6652384758625822 -1.9693208018895665 2.725207610570907
2127 0.7338066228311371 2.5019517586289934 4.02413595721679
2416 3.6016044348713403 3.72982763524667 2.267421261734793
2377 -1.5284590497796813 -1.7675255014346332 3.7797459448136053
1842 -0.5432506335930207 -5.0492735859802105 -1.2384071807506722
2704 -0.6316296818167735 -3.2571191800012578 -2.380871092824537
2415 0.7984794316408753 -1.3733626213728372 -0.40878958986916725
1877 1.6264407297339094 1.1953867899106758 -1.361657297158325
1844 3.9997914793657094 0.492961547182422 0.9805595633269433
1448 1.0937384718660625 2.307677262357243 -0.136201587143223
1446 0.18850165676762184 2.749516039773821 2.3842485460694847
1736 -2.557843778163608 -1.1828409977228744 1.8921946844615907
1734 -1.9356354312575168 3.1012753951076286 0.06934417171226046
2024 -2.1662402742721616 3.4591606640710397 -2.513562274562356
2022 1.292549368617057 -3.4030960139303446 0.2646128629050521
2312 1.5859645192953904 0.14740203492040468 -1.2367870211135714
2310 0.7770401333940243 1.3488072442928933 0.7386273246255254
2600 -0.26385481138637557 -3.993871486176077 -1.7205900116199597
1481 -0.8990634264724959 0.8767040410427699 -0.44432947235591874
1447 -0.0058722870949226924 0.3152960743509464 5.101822692683566
1769 -4.529424355752129 1.1698307198528606 0.8351159252209883
1735 1.6544640452393924 0.7484763934444776 1.55096665264772
2057 -2.7235849885837426 2.0348899315719593 1.0597857009199523
2023 -1.319236203278661 -3.5191087707823367 -1.6042787418995867
2345 1.301289711167159 0.721694354014911 -0.38741180163485006
2311 9.363320342210095 -1.898827593624445 3.1153295499024014
2633 -0.39582720604822386 -2.240780577417316 1.915759842232115
1484 -0.1310642506244179 -1.8053888518585999 -0.49405018966911785
1482 0.29975883188866204 1.072529892500125 0.7045374808427448
1483 0.02226974952681858 -0.8662955647343322 -3.6464020351292974
1517 0.6079949660385432 0.007509066124024351 1.2317634496171863
1772 3.2376208845837042 -4.686637007407768 -0.5890545678288468
1771 5.185477982183494 -0.23718458500456566 3.041145153296286
1805 2.758191953252266 -6.6677497168887205 1.4783906799644009
1770 -1.00483302623194 -0.16032733510151945 1.2547935768682887
2060 -0.5465926324047643 1.1671969229692394 1.9131366798079352
2093 -2.0885424943261737 1.2198963104463891 0.5957198868983042
2059 -2.270249009274374 1.4266367276986813 -1.7500360844320964
2058 -1.4186953331780867 -0.12254231080177527 -0.7407971883485946
2348 1.088657408828925 -3.818616373551063 -0.8713089928969133
2381 -3.0076602131390318 1.3847582670951901 -3.099471848957259
2346 5.6120658633792315 2.3543939935050564 -2.198056505026325
2347 0.49056880154156735 0.495129703237964 2.6187364654708105
2636 1.1300910943318323 -1.0141182848247066 0.07215692858526813
2669 1.5351053972191608 0.5709111672516047 2.6775025457634865
1518 0.006921709928608311 4.238431534586433 0.7040922604907391
1520 -2.398714655834028 0.7496149983609812 1.7492162702459446
1808 1.5305966602562755 1.1951603326516067 1.9616394364974714
1806 0.1552548412815109 -0.12111485155206292 -4.719321081605302
2096 -2.3116382887191236 -1.524310942606127 -1.1734503114665409
2094 1.8772682720712308 4.067190034009183 -3.7565071352495325
2384 -0.9059927725925959 -2.3696950205865437 0.17132124896252102
2382 -2.5047140206436302 0.7006135655223922 -0.47905109859251216
2672 -3.245609468527497 -2.026035043384033 1.7443921368965614
1553 -2.3987657427507787 2.4901163572388554 -3.096727568442048
1519 -4.05359919925798 3.661263098759639 -2.2538698736877154
1841 -1.8275156696773092 1.6546538398360775 2.1285512013719172
1807 0.9251838674364211 3.8205976491692843 -1.5524297472493758
2129 -1.0553886072495442 -6.716164634652732 -0.286615365029527
2095 -2.4561717557049954 2.680975099364957 -1.070556658223656
2417 -2.2790344741557145 0.5084910491330572 -1.437231622232742
2383 -2.44958080777446 -1.776614222498886 -0.709794157774191
2705 -1.4303746238391624 0.23466672834291769 -0.6957757439675728
1554 0.4571769670634608 4.431511173415516 1.3831655820537065
1556 -1.6354765079802018 -1.5833166630009068 2.4361456518070876
1555 4.570373899991326 2.812566659354695 -2.2116098900979093
1589 0.3049589472941844 3.2391987721499738 -1.0033990151511525
2090 -2.2221585986354815 4.869972736560718 1.47510475947875
2053 -0.8723251809131752 -1.390721421448881 0.330123352062881
1730 -1.1949400833698243 -2.8343537564018275 -1.0192673018597522
2125 0.04538434872164993 0.9326023864147754 0.8730891444287077
1802 -2.0691393936559277 -2.2252892081128666 -0.7284831918531821
1801 0.20160306603627492 1.5013556654342872 1.574384307535964
1766 0.9761857311427717 0.47108757294127745 1.3375186616919272
2341 2.245974254610717 1.2601310048217753 3.259586756327839
2342 -2.5648857800400564 -0.615048073099211 -0.2200046384594584
1452 -2.0682984618708002 -3.399753834974398 -0.3452533968641813
1450 -1.282800392681786 -1.13963590933499 3.9544568821928596
1740 3.7555204702670917 -0.39913381640560675 0.9562984827730404
1738 0.07474432616961772 0.840258783778904 2.4275970526334323
2028 -1.4346798743533737 -0.30168649210675513 4.116734883065485
2026 3.5309892047439493 -2.7303812639419407 0.6605043260042658
2316 1.535791380765757 2.6564171251417426 -1.4247488753040556
2314 -1.6582473490117 4.825440622452285 5.020836231764043
2604 3.4769272430503873 -2.305240147029319 0.37798990813873234
1485 -2.4237295511919394 -2.8467892349093322 0.2735321367377093
1451 -3.3168517000701883 -0.19925127261407383 1.165292544316012
1773 6.9197182273694455 -0.5605696378291452 1.435660077293326
1739 -1.9198658016920551 -3.875210078639578 -2.3445906131890926
2061 1.7750080142867857 1.890124932324075 4.8559194858254005
2027 0.6960757123409298 1.3218950143085826 1.8148663525434745
2349 3.9066688233708464 4.072225253430702 -2.7250915636331228
2315 -2.0722489424525596 -1.1409245698831754 -2.5883848958438223
2637 -2.4894437584134983 -4.462089569740345 -1.8486517457619691
1488 -3.210406853724138 -2.191574146996012 -2.878999767146154
1486 0.6422322550309179 1.5169491266083095 3.452856384587895
1487 1.5534036733121852 0.054776347705601386 -0.8723225114780385
1521 3.49621672043254 -1.841589925165198 1.902942990568335
1776 2.9640807958983233 -1.2778668972954466 -2.6846776259076623
1809 -3.6845500544361887 0.723275590848054 -1.412167560437708
1774 -2.005252228772096 -4.529198780827303 0.029785834722162348
1775 -3.3679013870865973 -0.25321195341342784 -1.8498899597539118
2064 -2.1433859349956883 -0.09589337665632026 2.1550134857723027
2097 -0.9208914725102542 0.6846630060595669 0.8634471376758595
2063 0.1571969950612815 -0.5937272704581528 3.4169236389925737
2062 -1.0540046547828112 -0.427348268861337 2.458478590389256
2352 1.9498718937190627 -1.1231808935748133 -2.8606756806853983
2385 2.9238119828673015 -1.3018840348745535 0.29879424020095485
2350 -1.989208825348288 2.7804400805864087 3.570007096492678
2640 3.8093374863152634 0.8640803233862262 3.24648012719978
2351 0.5770020785772442 2.9908898910090365 0.1296557254824495
2673 2.968710987564564 -0.7635234112260663 -0.04919392311338847
1522 4.025132754009298 0.6676182329322438 1.3204100776670271
1524 -1.2156169195223971 2.5903347899651026 5.793166115559496
1812 -2.5407317446072004 2.184773328515609 1.9928048712905861
1810 -3.61203529983841 -0.3399063595435258 0.571606079832523
2100 -0.5890376128741361 2.2009521394840568 1.6517813676056066
2098 1.2101092408135536 -3.7752879067723923 -3.319427618613848
2388 -1.1640179185227613 -0.22416501760919885 -1.5562419008397081
2386 0.10541671662789989 2.783925548135547 1.0094208319729723
2676 0.9932944755493551 -0.09859214466877418 -4.827239466581929
1523 -1.9906871107122692 -1.29214410871188 1.4680887030026541
1557 1.6521647790625764 -1.1339569896106518 2.290607906909921
1845 -0.5385017718611405 4.669347835812453 -0.5594407035447557
1811 -2.9488728987114587 -3.496717765205441 1.3221054682331326
2133 6.278542979517183 1.6085272585785497 2.0919982466175253
2099 2.0241982811579824 -3.0244555333601175 3.0707383609889254
2421 4.606847023786631 -1.6319901717509033 -3.640966959359282
2387 2.997380511086354 -1.7859177375313122 0.2275695348490734
2709 0.2148984523981959 1.0910468058356086 0.3101463294988745
1560 -2.9170812046317596 1.27136808522492 -0.9042621080695207
1558 1.2316607582200905 -0.8505591621909293 -1.6298550753922985
1559 2.867051489743483 0.8271001582333597 0.13260522229282432
1593 1.316431987642973 -6.104128995415237 0.9690145749429272
1881 -0.4507226013923693 1.1712666478522742 -5.433480104149114
1848 0.9435930782627775 1.777342303733354 -3.1829054708966664
1846 2.1356981731900544 -1.5718661793570041 -3.955247617497625
1847 -6.457219635959052 -1.8499362352950959 1.7520658509518854
2136 -2.01863923290313 -0.6796416268882568 -0.5646549127135428
2169 1.7999802990141052 0.0813979110090914 -0.856536702828814
2135 -0.5339243542458866 3.6227974688734905 -1.5930395792504746
2134 -0.9831869089292117 0.7946784939048085 1.740211169846995
2424 -3.38800322602228 2.3003965375422597 -4.341790036607864
2457 -1.205079534749573 2.5906435629540563 1.8403981689781437
2422 1.029339655310396 0.9489907260347773 2.814928283890882
2712 -3.9043720611189663 0.13679134496430562 -2.829231242454396
2423 -4.619481283819898 0.43318544699275086 -1.6541884520816186
2745 -3.8248157623118195 0.47001515360893853 -0.8384156509235324
1456 1.8871874441581258 -0.21036725322040917 -0.5679993547086635
1454 3.2546819133990414 1.1821012845629078 2.8936560544484
1744 -0.32996366221302975 -0.5776589030555309 -0.8509739838034442
1742 -2.6462083205785905 1.6495635701215223 -1.1517111305242909
2032 -3.70533244811666 -4.522271547272189 -0.0751478701372846
2030 -3.6123870153742708 0.47418437227223886 -3.748523696448987
2320 0.13708819935830469 2.983952108814128 1.6483699786609045
2318 3.5964275861708086 2.627026750203562 0.23658656918378584
2608 -1.3096921264308174 -1.6298179979390504 -1.0365155440049705
1489 -1.7576376009679027 5.227146064526061 -3.8399883579479237
1455 4.574526289551718 2.2128680295490106 -0.6387767139324898
1777 -0.029805290642272646 0.08670806129963272 4.6610519981068785
1743 1.2317869999773143 1.0361150428469248 1.9958672736767882
2065 0.9876961864134233 -5.363453802949779 2.894249869436795
2031 -2.428365185619875 0.04808105713414494 -1.2019912746149801
2353 0.8436070082926119 -5.100381464849379 0.19257915165979084
2319 3.003795693275765 -1.6749826327485244 2.138314643185283
2641 0.4077757771281883 -2.259731614634129 2.999550774843123
1492 1.1943699451841951 -3.2583633955537747 6.2840149283213895
1491 -1.1706209590127095 6.210460582596334 1.5732647905383204
1490 1.70083864392934 2.7845939393503056 -0.20055824619555743
1525 -4.249945937286213 -3.436946174383921 -4.714952384757477
1780 -0.24222485983685849 -0.9099257209797534 -3.385606587289051
1813 -3.2360782474742833 3.0517231341407722 3.446145287180929
1779 -2.4914343802064014 0.7341631863813215 -0.5924798209537446
1778 -4.190906045953494 0.05672605206311505 -4.236788637094001
2068 0.021781601882430446 3.6250415555134268 1.917680928225544
2101 -2.978720019350607 1.8587287062093192 -6.933432988935571
2067 3.363301079140475 -0.6707520788009608 0.41029831686007673
2066 1.0126994023706601 1.143151326034358 1.0547312411830545
2356 -3.2977058620116524 -2.7761436063515985 -0.2559805504833452
2389 2.77072488781747 -0.19192690670895438 -2.7769687506742584
2354 -3.499931409183337 -0.9447193713707231 -2.1901217724704605
2355 -2.5900500317125914 -3.7661278439791452 -0.08678069184335045
2644 2.2305515499381823 -1.8348054438957062 -0.09071664292797882
2677 0.08635054985069458 -0.4617574991498966 -2.369162359153232
1526 -1.226624489939389 0.41241034564953977 3.5750805114530078
1528 3.8118306486221507 1.0336521522314401 -2.1498472120155405
1816 0.6401325751353105 -0.7342311485464361 -2.535385375850954
1814 0.9519084240684914 -1.1361630487871357 6.388988608272375
2104 3.191038894726406 1.1995694194597315 -2.4568845322782407
2102 0.6114871444325971 0.24205673271596617 4.618271634629981
2392 -3.1565795900983957 2.2104017939075025 2.0412060941023937
2390 -1.889745917813403 2.694343572517001 1.3522237273543474
2680 -1.0628405996072905 1.8544430625121713 1.9061618986224536
1561 1.2279682635924078 -0.38872268833827933 0.6475290896933564
1527 -5.303218167083099 -1.322145944974605 4.420071484768317
1849 -5.183573300419822 1.2716130880422045 0.32167558742534413
1815 -2.1482625784669787 -1.5098394441217886 -0.9848485283759773
2137 -1.3042798939783466 0.9983883315058519 -1.0351249445050361
2103 -3.927303072197789 -0.4197607933360669 -2.3071553674464744
2425 0.9895225161539605 -2.9564984881258733 -0.5431219314845506
2391 -1.003324575785415 -1.0872484812262029 -0.4847525111066297
2713 -0.047914848053247854 -0.9283885094965966 0.3232230597450107
1563 0.8497581075401462 2.002529739474241 0.7083984582321854
1564 -2.343768961711712 -0.2240586712493399 -0.8434395785957062
1562 -2.7703596040625453 0.36503134046402513 -0.833802095392198
1597 -3.0030139507239797 -0.44771592506778457 -3.683804910904901
1852 2.315839169372263 1.7647955085055287 5.057105550722286
1851 3.526123521986048 -3.5172340769883017 0.30552907567209575
1885 0.6678555336297834 2.189243799384393 3.2552224533590013
1850 3.0641366835186274 2.7553202360117957 4.162493639303039
2173 -0.8028051897576917 -1.5472350953229617 3.4544420876565423
2140 4.509425699026395 -0.47954392189156936 -0.6959072957206993
2139 -2.004089440494374 4.018888191311052 -1.5164940591247151
2138 -4.6321536988089616 1.1514685636403 -1.2101743298334473
2428 2.084697047199278 5.076018091743927 -1.8020606405786166
2461 -0.4093825215375549 1.2138649126225127 3.9485544702173345
2427 -3.10464922848616 -2.875303787178762 -2.2248852523305556
2716 2.392661255962218 -1.435795701368241 -0.7394829185368885
2426 2.637856091349939 -3.8477202261422714 4.250851329141001
2749 -3.4404408099424266 -2.8286509540898432 -0.9648803230673658
1458 -2.1054076578776115 0.64240266509253 4.058784190309254
1746 0.8694912835947465 1.4835252254461426 -2.5425026476817076
2036 0.6819554831012464 2.0209823069572947 3.2059439944283747
2034 6.1525965732618815 3.660573451726785 0.3949334372052209
2324 -1.1107446660844347 -0.2618290658357392 3.120616761216232
2322 2.9929604308801063 1.052955310527527 -1.300802576446927
2612 -1.969489291998118 -0.21910365966726086 0.3005791538040372
1493 1.0767550309934415 3.0433413322491902 -0.706416900427714
1459 -1.2443377670525086 1.193291671639869 -3.437312367145347
1781 0.906594723008947 -5.3500114099261085 -1.4704948769428157
2069 -0.6276648230889602 6.181042417174499 -2.3632764845772654
2357 2.1884219736587833 -0.929355772104747 -3.1736422325811833
2035 3.6535409768457106 -2.91912735818229 -0.8032825690143309
2645 -4.478383017711909 -0.019833607375233365 -1.1856249493561535
2323 -2.860323983250438 -1.608027368571195 -3.776376959937411
1494 -1.3617373327590885 -2.8248512882603265 -6.199925341174796
1529 2.885125977789504 -2.5464768042145853 2.7985841794866015
1495 -0.20224160038400038 4.678600487470553 -1.1706192136169573
1817 -0.1376209310124155 -3.6880932760464407 2.5193008179855885
1784 0.08108701036360143 3.00603177503052 1.0436230594638283
1782 -0.5416863547543306 1.9706710502631155 -0.1284815439526479
1783 -0.6122258178432557 0.6236234069511742 -1.3819655132962438
2105 -2.0077289928638202 0.23874108867794216 -1.691276212834198
2072 -0.5826812014079638 3.8214548472270744 1.2511631527597609
2070 -0.19501045628793195 -1.1985920472754255 -3.4764788069497423
2393 -1.8828529669456453 -1.3734612732301723 -2.3828806635533715
2360 -0.9334611716615313 1.7635070329228173 1.4006489880444062
2358 -0.253234532539697 0.8569903041776403 -3.586712166095728
2681 4.846633109781638 7.475793142982886 -4.908742325241392
2648 -3.281431877479009 -1.5162622844380567 1.414210484108781
1530 -0.42541197842970907 2.512278092935791 -3.1011020966788503
1818 -3.597156766875599 3.977230988873461 1.0192516709958779
1820 -0.5269764966543673 2.5145609666758832 -1.6187291346373236
2108 -4.920724915064178 -5.374598250292035 -2.6398881015480082
2106 0.1441369821717685 -0.9981111796253485 -0.5039584446977261
2396 4.792563938987108 -1.1275793926342013 -5.859377399377032
2394 -0.43478935140574415 -1.3465611193424447 6.484270403423332
2684 -2.2356703278435965 -1.704983192861628 2.074827504071907
1565 -2.6491687034851394 -4.6441350801467225 1.8368650569113896
1531 1.8075718212507537 -0.41918307281157896 1.795610205406823
1853 -0.8475728815490802 2.2752736732082637 -4.957359006129879
1819 0.49754376052011323 0.29891059560145555 -1.0266694974054753
2141 2.340685801599245 -3.583218940540129 -0.5568424397710761
2429 0.1313641664129694 -4.537258606383357 0.12338198073204797
2717 3.723301700405625 -1.0160921849772588 -2.8459130393898335
1566 -1.7597689689144336 3.650069244157943 1.646104152613265
1601 1.903214792592737 1.2225983183036722 -2.054260771401508
1568 -5.429263838044429 2.1347390195187215 -1.1703028414114542
1889 1.2197140767482861 0.4204839463338271 -1.5488026949197347
1854 -0.5621747162776025 1.1864079226486923 -4.069203415349367
1856 1.177143808644743 0.9942425524304538 0.7800483681962671
2177 -0.794266321004339 -3.591522331509369 -0.8635560125179013
2142 1.5353496657151111 -4.924581734020944 -4.780392740864028
2465 -0.1726279607255126 2.1121760602455137 -0.4643234166667724
2143 1.5508383291644021 -1.3675241806757092 -2.6009775257216097
2430 -1.8480347601384732 -1.8809843309075758 4.851533904849296
2753 -0.45777510050443504 -5.3141151189839375 1.7499579876212032
1460 0.33302181005930376 -2.3566270590995715 -0.40574553773100047
1462 -0.8147011666409075 -0.8509189609178017 2.2556016760149875
1748 1.6002006259894872 -1.6274386149199864 -3.0437547495078463
1750 -3.2740862616700883 0.34300199141560256 -2.404865238481894
2038 5.3090856273305285 -3.225223294324071 5.6745813874276605
2326 0.6987474565014272 -0.17894154803553317 5.115963249976762
1497 -2.169929952299672 -2.0310450425405824 -0.34088628063232035
1747 3.260716859754673 2.8108042155394526 -0.6280139225018991
1785 -0.22465798421440844 1.6505572191552444 1.6221497155886435
2073 -0.04688834609656405 2.9563048670790706 0.7015637766126116
2361 0.9839291381516869 0.8506357869661006 -2.67867208523351
2649 -3.2294089284834366 -0.6644529326007378 -2.5557416086993987
1496 -2.221785558707565 3.9796300633091257 0.6124248968503334
1498 2.609037655895722 -3.5512250195383612 -3.966711759559504
1533 -0.4719877063630614 1.6548082764953433 -0.5487972933171125
1821 -0.6637654713342267 1.391261960782683 -0.8545788832390829
1786 -2.573566165579596 3.886619352209405 -2.4263811888892897
2109 -3.8595725291014396 1.666223991136791 -0.7304490324512781
2071 -1.002232902623618 0.5368383119819105 4.563311879766989
2074 2.876064635121781 -1.1464968925825534 1.859473568969031
2397 3.433688006640141 -0.6092937745419504 -1.896284672377018
2359 -0.33449662523960993 -1.4305657307584123 -2.468093222867696
2362 -2.2588991421306535 0.9264803481822989 1.4995947214361804
2685 2.78669732725762 -3.340661310763761 -3.0649280066997164
1532 -0.30708487602685236 4.791151339613398 0.7022689603752567
1534 -2.3255094037373722 1.6544622335697188 0.0534023793553589
1822 0.4984748847605094 -0.04090357374715576 0.34659807599298503
2110 3.389958120419097 -2.0911161891929444 -1.4766017632111272
2398 6.5142059474762934 -4.029838148551771 -0.11059591754119254
1569 2.2876154600203025 -2.3457112783266925 2.902053477713014
1857 -0.4935240764611844 1.910694650188505 1.0903589772077562
2145 -2.0044460923486085 -2.975012785011991 -0.53151514623604
2107 4.094933503791916 0.5843576828397354 2.7424554763489284
2433 -2.2497628049877316 1.6324175453372072 1.4136489717606673
2395 3.0989516875660077 1.8278725113742742 1.3800260325875457
2721 0.0018470093057900922 2.4106813465398957 -1.4525656992841058
1567 -0.4978241266263882 -2.340028563890977 -0.11253563969060008
1570 1.8170410008561715 -1.0413569439128834 1.091968804848761
1605 -2.1111982572290313 -3.201943988311865 -1.924041328201067
1855 -1.408763725150771 -3.1561523659854536 3.9037568977815997
1893 -3.369643726256542 -5.049955558226711 1.3354078803141445
1858 3.381408616089503 -1.5098738619563732 1.1397565177689177
2144 -0.1767872839525244 -0.6191686473189104 3.7119433018043506
2181 -2.3526352959337946 -0.05369534201359846 1.5540962182404254
2432 -1.313226973346023 5.181911445599164 -0.5831309451230826
2146 4.367734602237961 -1.7535932509477352 0.3021073814896347
2469 0.07464487048407158 1.5038762890722526 -1.8741268033391338
2720 -1.7912202980035825 2.476550489838926 -4.2326633729911025
2431 2.378105900346971 1.2665678398399731 1.6424373785576416
2757 0.42192079595681947 -2.6189361623165937 -1.6553301618189211
2434 1.9915262322344471 -0.7241465748873395 1.1113008996431126
1464 -1.243706815095898 4.80008331465091 0.4332723765946698
1466 5.141630711012154 -0.07790801594840374 -1.4937010485848587
1752 1.2036981808077019 -0.49261691711504607 0.527243023138144
1754 0.47905941292922744 0.16666776325408153 -2.2186349189802814
2040 0.2910363844738088 4.366967660265372 -3.1513867070243564
2042 -1.7137276704830944 -3.547283626215669 1.497481446940945
2328 2.1197155437824944 -1.794057398411267 -0.597508256335879
2330 0.4006510939902408 1.267267562302707 2.3517396689202754
2616 3.4598639025006026 3.001342781588817 2.284976421422878
1463 -0.9576292668765479 -0.9269494942389149 2.1271907305146103
1501 -1.6449182234582336 -1.3564740387143919 -1.752129917093924
1789 -0.9608150898527182 -0.5098949223060965 -2.2719484271599932
1751 -1.3050686339802033 4.295773300173752 -1.465084018559976
2077 -1.8507016553099167 -1.9208654837618633 -0.7930541451528486
2039 -1.4414223597113895 1.4878914949633382 -4.676578426573308
2365 -1.213693183937701 -2.0888935746769977 1.4941171385551582
2327 -4.866041776531198 2.0185964385196677 0.8058132933535496
2653 2.4430826602482947 1.1276470041992388 3.2853945260045276
1500 -4.9193349837722415 -1.2534591991674737 -0.6802647713431182
1502 2.140278301622914 0.7170765087014669 0.7397939785588104
1499 -2.24364788707121 -1.1505703970014813 0.2052071723802472
1537 -0.42117355618998575 1.6747698487677196 -1.4866480001773879
1788 -0.8600848554170036 -4.582374093623986 0.18065382877630462
1825 0.415134048993212 1.2198451755657955 3.4604740356999057
1787 2.668914031045628 1.889316262454917 0.6368251349807295
1790 -1.0927313179461262 -2.676870675485404 -1.8304462982502072
2076 -3.528921819819984 0.13136137803704395 -2.1398555799431103
2113 1.6893816994728386 6.883863765683974 -0.7072957423588897
2075 -0.8425646504382893 2.7628922643260516 1.7325328213086237
2078 3.2773549106427 0.5718656051996642 -1.3438833311779814
2364 -1.8193102138523136 2.5614164401725366 2.919533577809463
2401 0.7736062415675594 -1.9787392011957603 1.8571953949031936
2366 3.639508262903994 -0.4730164217463437 -1.196869134628445
2363 -2.6536758730798415 -1.3015348224179601 -2.578474363536088
2652 2.1126906397019525 2.018535495649001 3.1484339350089594
2689 -0.6948238313112761 0.0013249583599812852 -1.4201785598896748
1536 -2.905146553288052 -3.9045258449995144 0.38696260020337514
1538 1.8798399495173568 -0.39999672151023846 -1.9802848904911763
1824 0.4597029432783567 -0.5837499822337884 -0.9186846002193121
1826 -5.2515576871555805 4.578422609123507 -0.6621350407304045
2112 -3.230630779478229 -2.006923222867271 -1.1319774008373127
2114 0.7342786429022099 -6.017788385302662 -4.168857342326976
2400 -2.7947609647764984 -2.7615878753259504 -1.2337337389973024
2402 -0.7240315211339348 0.8424907425398368 -0.16074044693107312
2688 -1.0328122588289 -1.6030811359524773 -5.134658542171142
1535 -4.888423260650416 0.4576526574431902 -2.332276800551725
1573 -2.686765942201916 -2.277562217877092 3.7497733798896844
1861 -1.305144625906357 4.5640097984507255 -2.2747866884951304
1823 -4.533016961237851 0.30651795243181196 -0.2651655898623486
2149 6.586122177596358 2.6937970430756066 -1.9787542316913656
2111 -2.872737900955723 3.1018101388029007 -3.8219701942861115
2437 0.5520959398909168 1.1108536938551752 0.38413457170542054
2399 -2.022497310476639 1.4581156324956261 -1.5696032706229042
2725 1.7762047565713508 0.4077149148695214 -1.6894975194403667
1609 -2.5156915527436112 -2.275700332993057 -4.240277085392528
1572 -1.6306814503955076 0.5357804790139827 -3.0912950615879256
1571 0.8685971095056705 1.3105068649352076 -3.4502486217870802
1574 -0.48373453170032565 -4.584493861626659 0.3109478158841794
1860 2.187002103816527 -1.8228353012417096 0.17863216474291294
1897 -2.042767793801147 -3.6034466433776915 -2.4010012892069077
1862 -3.4710975661237295 1.8561822313495802 1.1698518679429841
1859 1.0619220256101 -4.9152469434223365 -0.9492193664509436
2185 0.7858659419142469 1.1754115119844348 2.1336162659871905
2148 3.449546701853487 2.91065506225659 -1.1417701394741597
2150 -1.1896092925838384 -5.845061994853553 -3.990563549394915
2147 0.2559173589240416 -0.08311515935259815 -0.0712996932576531
2436 0.05695460959535839 1.9333673810386578 0.8487676961228214
2473 1.6683733152114377 -3.529592536434038 5.450498276686903
2435 -0.32889445926481886 0.05056496136255121 1.4075706182589087
2438 -2.122412003777269 0.6944945836836568 -3.569731315803878
2724 -0.3362627265612525 -3.804593337725185 -3.977175863636461
2761 1.1016045919880622 3.913067868778734 -1.2084177429658987
1468 -2.1753132911682616 0.7566909736011198 -1.0107055029412764
1470 3.4131814026612686 -0.020392653612244394 -2.5427529956186077
1756 0.3431045657656258 0.9844071405744927 -1.2036071961035126
1758 -5.308151304336577 -3.5021381313790965 1.4823994804767902
2044 -1.9173248077233311 -0.9411291958128734 -2.3230844440905356
2046 0.7467876094568607 1.734070964187938 -1.729007229165113
2332 0.3834421250174169 2.7447363624475942 3.6075078064414123
2334 3.3827129277363897 0.7682449001271898 -0.9588436310042884
2620 -1.5184646463913551 2.9836571104981817 -0.7581862784295487
1467 0.8156516174817109 2.3815722623961366 2.776603557361522
1505 5.819984414721716 -1.9640367374994987 -0.8804300792825996
1793 1.4051834065504936 1.7299459086225297 1.3325731795084463
1755 2.769636170343957 -2.8758271139939167 -1.7624125796025434
2081 1.7516056781514686 1.7483411552545831 2.2030539866480474
2043 -0.5281034910620378 -0.7467629702287183 -2.413562998958919
2369 -0.19793011703090882 -2.7166456029207287 -2.7997601731530395
2331 5.656573913651476 1.9818465097314555 5.798440014377215
2657 -0.09707774468260451 0.3906670705621824 -1.3809041084607172
1504 -0.9504647525948619 -2.996647355662665 -0.37666397338536545
1506 -1.856660443711849 3.877858486578892 -3.0472109572392854
1503 1.0149289263773997 -2.386565085019425 -0.70140860302453
1541 0.13565527404286454 -1.2084368193992105 -4.321344849153148
1792 -2.005295954989875 -1.3138161380896722 -0.6049003809796553
1829 -0.40669748576074 0.5691354334492954 -0.5023344355058748
1791 1.416015784622203 0.5414798824329031 -1.6003906061349635
1794 -1.6695957538708652 0.03494677245318716 0.011873631919943709
2080 -0.7903706692209823 3.3732625216660317 -0.7163708968531008
2117 -0.6051165057914826 1.3157339093202975 3.6664662085391133
2079 0.33097847750696086 0.4963535565894914 1.858282266029566
2082 1.1630305430682195 0.5738875154781536 -0.19701276081479951
2368 -2.2572303758550563 0.19887009661675698 3.89194596879947
2405 4.320398450857458 -4.736506931057366 0.9473417041153551
2370 2.528702967196265 2.7250558967072127 -0.8986868636700969
2367 -4.084991560866002 1.3342352528699823 3.6472903802951064
2656 0.11912969510920943 -0.6593808623904843 -0.4755586550231958
2693 -0.8617901940113781 -1.526957993678186 -0.8359878607593588
1540 -0.4023619167680163 0.09540771968123035 1.672945132507281
1542 -2.590509991672766 -0.851450104896869 -0.06926634747694255
1828 0.4079741728375845 0.9787090724051014 0.09325504236277285
1830 -0.6633961765534236 2.7040596750780543 -3.517408701274966
2116 4.733220473647281 1.6564981514547392 1.0328067320936771
2118 0.5875799110213893 3.7181636237208417 3.031022350659148
2404 -1.6721809322980727 -1.7845629162288899 -2.704504311127827
2406 1.1946081146974419 -0.3033440976481579 1.9675881301207918
2692 2.2264974569406424 -3.6002813381421452 1.9003504487890353
1539 -1.928539412477835 -4.966841295601078 0.4213372978848685
1577 -2.762632738405903 1.4334668968207223 -3.0870629105918743
1865 -1.8012853522032437 -3.1628078581304386 -0.4976123196006574
1827 -2.515035879908547 -0.2824836498665836 -3.292385925582465
2153 0.9980419514969874 1.0457405740417067 -0.3980404633342044
2115 1.361572358661341 -1.308801227880691 0.4937544583762203
2441 3.3983252937874817 0.9033494139754528 3.033939981487775
2403 -0.8270510320624959 1.9296538114231887 2.6183987365157337
2729 -6.525018018277537 1.2130774848450283 -0.3264862620850243
1575 0.4724538299492081 1.845544332986769 -0.3639866468433786
1576 -0.4641816412548875 -5.022278437376984 -0.34821043869316576
1578 0.2644280014447678 -3.011151369709864 1.1676398304024163
1613 -5.8578605350381965 -0.9502534696009901 -2.218883542228887
1901 1.7292811072643544 4.059015898795405 -0.058696740223405604
1864 -2.366059835708998 1.7127612734729936 -1.762460170705119
1863 -0.2741625074205545 0.20782892717547755 -0.19015520903907293
1866 1.1472016512878185 -3.9273476983308084 1.5000814473722786
2152 2.0425739588613956 0.4455526818794518 3.8876932879242796
2189 -0.042951567781649845 3.930139821788245 -4.137261403476076
2154 0.357035607599692 -0.09840595067142097 -1.9904857079192904
2151 -0.27349998203002773 1.9113877372501427 0.9573982038745746
2440 0.42670251370994206 -3.17634879448639 -3.9886877758219463
2477 -0.11487731672724735 -0.5155257163276423 -0.9073286087234439
2439 1.9633421453556712 0.26734599150049737 1.4560750741564534
2765 -1.3265211709665574 -4.255055826503259 -1.4744571400310944
2728 5.823555652858198 1.269827089972471 1.9793282829471315
2442 -1.4656728065569247 1.252294177435933 0.07211788248823718
1472 0.5294404974645102 1.4884263501075514 2.7511100249291043
1474 1.507209589461982 -1.055560165014805 0.7400046768314694
1760 -6.595011779020806 -0.6752607290891482 2.459381439430003
1762 4.272120172154824 -0.6221377693889555 1.137990038453575
2048 0.1474864546687618 -1.1505045799707123 1.7513850103857969
2050 -0.2919320228169988 -0.39061252261369145 2.8578210697408535
2336 1.737457094285789 0.8568880056789929 -1.9201276476573066
2338 -0.969341688047787 -4.964641907696663 5.7789407014114555
2624 -1.6723006155484255 -0.6751813346062583 -2.135827529236403
1471 1.675067712353869 -2.2017904049756942 1.1082448959518603
1509 4.317084328475236 0.6557991601785058 -2.892671941340353
1797 -1.2832922259544717 -1.2565068596734301 -1.7282641473653901
1759 0.11601200156567068 -2.4778875658400157 -1.0555179392396672
2085 0.20727425560738935 -2.0200341161640467 0.7497246981351309
2047 2.5500885640035227 -0.8222573684041048 -5.020353674590922
2373 0.1528590634752095 0.6168336146037837 -0.7524206216674137
2335 -0.4001913969561875 -3.5316551695356293 -0.6404347391230105
2661 1.3098352188766822 -0.433843485986434 -0.35777654505204287
1508 -2.944772682769432 0.3794507974652772 2.1536818451651962
1510 -4.323141747409896 -0.03863566796866335 0.6542782686732485
1507 1.6775141696593645 3.3623995233977464 3.265326972707912
1545 -1.521872814911086 -2.5760589323965495 -0.9974850161154218
1796 -1.6743561710757973 2.277639092465489 3.723295230454123
1833 2.8219093759380813 -1.8910393564246906 0.796601585653095
1795 -0.15024054945137016 -0.33418012339740677 1.275057427040156
1798 -3.1151480120784805 -0.46598223065675615 1.048933368304588
2084 1.630481483375771 0.5698461707678935 -0.5635080875821388
2121 -1.9982686025770762 -2.984497906308377 0.37226804966537347
2083 -2.7248132347437446 -2.759395889848509 1.1947117582820292
2086 -3.526368100598831 -1.675205140619743 2.017293457340281
2372 -0.7410947530014275 -0.0012281273634162132 -0.9924667523626798
2409 2.785808093783414 -0.8393357939028023 3.3536899367926742
2371 -3.3897469189423655 2.1594540654060648 -1.8463348835918796
2374 -1.7905100245068681 1.3705761758447477 1.9750940818899962
2660 -3.363095855892925 0.2926287137254974 -1.1329320880133873
2697 -1.242128176215296 -3.372431152880477 0.29739287948683213
1544 1.6487868525523257 3.823800644597334 4.002414084016517
1546 0.8808013445299974 -5.661297020781609 1.5086209204175116
1832 1.6392148046097008 -2.234761211702524 -4.884293857884256
1834 2.601530237431669 -3.7311202250105664 1.697251871820054
2120 4.688665108594054 1.3479281973886257 0.7774163786516431
2122 7.766006285314183 -0.04822296322220948 -0.34278313274731664
2408 1.2728049131829438 1.8428628317797675 -1.0320422050120792
2410 -0.6366346388952022 -0.4585475888485981 2.0710183489672565
2696 -2.7821800949427216 -2.4192956360013564 -4.277150771550371
1543 -2.3102667557342267 -1.072397530835444 -0.4119741650657482
1581 -2.2687054319971494 -0.962601993389386 -1.319180479073608
1869 -0.6442935828513741 3.488327552730314 -2.7233157331093474
1831 1.5125932829343736 -0.16993158896995522 -1.4579573541439967
2157 0.4182246091420147 0.589622431196124 -1.0845812485155348
2119 -1.3025993958290396 -1.4500646495731282 -2.5165777709584862
2445 2.7294115527246623 -0.027304920814088453 2.0304115259060094
2407 0.14389323929187836 4.858700794033182 -1.9743272758159225
2733 1.513749998990552 3.6349876451018006 1.9481129899371596
1580 0.6496342270745277 -1.0075098811127092 -4.3642958457399335
1582 -1.892401012546811 -1.0123147359959748 -4.137422405209193
1579 -1.6416218148674755 2.3877655175941426 -0.6739240740467785
1617 0.045697943505420745 -1.326235144469599 -3.8554929129636495
1868 -1.0745756635526404 0.11526577609901809 0.1315927700048834
1905 -3.3809749375791496 -2.2910226767188084 0.4034288813339133
1870 4.134793763370104 1.1216642054623773 -0.9787825528673265
1867 0.5037465788102498 0.4282575367112844 -2.355848747094178
2156 -2.218421320428378 -1.5199692748792413 -1.0323288091754628
2193 1.4221108214942402 3.182652802251809 0.45955001844966775
2158 -1.3367560548943935 -3.187140437759824 4.072205101768036
2155 1.322338111236301 -4.6676910519399595 0.6607357311318801
2444 -1.4276933688015796 1.721466466216554 2.885437038470588
2481 -4.2973689061273035 -1.1502031183835617 3.769142228875652
2446 0.28263828727209583 2.190058028297641 0.8871126308822609
2732 0.5596458758290419 0.6131123837168252 -2.8389151196501707
2769 1.3541389424732497 0.8218705174393733 2.253799617893346
2443 1.298422729118743 0.4536704070635521 -1.1636728147279372
1476 -0.3085759484294948 -1.8447981869199945 1.096806269969711
1764 -1.0646151979548137 1.4633999901088943 -0.5749226747610238
2736 3.2416502192833154 -1.0555979939401323 -0.0005754009008463803
2052 0.7798582973050132 -1.0465168800851234 -2.5884899574979463
2340 2.298070141679062 -0.4224324781877243 0.4651843504487261
2628 -3.339510531824712 0.01782031289031889 0.6009949205466443
1475 -0.15057647464559412 1.610087857980877 0.6579317542873827
2447 2.0710974346928386 -0.46144984686202123 -5.059199251104275
1763 -1.5990963331316932 -2.38389423981601 1.5550727726061744
2051 -0.60385193936807 0.9346970777417243 2.2742267329124948
2339 -2.585477722572641 2.0388048532858947 3.6500711668986066
1585 2.757339018989648 2.2613007533574736 0.9876139523256553
1512 -2.628077750574371 2.14184475831028 -4.211232278194419
1511 -0.15401683358724716 -5.431848016771012 2.6347684134107667
2448 -0.7220548200883351 0.08678460667910629 0.794351412198893
1800 0.7121014382684879 -2.1664129824699905 6.173665485668315
1799 -1.6236104113919434 0.38602389291590683 3.414392261368292
2088 3.428733219516468 -0.11528463154726326 0.18475191027882448
2701 2.7546498416597593 -1.317958607029517 3.333626583463076
2087 0.8987918883722477 -1.0770070632312911 -3.525494779348865
2376 -3.211344265398633 -4.194522033466502 1.5181010943874258
2159 1.8569049442752115 2.352493665241272 -2.938790248056863
2664 0.5926360631009547 -2.0942861353409086 1.329845752870323
2375 0.771604460304497 -1.2033520894170575 3.8553857112581507
2126 -2.169079537761114 0.19061271074615863 1.2127832795775721
1548 0.3532711973744475 0.45700991158863724 -3.242725748251742
1836 -0.0024469819973200143 -1.8364486346366808 0.8717803580558459
2124 -0.12410645631416266 3.7256915615327433 2.6997846278195166
2412 0.264248233803369 3.9392336884324535 0.47711497395486857
2700 -1.1837803983822355 2.061313770428281 -1.9805681710226022
1547 -6.124070051935246 -2.3272810896690994 4.978293584989076
1513 1.6159595881143147 -0.7566420442221877 0.8113642512325261
1835 -3.9218356129510967 -3.2218005649203265 0.5632418712723458
2123 -1.6265434282538174 2.013582992727546 -2.1261966820176976
2160 3.1608984904653363 -2.26732098958509 -2.4251778024810013
2411 1.2253871830000775 -4.086350898539561 0.5972033248266705
1514 1.2491372665269784 1.54824923406237 1.940321822767113
2665 -1.9932415739714855 -2.6699723316873487 -3.537761035500038
1584 1.2771030916115689 -1.23515486952839 -3.9297550522642166
1583 2.7402055720430853 -3.768398245233432 -0.7375380473444251
1872 0.04116196372030446 4.1393895013692665 3.1093837146239633
1871 4.008023782120416 0.18194612705184599 -5.324768254949038
1837 -4.522475076741305 2.192338140345454 -2.054961808281343
2413 -0.6974947728536348 1.8026454022861012 -2.2341173994470256
2378 -0.7175666333420341 1.8216088704322697 1.6485466067649552
2737 4.070107924767135 -2.628541184299148 -3.3005086973203235
1550 -0.5560597547524603 0.9490080586545449 -0.8798170909498358
2306 0.6326066263511014 5.824763480086812 -3.458073363913442
1765 -0.09442346789278795 -2.2692818499104286 -3.474128103281343
2629 -0.7838154469779014 0.0032288760372960394 1.5171957419289206
1838 -2.573913191632872 -0.7174554946272647 -3.644632225064705
1442 1.6523287609802717 5.592839895314953 -2.748978890583289
2414 4.778305360120001 1.9364716017154817 -4.566001425490643
1588 -0.2189386820129755 -1.548008594879379 -0.4936869790895858
1729 -0.8505377303267584 -0.3256595028568777 -1.8699749323158512
1876 -1.8850450074623633 0.5899069163532097 3.086790431385577
2563 -1.7714344681431722 -1.9137714821459622 1.74105033266296
2164 -1.4328308347596883 4.0976627891816975 -2.069802819699051
2452 4.491576781323657 0.589070061724389 0.5487301967718107
2740 -0.9692500959513718 -0.6075766446895118 2.851768339947322
1657 1.086902827107566 -4.850234290469525 -0.8013863382260956
1587 4.994319006659416 1.1093327728619444 3.4786563605277805
1875 1.377542431072726 -2.9145471693629825 1.7078023749294409
2564 2.835930548668307 4.499350985483926 1.2222012120048533
2163 -0.37339363925517755 -2.8071862977779682 1.60007514067573
2451 -5.240158270564035 -2.5195541216998136 0.29072117005047526
2275 -1.0307134547867218 1.2832920585741991 -3.4585200015624444
1982 -0.15596926723860416 1.7425517010524816 -2.60405799211525
1624 -3.2705802700986193 1.8833935488172808 0.7949652206738385
1623 2.1866847074603553 0.7818266873292374 0.28925765603042014
1912 0.6775701511764833 -1.5805855033842715 0.17676753582667268
1911 -0.23371278090457331 -2.621273494924233 5.367472645851003
2562 0.4019714009044486 -0.0448724342648586 -0.126304177990279
2200 0.5475579873616855 0.16372082027239368 1.2681236353840366
2199 -5.639499688861361 -2.6134759354568238 0.9234552051156603
2488 -0.5159896746066984 2.0562314542883797 2.098837932161666
2852 2.278183574748194 -1.4423867726386217 -1.523051183529721
2021 4.64224973922756 -0.2944060864054366 0.6702406939337415
2776 1.8791701926305076 -3.0342003459495337 1.8365549275368123
2487 3.7798333886930107 -0.6222413586394648 -3.4068059824195602
1660 -1.0350399161450727 3.2445219261189364 -1.90007817748089
1987 1.1895253783685067 -4.185140036683992 -0.8070680717758489
1948 0.004125318373034012 -1.093353852157146 0.8095484308890326
2236 1.5998028159936486 1.9257147694244308 -3.6239684505794534
2524 0.5850901097068452 0.2535504301172938 0.8577682381718658
2812 -6.33539745070253 -3.75913399016812 3.068366832200352
1659 -2.6213840446351866 -0.36262034318809483 -1.1961268989480647
2276 -3.3419785247119163 1.0069251552382332 -5.493854162046296
1947 1.560188858008032 -3.119154557071447 0.7166622078548148
2235 -5.696120816028352 2.5372315775302248 6.86550020444791
1733 2.3070510133273197 -6.23580662846455 2.8870478101841726
2523 -0.2557920337580911 6.77629180428796 -1.237720275199652
1696 3.253300585972798 2.4771422057294976 -0.9821076446275483
1695 2.7977240888290056 -3.6703954772052203 -2.8592865919376136
2597 -0.3505889287868723 1.5809321882394038 -4.506172372553358
2274 -1.8919191764508902 2.7973874484198302 1.7171162521222012
1984 -3.099090242745112 1.3844144144108679 -0.2364574078596615
1983 0.2306124869113796 0.7242194376038578 -1.4893189080695384
2272 0.4139083185133904 -0.19686446601987156 -1.4285571395419252
2309 2.699351947911302 -0.2098580333400963 -2.2157419896693717
1988 3.197515011162934 -0.8420626452018556 0.7450525582278186
2271 -1.3163720468460458 0.7420893442675018 4.885946498949706
2560 -3.6416780609336836 2.959384441676915 5.021439471183615
2559 -2.8657778803567764 3.885759593205705 -1.6427231983965374
2848 3.2778668068348122 -3.5624898151902635 -3.057971762523325
1590 4.569022210679345 1.6455926252444162 1.1862265722486236
1592 -0.5876952207145287 -1.4501305074269082 1.995358255843304
1880 -0.1848336494012676 4.299866417098529 -0.017224143376987154
1878 -1.600988647771931 2.783546636834856 1.9985873673332224
2168 -0.7098608631006557 1.0878701331088352 -2.5958362519521003
2166 -2.9301271665468636 -1.2759374127293324 -1.2365368180741017
2456 0.21813787419415037 4.094236754203746 1.4683389591465903
2454 4.0516310747681255 -3.3258990910921677 4.418388821915451
2744 -1.14967459300066 -3.3813616309837777 0.8976415850421787
1591 -0.2316396831320443 -0.9640254268525462 -0.3764533269149103
1625 -1.522436915855459 -0.5078378086140964 0.7260085893318569
1913 -1.2207101769913107 -1.3397291991007327 -3.5434602268512227
1879 1.22239188186114 0.9770842637710465 -2.240897260728604
2201 3.147651320398999 -2.7131692704626347 -1.7291289907247767
2167 2.6343572051201747 4.930273773678978 1.4630015258201114
2489 2.8367578339108444 -0.5267249987751378 -0.09961220308424502
2455 -0.9738133246288605 0.601168817887218 3.4876634323917646
2777 0.7606812718866711 1.2569611561037486 3.0112221185633503
1628 2.0481186512860177 0.5018173214575962 3.286922002373371
1626 -3.087276914420778 4.552235253196416 0.4042055823951912
1661 -3.5422211697259662 -1.0180694012612357 -0.4090767329930847
1627 1.8882898735274678 -2.7047133461699384 0.5825377924506672
1916 2.4218263353992646 -3.1147266697036264 1.88316620894434
1949 1.792059677966341 -1.3256188332951002 0.34575366641177824
1915 1.9891492239113147 -2.0355160028902013 -0.8003521298552086
1914 -1.6103311053494016 0.6263734030890268 -0.23108843217504427
2204 4.700257960962287 -1.939826460882174 2.2621062972046766
2237 -2.6722832873169557 -3.28176908602554 -3.252334663670887
2203 -3.3801615597102237 1.7547675734476287 -1.7380532658732724
2202 -0.40406950135729924 -2.7724052864002746 -1.2970333926301167
2492 7.72766342156829 -0.5925110031417099 -1.0968834825298273
2525 2.1114450437427585 -1.2048708844448612 -3.1641011949980036
2780 -3.609578918165699 1.6944527021055402 4.507810545555162
2490 1.8156288166213124 4.966969845804956 -0.04853350435788099
2491 -3.4164470197947843 0.7645211380832682 -2.150325790479101
2813 -3.5735074573332217 -0.11420964486200841 -3.1476584838461625
1664 -1.5669500833806846 1.5489353372088994 2.4714967292510455
1662 3.0406467637743675 3.572873395990423 -4.136646717544162
1952 -2.506690971690497 4.374106722215237 0.3010407792878336
1950 0.9034135010776858 1.4803372399214492 -1.9826362975402727
2240 -0.36049859961365593 -1.1927283744281427 3.0354608372472205
2238 -2.7356495110508607 -0.7117802875727118 -2.345647374165176
2528 -1.287266984610039 3.042377952816825 -6.089317693174461
2526 0.6654415104445494 2.061033292826859 3.53941066284423
2816 -2.579161135444546 0.972566660042537 0.04069748237284341
1697 1.559521682723625 1.9866417723034009 -1.3052605083050033
1663 1.673931086583427 -1.4814458801656523 0.4365285406521247
1985 2.2563825207836015 3.1956146247506463 -3.0379756022475295
1951 -2.0451343216156133 -1.4996444356344185 4.169780623001228
2273 -0.36473949986047816 -3.759025914381939 0.25383060348171277
2239 -1.6878826385365517 5.147748936685509 -1.2292454730879667
2561 1.5114348712625372 4.107201549080199 2.486670846095063
2849 0.0901036836349764 -0.24809844834233097 -1.819610935830404
2527 -1.4908312142504283 3.537745854796747 -1.5965311750588373
1699 4.9191349417079175 2.9048898997403674 1.5426186079080955
1700 -3.1355337681007054 -0.19442773123075147 0.008113340070065542
1445 0.9390428160592821 -0.4883386723444933 -1.8226920283660448
1698 -0.8726996688745363 -1.168972854367598 -0.9692124849935183
1986 -4.3186340922165085 -3.901588315192308 -1.3087433393919181
1874 -0.09287472095656713 0.4381182914215145 -0.1471132357872408
1441 1.9547885030296004 2.443879303916881 7.645399045370878
2017 0.9765739154413831 -1.8995109620162667 -0.2613807264394916
2558 -1.371371250655651 4.472741635887884 0.7637184316748881
1621 -1.11927884731646 2.1735636515605052 4.23173815204042
2593 -2.5211152095265934 -0.8434561020779547 0.20223362407723394
2305 -4.629344478276436 1.7148703179516882 3.1083526663744445
1981 2.179197319217014 -1.120392201358581 1.800662143691514
1658 3.826509254979034 -3.628517751362136 0.8732044190750321
1594 -3.974943825340444 2.9334033003264017 -0.38983504786639456
1596 -3.46444984102954 -1.0362769838961132 -0.5057097582434892
1884 1.0146171225476361 0.7928635506305989 2.284768595218442
1882 -3.321142794357563 -1.574456360397434 2.4457836676043456
2172 6.0238387161914035 0.5542663135880519 5.585022888823838
2170 -2.123946870040136 3.0768403984152752 2.695887779453726
2460 -1.7595702590201863 -2.699643060808656 0.1265163261473688
2458 -1.4988390744993612 -3.3419224929758737 0.46063258078972313
2748 -0.20684780662762733 0.508760099607093 -3.344459323872821
1595 -0.5902040520448991 0.9995243717874446 0.15717984438513383
1629 0.37882518273616 -1.594161176690063 -0.6981659191453049
1917 2.9216794200927554 -1.5602625592610246 -0.11202940007976216
1883 -0.9394870650959637 2.7779807826948226 -1.0950479684127896
2205 -7.2692552239218635 -1.6941938084443515 -8.489075287672478
2171 0.13303899435548186 2.272753930644949 0.20460742166775472
2493 0.42475250496933586 1.2562543958938996 2.741510200717389
2459 -2.545030819924921 0.36279403748192396 2.79374889172729
2781 3.8133013134364107 0.6862682583330653 -3.444597621145728
1632 -2.352461996673368 0.3949998338530319 3.786879729544592
1665 -0.5539794813529992 3.515591037610205 -3.601249453720625
1630 1.0347299984024598 0.5339142340147732 -2.599000185035919
1631 -1.571700866757747 -0.5469504485930232 -0.5528834260438102
1920 0.9262183560084892 -2.416552849304051 4.497730344354391
1953 -5.34876606766175 -1.4438006173589908 0.21972106839610708
1919 1.20431683632761 -0.715343981726738 0.18487182069130195
1918 -2.4299587709563406 3.753902597565204 0.3610938045666073
2208 0.8288469364642215 0.3085617567435005 2.0062641343950043
2241 -0.7981805894843621 -0.07762523718956739 2.553167474622883
2206 0.18877168679814632 -1.6643876272492306 0.4216104946711773
2207 0.09943554881200901 2.5394730287340965 -3.0335556644329356
2496 2.458399479947032 0.8743326930647147 1.5338653631996277
2529 0.4898101126669288 -2.5070497223038815 -0.5421646313184256
2784 1.5874360285217421 -2.5292939315850704 -0.8944903973303415
2494 -0.9607065123179767 -1.9362724688657165 0.5861703966112796
2495 2.0936969904925133 2.7515281874683106 -0.5596725104655652
2817 -3.9298124640466328 -2.675653346679621 -3.0803644585148744
1668 3.306951464146185 -0.8652508556148726 0.17906716038435624
1666 -0.425353830953211 -0.9492280135055962 4.3672842142739325
1956 0.38660543895757254 -1.8708447997166122 -3.2778366760601663
1954 0.42983914605945306 -0.6759482914369069 0.49883890314105067
2244 -1.8315994630014327 -1.409116697486075 -1.6819024424849036
2242 -1.1966494330215864 1.264612132418533 -0.9860907371093174
2532 -1.3734951890497031 -0.779364221305396 -1.013264828576324
2530 -1.7210497409644208 -4.395844757882282 -1.1088338298584226
2820 -1.3299828590645812 3.066012387251698 0.8027080411953633
1701 4.079867135897502 -5.645335786294556 3.034269409090261
1667 -0.9756036622669697 3.4687703855928453 -1.32693256476642
1989 -0.41643167964674116 1.9494442146561484 -0.09373428146730936
1955 -1.2141268842277586 1.806396204784505 1.865566452006913
2277 1.2223741496113314 0.20383456368767572 -2.4348418767647333
2243 -0.8773509088187041 1.520592466296746 -2.0954990648164338
2565 4.484970416391996 -3.2079531718623286 1.2409080364428446
2531 -2.0383318346141874 1.1815563480922282 3.4467585994919467
2853 1.1062413284389705 -0.4605956043291367 4.290847836986867
1704 -1.1172174454564678 -3.2039913701790503 -1.3419984797848317
1449 -2.1614446832897682 0.9748736032922686 0.7214859567025125
1703 -2.885000615534588 -4.931924571550127 2.410822818057493
1702 -0.5854500304804319 1.2812097622970273 1.7824064584494288
1992 -1.3103576505614287 -1.4816685960259797 -0.20956521234722966
1737 1.9769424501376083 3.5402742045648377 -0.3724260167760102
1991 1.5513749162056452 0.8630942242692904 -1.1000786378057428
1990 -1.414743169544853 1.0470932026819715 -0.8774990108190864
2280 -0.6294021622172583 1.5155606431836457 1.032823211265547
2025 4.333905059672725 -3.3721768079806322 -1.8443317030430146
2279 -2.747948165796517 -8.3812580719566 0.5184293822490316
2568 5.276165663465907 -2.962370200945612 1.5711959166159466
2278 -1.750955515949998 -0.8653714682981974 0.6534735553191783
2313 -3.3928441891811314 -2.4547496063132743 -1.2148157876892862
2567 0.883757524748991 4.517552484864147 0.5634660726867925
2856 0.7648784808922491 -1.8905883348797488 1.374863041434401
2566 -0.9732421230433436 -1.9911916854530491 1.58034219647437
2601 4.241066837703188 1.3098888696075248 -1.4313264676572082
1598 1.494069186427278 -0.8359511785389018 5.722314328917776
1600 0.8887672168456224 -1.066512994422649 -2.8679132963321146
1888 1.3600874770461886 -0.7567304284959249 4.429490738358815
1886 -4.203041644032483 -1.3741927227819755 -6.25173333445759
2176 1.032112853571152 2.020799962152737 0.892244673735658
2174 0.15409889929519754 -2.0051488831050346 -5.277070988079687
2464 6.484352928537336 -0.46809515914438526 -0.6847409371749993
2462 0.701339270460719 0.3010176563564104 -1.2085281578067446
2752 0.6427952700799286 2.093809398077811 3.020639253120125
1599 0.4283334621693772 -4.257639635926907 -2.6888491064912365
1633 -2.5060940617113032 -0.7391290977715723 -0.24413671984985083
1921 -0.2812374262600119 0.17347172309946285 -3.4692272922546787
1887 1.9741729423286323 2.716037416090746 0.040955201048691575
2209 0.006716628392096501 2.992318208253435 0.8947036924120623
2175 -0.12508873418829028 0.9630584523210498 3.294000728598718
2497 -0.8430022060440382 -0.5808064846812446 -2.0807863639149704
2463 2.492825301537906 -3.587007662046732 -5.065338832361013
2785 -2.18712640599657 -2.2753765139795186 0.06502399772248134
1636 1.204873211212649 -2.58055926431723 -0.9754668041148304
1634 3.272572831563151 -3.4949163112589368 -2.0365854059755977
1635 0.9021160811887531 -2.30393414756359 -0.9771544755436721
1669 -0.3608722295561237 -1.3778461700754157 -1.6895955874917303
1924 0.6514688525991602 1.832164646021344 -1.9957443824831556
1957 -2.644686770379289 4.9254965123865215 4.558627647728359
1923 2.270956741336647 -4.110424834095575 3.816922769901938
1922 -1.5365115553037725 -2.2001850881453007 1.9822137333559808
2212 -0.723706122678211 3.123929212199097 -4.037813589852726
2245 -0.5865914739073208 1.4197620832125017 2.648331722165036
2210 -1.7208240996198152 -0.9342080099594345 2.6661854866335646
2211 6.7303845751076725 2.201776611704954 2.353443321995796
2500 -0.2897458313240361 0.9933856105122852 -1.1771408876437885
2533 -0.19958876832512787 0.49374680329887227 -0.23213541663899406
2788 -3.4275367244913335 0.3104072974802682 -0.714893843159957
2498 3.5307047245786243 -1.5789502713287078 -1.494962372786127
2499 0.4152199166354266 -0.14880058296468987 -2.4758607928747223
2821 4.004639161832404 1.8082426457320926 -0.5515506485951052
1672 2.2691486701492942 -0.9802012304113075 -0.4505599795934238
1670 3.525986472762594 2.388728750990325 -0.778029372550785
1960 -0.5474338116359434 1.5499105415874121 -6.845714419291536
1958 -1.1049222775268452 2.740239183673298 -1.3754227294482222
2248 -0.4598904839306529 -0.3032698928699198 0.11867547035853528
2246 0.9056200741321483 -2.308319919395514 1.409957214981217
2536 -0.5042027963013267 -0.31270350442279904 -4.668107554912656
2824 -0.9148655961531017 -2.80557917681015 -4.878924690237394
2534 0.9188718349822805 3.1072028436337287 0.7977259838323743
1705 2.181661726573991 2.9957328643304173 -1.9566760002863233
1671 -1.804343673660821 -1.8857544094221972 -2.4855556534350614
1993 1.3872871789715526 0.04674865400412144 0.6092747298203088
1959 -0.5403086106994398 1.3657386580475652 -1.9853787884735956
2281 1.56542394683417 -2.2125890358936764 0.33628540387768935
2247 -0.566784404379032 0.26644126715446126 0.8489284929306627
2569 1.006354604170833 3.1448639103987848 2.648790845161528
2535 1.202734825088538 1.6195076577842302 1.1853974583932831
2857 1.8868789615448764 3.3683184486265128 3.8011697408321443
1708 -0.09187699270220603 1.6533517382936826 1.4367152346435736
1453 -0.7326107020622736 1.8921917677194369 0.5127637807151046
1707 0.37605755995276374 2.264435212784447 -0.7449452195618261
1706 3.4739114924803425 -1.5426030959661945 1.4807012264442723
1996 -1.552987946411066 1.1942161164113145 -2.3887144161371117
1741 0.8943176579124704 3.438384391117055 2.7927341195450155
1995 2.3161418407171595 5.048053303342128 -1.1146662886798346
1994 1.4095967673218033 1.9099295601674535 -0.9417572658183889
2284 5.789181555126742 -3.65303824788518 3.6480878107771773
2029 1.7727761944031948 -1.3707204132017137 -2.7294460794625026
2282 -2.860797173911137 -3.3982690182122584 -3.068811700803457
2283 -0.36276288623355235 0.1055277047289368 2.914046045766408
2572 6.293625056186507 -4.37116242399996 0.5346573413141832
2317 -1.463773365537455 2.4318102770452463 1.9616700656629331
2570 -0.7283429909555124 0.9299441164788337 -0.11476030949687717
2571 -1.5993481093990085 0.43493576471422135 -1.5381393684776377
2860 0.6825872448949261 -0.39336920502635786 -0.6480492969918566
2605 -1.2941561832099797 0.1761917339891944 0.04319265245233433
1602 0.7967421311497573 -0.4690999445717974 2.8809921945592074
1604 -0.393194420545452 -0.9214467601732373 1.927763356910446
1890 -0.017453247884205634 -1.1074677596854414 -1.263257509869352
2178 2.207477693558888 -1.2455668274051717 -4.512642663165276
2466 2.521627228724586 1.0609250776960648 0.45440506468649217
1637 -0.2082871868711366 -1.3922948723475914 0.4481593992826797
1925 0.23333685973426896 -1.5765445202813497 1.7844689343066646
2213 1.3422856615667198 -4.156401454088231 4.20990893678496
2501 -0.9187450487391301 0.8988670776836187 -2.2092630981938157
2789 4.8114341542623915 -1.0552036335721107 -3.7623361829020907
1673 -3.2182772539617464 -4.923654484475535 2.390792568412129
1638 1.4480348403402221 4.072941237439659 0.6603100922314261
1639 2.3694571634115427 0.09925994453406775 4.562404694978097
1961 6.275146351796681 0.3570804903172176 -1.040390684434192
1927 2.1473497811909685 -0.771327193076599 -1.3318776511622161
1926 1.1643033042005841 -0.8363412849520001 -0.21662289741347682
2249 -0.09158244189968531 0.786209158350767 3.8378293296678594
2215 -0.5524522316918397 -1.1400312460060145 2.2446563920666285
2214 0.19208688641168437 -3.272295035768189 2.760371367070006
2537 -1.6711620347287959 2.4871998618360465 -3.3849200964266495
2502 3.236606478457674 -0.7715374851655014 3.591668143034961
2825 -1.3996036122818585 0.09666475961584926 -2.513506179836962
1674 -3.673214389012691 -6.126594491036734 -0.0995440002273489
1962 1.1818247996240447 -0.708483711359862 -1.691106361256025
2252 -3.9406091686093867 1.4789755323760818 0.03712112956109419
2250 2.9346844195660915 -2.5806599382050153 2.8000490765335067
2538 -2.670392002218309 1.5756898791099085 3.4701075868573836
2828 0.42486452576627115 1.9275019316414137 -6.323972939964015
1709 -0.8626460902489768 -1.2510776261312275 2.5949712751654954
1675 -1.0348102815092435 4.442515228393834 1.5562655827295557
1997 4.308875299777127 0.7228520216682258 1.1905913497878773
1963 -2.360691474518622 -3.5315344966723026 1.2984476009301418
2285 -2.755057200841747 -4.603281041208153 0.9951576223533649
2251 0.5797726350555449 1.2780336671930994 -6.877573883993934
2573 2.2913846763244576 1.7882071997013986 -0.8149182947775717
2861 2.952946474336064 1.3360237868416212 2.611019857540967
1710 -3.110860600587601 4.46566249758768 4.063124590691611
1457 2.693122015235349 -3.7993908439670006 -1.7651947706632214
1745 0.33481993470413157 0.18624530863077612 -0.434866612803328
1998 2.6779630775748338 -0.057372548883710704 -0.3398816578815752
1999 4.10215480360269 6.653763332527997 4.464463938337073
2033 0.5124736772714187 2.784116548640342 -4.018794475157878
2288 -5.683019296247035 0.6110126818204233 1.2001220434717936
2287 -0.5366225462170552 -2.254527193980136 1.2311218631029213
2286 2.4491893946049736 -1.6112519387124122 4.103312386597222
2321 -1.0009378762246688 1.2225884374665663 -1.98863048469826
2574 4.281290493141276 -0.5107389686180089 -0.914091162658806
2609 -0.048012291187348496 -1.6090593068767982 1.3188200307490405
2575 -3.8443116650245086 -1.965873743557614 1.8606107996388155
1606 -1.0331667616720894 0.4696041089379311 0.22255845119569964
1892 1.697496379531215 0.39364883065939255 -0.32135574878255607
1894 0.37993507793466635 -0.5649963593880637 -1.7784300064169076
2180 -0.5081602768814528 0.31878396537977427 -1.5304543950787448
2468 -1.6196997498815986 2.2362351804019838 2.3681608302907047
2182 1.4488055550940666 -0.5054138234880583 -1.1782288418140925
2756 -2.1890826930531735 -1.7219296760734577 2.1929737746691362
2470 2.0951894876734287 1.3961787933710301 -4.513235258276403
1603 -1.8342329508387576 -1.0207727495312795 2.5275298991554185
1641 0.5855830667703047 2.9136925144787718 -1.998629478204286
1891 -1.360601644905099 -0.33337631906799786 1.3797982351402762
1929 -2.7242834730092462 0.3372728381720496 0.07733805571602055
2217 0.8771773386392604 2.441116221328075 -5.2803390929503085
2179 -0.7322360690255154 -1.6444182980815472 0.7639796088087055
2505 1.03433311035823 0.8288701985341802 -2.587095417721581
2467 -3.4373792693952554 0.3987009833286327 -3.5355167599218515
2793 -0.2917565168003454 -1.3152244678920415 2.27598923561825
1640 1.0025688862419972 -0.10202080223064702 0.9139639222425378
1642 0.26633730276952833 1.697077159530842 -0.6329058665444199
1677 -1.96592719666487 -0.49624228442514884 -3.228979521811907
1928 -5.06611402354872 -1.8428507784098507 0.12757904611077747
1965 1.4321831542524865 -1.0836579311918337 0.5318172837369215
1930 -0.6439027419899942 -0.6116542215756859 -0.8597937083134501
2216 -0.36855612150990086 0.8617339044085798 -2.12839873467825
2253 -0.8691592351538742 -2.135318579870614 -0.05900032003091837
2504 -1.4050787534420355 3.692698976158818 -2.69715552144944
2218 -1.0506172629681478 3.2798230549289684 4.326108571256748
2541 -1.9127832290632245 0.15327796584622236 1.2058948051882317
2503 -1.2909895965977014 0.2651688081368423 -0.07337201552618973
2792 0.9828767572768385 0.4545511287193325 -2.6698704165231515
2506 -3.321951146073402 1.2867358242052163 -3.726187091809008
2829 -2.0734882768689156 3.8954345725392847 -0.38542939043731417
1676 0.9287076200896626 -0.29331170640475795 -2.616596123205457
1678 1.3965062517512625 -1.1549369515092833 0.792211435256058
1964 -2.808996535869515 -0.06218299898615363 -0.5344853604363762
1966 -2.282259085966203 4.371555507540042 2.587254667746897
2254 0.02505485862729292 -3.255221694447996 1.8759666628958305
2540 1.4442997162524407 1.2964060014805343 2.968056479928435
2542 1.7403877253099909 0.03552283111103587 -3.2678751079264945
1713 0.3524706378496321 -0.708587705932 -1.3724066668635648
2001 -5.418623288429989 3.815340630725541 1.6662787055383383
2289 0.8598900053419819 2.177887581929672 -3.538177730128446
2577 -0.16050684861651435 2.174321355594434 -1.7428984976527129
2539 -1.981990371489997 -4.636045515871057 -0.7276419780628932
2865 -3.5991086231851885 -2.3660082293447164 -0.7810265185814983
1711 0.8876985901055664 -0.08418915441293422 -1.116039704948934
1712 2.3027722486253763 3.7629320257653025 1.5011387599038757
1461 0.33531474925525556 -2.5210195222813097 -6.851664040547562
1714 1.7932153199334961 3.475102460988102 -2.776167281611772
2000 3.340941188441293 -1.3862882973932753 0.8644049180709706
1749 0.8184069903293306 0.05120153204389718 1.7930534956514854
2002 -1.1919053669231057 0.5501206256956583 0.18091223264116638
2037 1.837366696196241 1.0997502999566844 -0.9542356429943413
2576 0.526524092465417 -1.3738827672324392 -0.21437692912856307
2290 -0.4828782688182967 -1.4628081896506853 2.142967870191652
2325 -4.633837529144697 0.8996570735211172 -3.4234772160388207
2864 -0.9510351057808747 0.22945177036794825 -0.5637888494810434
2613 0.496669980601335 -0.7576666990995169 0.4893537571036261
2578 4.122123066594141 3.7260781795840736 1.078467925314157
1608 -0.7539409649040739 2.358733673290717 1.224293332022014
1610 -0.8412890678963902 -2.288082840622251 -0.09585187042969724
1896 1.8175481715591408 -2.026882307265359 0.9967757521432589
1898 6.022601563307055 -0.45064955145130364 -0.2518854808423843
2184 -0.5889766378715321 4.306829445964118 -3.4915953906617125
2186 1.1175950326945916 1.5098328746055945 2.90904309399888
2472 -5.494605431026698 -1.6814243419703923 -0.4875966630325967
2474 -2.2953696605951293 1.8546848531200937 -1.024692289651144
2760 -2.7258149606759683 3.2135344723099504 -1.400798372082223
1607 0.33431637682487664 0.2720830479167028 2.537828103700492
1645 2.17035440914068 -0.7549535573770084 2.2498756406050773
1933 0.5781711420497415 2.8542153094637595 1.4184765392439698
1895 1.118986298119016 6.484454111104296 1.553905713890555
2221 1.3623410860745861 0.7588614191353182 -1.3009455987507224
2183 -1.0299393979954075 -0.5141777046738017 -0.22390827300753266
2509 -1.410309510883756 -2.0597549621912123 -1.3533203830651628
2471 2.5497229678270736 3.692714462106822 0.2543991238863405
2797 -0.6157779769139177 1.6318019732477678 1.4286126814215012
1644 2.3978774007368746 -2.725341210665503 -0.23645716194605124
1646 -5.014548241668335 -0.25896318621033043 3.524178822205518
1681 0.8308451297158349 0.3179079881640373 0.7869328328084938
1643 0.014332804985041551 -0.5751287203326718 0.4782836523910484
1932 5.232811560266545 -2.1080560343934756 -2.1421906957627845
1969 -3.227734378359384 2.098440099122963 0.7172433279384212
1931 -1.3388341013843976 2.59544381297739 -0.9078180074764236
1934 -3.357631226721693 -1.9876406808454536 0.31439133527181107
2220 0.06059490925827467 -1.1533842435581032 0.47943961059965756
2257 -2.9245204429290186 1.0258271789398707 1.1724930762248456
2222 -1.4933078061718068 2.3208899149556954 1.2855728610800388
2219 1.558088921739645 1.980931530788508 0.976708099788635
2508 -1.1652255636946858 -1.0757465408490907 -0.018808931933597832
2545 -3.813300226330069 -0.5965871281285872 0.1260106386958348
2796 1.4651232850401534 -3.0737661586284335 -2.6868007862360286
2510 2.7290214680701945 -2.2716012959616965 -2.0257162058411873
2507 -1.6070906249762942 -1.738442305054695 -2.6297894537366306
2833 2.345118312593666 0.5745752336371759 1.64012484689521
1680 -1.2044932628201699 -0.7110998568252759 1.592686220367084
1682 -4.084127472066851 -1.463214045024653 -1.3027679312077582
1968 -2.3060633351025204 -1.4383582521048461 0.3045136224812151
1970 -1.8089221884059679 3.3692173606444817 -5.164674715791316
2256 -2.7387101374667053 3.788873446216294 -0.289672769898712
2258 -1.3138520965846892 -0.41016058419015783 0.9542333152779386
2544 -1.4658163216011189 -0.696104796946425 -0.35174714636340193
2546 0.003920853216410063 -3.239577221913451 -1.7859001666507255
2832 -2.9941893234001395 -3.3508917205856408 1.110838121104967
1717 -1.5163092775486828 -2.884818464708613 -2.6062909414458884
1679 -1.824135199520005 -2.6196500418686006 2.668614869908431
2005 -2.9446555456441463 -1.1654011707418983 -2.3547412658479234
1967 2.0227831084377352 5.082927459337419 -0.25648106770581197
2293 -0.21573694147400568 2.0300427320601284 -0.5272611920981103
2255 -0.19987489024887625 0.748726565807818 -0.6489918962125605
2581 0.9775535470524671 2.163858319427742 2.53978701797464
2543 1.2729787382076267 -0.024045936228946223 -4.984844803739831
2869 0.2705760213100219 -1.513190678469048 -2.1470293121253183
1716 -0.5458905084755779 -0.7353722974724386 0.12184596913525379
1465 0.8765569581679311 -1.0735084892149842 -2.1025976560888036
1715 5.22784852524168 0.2986754961690916 -0.9089889527084392
1718 -1.6661346047460237 1.8014671452478759 1.3975796685455357
2004 -2.9393891028185735 0.5890218142408666 0.8835455210654419
1753 -2.4237600499832688 1.8541003073432885 2.6752796786930264
2003 2.7587883816561334 0.691645182361554 -0.807552440865128
2006 -1.6269804785576074 1.6678497755018369 -0.31188605393303687
2292 2.291351194610657 -0.19635629514059777 1.60105310908449
2041 2.9364200007268355 0.8199613433493325 3.745686031406625
2291 0.00612890287950735 0.5974917652428944 2.777680643939756
2294 1.6125061083369694 -1.2862947041654604 -1.601258339965378
2580 -0.8777503579224312 0.6073608868640598 -1.7538339356091865
2329 -1.0506127138333243 1.319163250617488 1.2624271300941512
2579 0.45163836397873913 -4.215352274950117 -3.017927909524754
2868 -3.3828547323748452 2.459203137129127 1.311473668407095
2582 -4.5319650600446835 0.058814273515543476 0.7630782444560585
2617 -1.5356280849429549 -2.629486025965221 0.7225456436490342
1612 2.825681406369874 -0.3880800125247845 -3.7268946052000884
1614 1.043562545775604 4.20516702037781 -0.7465151369284516
1900 1.641628434836438 2.025830822688044 -0.9633731249023282
1902 2.376269186908216 -2.6347886495979753 2.770819317200185
2188 1.1611281020549484 -3.34638567329388 -2.2108807747982344
2190 -3.5619135535132753 0.5139236670444721 2.951601592329881
2476 0.6632379715534231 4.35029703545708 4.30253382577866
2478 2.0034427314770156 -0.07730344966353542 2.209122027581809
2764 0.4078956472519767 -2.024360008945855 -0.8876539369876394
1611 0.522550738496073 0.8609756695945847 -2.115685399201768
1649 -0.734439660924446 1.660138445661769 -0.6981000742517212
1937 -3.001387644649632 -5.191372186930494 3.578014705544629
1899 -1.9262573946068942 -3.377827405145373 -0.7040145477565082
2225 1.5992011622650177 0.6145361619153022 0.6043283455260445
2187 -1.0806175998958916 3.0523118464779975 2.7066071727070566
2513 2.3867463392962573 1.2375563739496063 0.11746540323358037
2475 -3.879836199444941 0.4034401177252569 -1.7293085896341045
2801 3.0627454199416846 2.136882094980328 -0.8282636581776064
1648 -1.7668142973582932 -2.476683113007372 1.3652575610375504
1650 2.119338504481694 -0.10961508222994862 3.0246202084645764
1685 -1.1829027567453336 0.4990355797495199 -0.23711623109194996
1647 2.86091384911465 -0.25366453149734397 -0.003588200156743684
1936 1.2831999400904892 1.3941897118608255 -0.18527063841096292
1973 -2.769459592793278 -0.5732001597416051 -1.1677585205188177
1935 -0.589488553608939 -4.106533737947159 -1.0714231973105264
1938 -4.443769884294977 -1.4248155375773393 3.1914630342073322
2224 -4.258202753973431 -0.48043901263784994 -1.2900705647179807
2261 1.7253067963981255 3.5287433018786265 -1.2944726554361232
2226 0.5047303299013722 -4.535788629123937 0.7254932158952494
2223 -2.7034544843425206 1.8825173758419071 1.7331096880126844
2512 0.9839928111774721 -7.320351874967675 -1.6920191628155108
2549 -1.8871029167808517 2.663575829058718 2.2463769090290024
2800 0.7593581063869271 3.091196168157324 -0.0035422602376849284
2514 0.8667672505952757 0.606970223238761 -4.96665610153811
2511 1.7379994529973328 1.3445289738122943 -0.13135804338949228
2837 -2.1608708141324384 2.683240639843652 1.1008978305180588
1684 1.1870492175523868 7.06236372491898 -0.5567142621628897
1686 1.057647833669438 2.644890949704828 0.556176114681085
1972 -0.9721092759576111 1.0691279314658786 1.0978903531133992
1974 -1.3978699847460456 -1.83795604620522 -0.4820106559470164
2260 2.890334538638373 0.922168200292996 3.8325061204800925
2262 -5.2210203174941565 -3.8840936744897308 0.29864663691934534
2548 -0.7255788237191344 1.7146410328500572 0.8096146506646611
2550 -3.165220407442512 2.755879856313348 1.4784825368308594
2836 -0.6308122457465087 3.9802477597216743 -0.09010188348171999
1721 0.14572237806550986 2.7360866429647226 -0.9178920954937555
1683 2.9180200603546504 -0.10729293887129618 1.018943731949139
2009 -1.2147527096651067 2.0577964612540955 0.36409666816216435
1971 -1.2884451927571747 1.0908309426706657 -1.1056129987406316
2297 0.652983031915088 -4.50136497973185 -0.03885980085949882
2259 3.4493292434057987 -1.1257996399414312 -0.021114635536131385
2585 -0.5038934140034793 0.2996829494893395 0.8215347392861638
2547 -0.09955088831822728 2.54118907270952 1.552807213975839
2873 -3.155797725362397 2.6735332801847123 -3.037402204267847
1720 -0.9602742396108593 -1.6615710671565342 1.4816110295781093
1469 -4.045051664488239 -2.8843375016839268 -0.7743116222814248
1719 0.248045559717375 6.560540838869972 6.858532764260669
1722 -1.1859868993858311 -1.3812126602670007 -2.0979642497576907
2008 1.427087809621298 3.1754104752464367 0.3067131195964217
1757 1.4281406727463124 -1.1595828204163574 -0.20504308563236773
2010 1.7911257061144128 1.133255726212132 0.06042123591308955
2007 4.363672829891533 1.7447364582217908 -1.1017024314353958
2296 -2.4317516091344213 -0.1367467910897862 1.6153207144266828
2045 0.5170294546144792 2.211086332317882 -0.16311448015150357
2295 -2.1182387912025886 -2.568789013635442 -1.53103563191233
2584 3.333180336800305 1.7189957314832185 4.005489514147877
2298 -1.4765312528307581 0.43140831926534184 0.6695002664306231
2333 -0.9180279581298082 2.973053206919321 2.530126311150944
2586 2.2842815810095525 1.4576749172668604 -3.3632431631866915
2872 -3.8187920180275543 0.3230082584000001 -0.6454965029285602
2583 2.108449403410065 -1.7300507950469552 -0.9281030383374935
2621 5.321321441747174 3.126303737007311 2.161094503760262
1616 3.5426013577074777 1.8725026213596936 -2.0741919532576025
1618 -0.4988477367792363 0.4958440800977118 -2.956665180942766
1904 0.43016037486248887 2.1472272575805866 1.3811647833568572
1906 -1.4966355190161638 1.930029531535641 -0.21702065129336445
2192 -1.638969679548118 3.5456025963796876 -2.435028904221219
2194 -4.013980928751413 3.2255256973496995 0.00497635735226492
2480 2.1504857038004817 1.1428404150415232 -3.1149394745026076
2482 1.7552256334995082 0.7288764871881979 -0.45096345113348996
2768 -2.3258484053949373 3.263451678350911 1.1469796512083967
1615 0.3808237328611358 0.8453724808988385 -1.281812845479541
1653 -0.4970227768412597 -1.7691803274792215 1.3370479660849508
1941 0.3775551482131461 -0.7071389998031522 -0.11668357172776259
1903 -4.161976526024012 0.8451905616553751 -0.8318407077772234
2229 3.0067786767255016 -1.621532095560107 -0.29365200349199094
2191 -1.436179142535937 4.12931792332124 0.9686327924828972
2517 -1.8356848544624227 1.2731808775756785 -0.7957662368585344
2479 1.106364710818923 -1.2950980362148121 0.33624983799513597
2805 -0.23266016964833 -0.23031222864791592 0.2904172847292751
1652 2.9145446206227787 0.44591334380129183 0.8600258016171545
1654 0.028484265223213727 3.0208584670367267 1.6846112775472162
1651 0.37414506428548694 -1.6855940576108657 -2.022946341967759
1689 1.7983634682237923 3.0579209384600032 -2.4633029020466624
1940 0.16767045406107411 0.10797043676140286 1.0331221091475498
1977 -1.3291739115361385 -1.8573000010962184 -2.4479687790998925
1942 -5.666204295603006 2.8073026089596635 -1.2218189277104399
1939 -0.3466436824482135 2.8423551393307185 -0.27408733017272885
2228 -2.266471204525362 1.0428061872592105 -2.394679725324059
2265 3.7236786913333586 -2.2368939716080205 -3.3517341263029126
2227 1.0181805301299114 -3.845667521998632 -0.8669406646238094
2516 0.7786565141263428 5.0567286053399245 -4.161179518306837
2230 -3.9146001545243436 -0.8330771032942821 2.1155087540043245
2553 3.191866570786815 3.1238305473540895 3.194543294268387
2804 -1.0307365190551367 -0.14084653014299486 1.0789138506302152
2518 -0.8672303088312455 2.3764575829369 -0.6248962683057908
2515 -0.787372074658815 0.2755026721180174 -0.4913726432085254
2841 -2.4644627282961085 0.15003850351125925 -1.0799266922619049
1688 0.9596746974937675 -2.9336056520576745 -0.5726213418090259
1690 -0.689055766397208 0.010034956084328223 -2.263647587982884
1976 -0.3069152008088007 4.946384970110082 -1.2049529748994046
1978 1.7850525773730181 -3.9917475640826185 3.1809531007743477
2264 -0.475115142635575 3.5841264481801867 1.8711998251298483
2266 -3.965299151919329 1.2021210636390964 1.3698544507664925
2552 3.829135374731919 0.7426169867080035 -0.9867360374198842
2554 0.2665360874629637 0.14852684534543062 0.5862896011308886
2840 3.4683084141891602 1.643754379407869 -1.5286066873349922
1725 3.3699385748474917 -0.9408304147912467 3.4361484169528564
1687 -0.3452508847389786 -0.3518495414225444 -1.3699339571805054
2013 -1.6070519459658636 3.8030864807744904 -2.9364376611224636
1975 -6.218460832398976 2.0586248052458616 0.449752871087569
2301 -0.5717787665525966 -3.1633147599070397 0.4027068711207421
2263 -1.6874102677949003 -1.8440542409558944 -1.7384473246525394
2589 0.7761885497961449 4.288826190673353 0.1199241029634298
2551 3.3896955324281195 -0.0014837343560195667 -0.15305298461866304
2877 0.48177153136495027 0.8466216870422689 2.245914765750651
1724 0.6479064079524895 0.9780968063610674 0.461400256472678
1473 0.971258575907625 -3.6447031822148954 3.0002242402102777
1723 3.1514521985275503 2.535585146395882 2.5457721584329738
1726 3.5052135060309264 -0.35542000492515197 0.5836856600185933
2012 1.619355073643609 2.473417174320815 -4.018711110922895
1761 1.1542182452255954 2.895135779356109 1.1061855647604497
2014 1.6205548985182483 -4.091179476977698 -4.711522521390448
2011 2.1751589520668 -0.47155791542085335 4.195099132083243
2300 1.089120687807223 0.7639998797928945 -0.2723495996185336
2049 -0.5443825200815278 -5.0191934685131745 0.9708803617504648
2299 -0.8918797035542273 3.0796482596158676 2.7586062409723526
2302 -0.47324247571473915 -1.3409697751714762 -3.6712376364823514
2588 -3.428583774227605 5.053524176159841 -3.009586623034579
2337 2.8298832967486893 0.6395284306488763 -1.0940929053120283
2587 -2.183098480242731 -1.5920538304216794 2.2026784621008475
2876 1.0087863245266224 -5.378833637972708 -0.2653011163975756
2590 -1.8255608386672657 0.5724824478561568 -0.5991999699138612
2625 -0.7147290811712325 -3.311222249357876 -2.4769541969959077
1620 2.7745359739445057 0.061130306209450785 -0.7306013925652803
1908 1.4156294339631617 0.20904827250085697 -1.5131919853467743
2196 1.837825069275233 0.08434717553203662 -0.45262305031105293
2484 -0.7306229142923673 0.7161796518168505 -0.5371349026657845
2809 3.322041789879082 -1.1972772567060894 2.4660690774019143
2772 2.0007079077731156 -1.8134352626034267 1.7141762682169077
1619 -5.1666517452196485 1.660729375945079 -3.1852253338218963
1910 0.8469412622565055 -3.4250436406655127 -0.3383731661988917
1907 -1.5323583783871444 -3.2839520042475447 1.146697632919904
2486 -1.295231095491042 2.5327035896272445 3.5608867365798336
2195 2.020659822645888 -0.830736579602971 1.182107479459338
2592 -1.4522848647278395 -0.6228764264696859 -2.227534346711347
2483 -1.061491880792791 -3.92807899025189 -1.6680628868744773
2450 -2.79696539495121 0.5594440933361815 -2.911114558482025
1656 0.2923608612090983 0.7700734486255458 5.312015176055735
1655 1.1712252033590365 -0.19231798977717268 -0.5863295202377246
1944 -3.7292455179773083 1.2379265586060075 1.3666113246682772
1943 0.2501253930639497 -1.660395312999279 -2.539797182415879
2591 1.246693123933787 0.32627362294196427 -0.6815490525669115
2016 0.1417890013561561 0.34161751161808684 -0.9616362854198147
2232 -2.739670080132673 3.7452293167610717 0.5274144201491747
2231 0.6880805326427273 -1.2954645707447225 -2.0469546515351795
2520 -0.5271112688194677 -0.20202422369695072 -2.6670486775605484
2808 1.8736537670933564 3.5929857809099093 0.31840106617654357
2519 2.8046924754980203 -4.114421314958073 4.8345817940536495
1945 -1.130899305402635 -1.3960171405511395 -0.7094149885596703
2015 -0.5198152416218997 0.8224764937713223 -3.5668530099830544
1692 -0.9960693170973172 -1.9500803440252439 2.0276630900202646
1980 0.9963688092834095 -4.458880939048266 -4.083143706725477
2268 -2.1890297937447762 0.04480076800230944 0.3247086179348764
1727 -3.9634192038805427 0.7095279323789421 1.993843684554734
2556 -3.5578844408436288 0.023109795775082202 1.7926418160131101
1728 0.9327786439100519 -0.8527281167507025 -2.154944709671054
2844 4.633704531743444 2.804559109189241 2.9132816910776147
2880 -4.280953099842583 2.9167770428668485 0.025644643204576576
1691 0.4381235023077323 1.4548861380598546 -5.065147918395111
2555 -4.403994106577533 -3.6560043911328917 -0.48388382663187546
1979 2.585015480453694 0.7685154583633815 -1.128465341261274
2304 -2.67187835563615 -0.408983618003753 2.0279026050873976
2303 0.04193395474245434 1.1120750067411866 0.6232401429113054
2267 5.1862311344448555 3.8319802098867326 1.2948096266452485
2485 -0.5505551668914528 -0.4427886770876337 -1.7289449733999651
1909 1.8807347873892937 -2.7483788256231447 -4.6010362656524615
2197 4.391157279310996 -1.4893321781316937 2.710765191334013
2522 2.3525244751486123 0.7795249653279605 -4.993417857533736
2773 5.554987881303044 3.57221713098788 1.5692083049594205
1693 2.8489156124038995 -5.871277742032866 -0.3598308924028503
1622 2.315045224680932 -2.7570957717182614 -0.28987069018488487
1946 -4.05162311485455 -0.9535688842466149 3.0556286012071894
2233 -3.9917852361319044 -2.17937607226386 1.9247506220369281
2270 -1.7659750909234142 -1.86847962352051 0.073203925177022
2521 -0.28792099706550023 -2.7212535682406322 -1.6150019276354919
2269 -1.443564017927567 3.12691161428071 1.818619740440195
2557 0.4513087084147749 1.7173467089332048 0.9649893402232871
2234 -0.8201233232245484 -2.523208128717183 -3.5518356210110946
1586 1.1519830861362672 -1.5705890313949114 -2.2387000825206784
2845 -6.438226096763857 3.0350983650285914 2.3501796117290796
1694 0.8115804474341292 0.4606231868104098 0.17468974888019503
2162 -1.902580296208927 -1.241999650884743 -2.494260440902015
2198 0.29961270549352464 1.3539797672582625 -1.0197779814037669
2884 -2.8908917947143613 -1.6387282429083259 -1.6848165067629919
3172 0.979844698510079 -0.2805303424752391 0.8809695390221663
44 -3.7483778266577956 -1.925029283219454 2.4473923411359304
3460 -4.042368611649535 1.4540880720388158 -5.496365682439024
3206 -2.1620520572734763 1.2628614858583902 -1.2937238987665602
3748 2.0879742874675054 -2.616104280820705 -1.6814354908086766
3205 3.1908731769192866 -0.10711497571642166 -0.9523185519943284
2595 -0.9875988252066557 0.9377961990507788 -0.9355989422338797
3277 -1.8436912211553815 1.3545814409335966 -1.7964954101689157
2883 -1.8994435105630294 -1.1330532294497737 -1.784789237592736
3171 -2.437987399168755 3.245550356391248 3.0938051021259496
2917 -0.08094995210186884 -2.0190550588303484 1.7789669343830425
3459 2.0155228922079784 2.517877970468778 -1.4008171573370256
3747 -0.43435966523110003 0.0183335764713992 4.022587104145163
2631 -1.272476631002824 -4.172201294774094 3.965072893858111
2920 2.91444112437812 -0.9046391431479178 -1.1604844586705092
2919 0.621352960056165 -3.689482789521224 -4.888670730711775
3208 -3.434183799671443 3.2903740048987693 0.0015898909108848526
3496 2.1364656762153666 4.043250205864822 -4.204454103932448
3207 -2.450015745047982 -0.3915938694241944 -0.5131942212948492
3860 -0.73063521318421 -0.6188581595258014 -0.4795738262729766
3495 0.17780376879773466 0.9830452884860799 1.2118904281803344
3784 2.368222368084109 -1.8571027396873427 2.442446206348635
3858 2.8469715150548267 -0.36534034274543264 -2.8825296672120597
3783 -3.6701366715905057 -2.565604558068939 0.2716683242640722
2953 -1.343395990479843 -0.0647897208208844 2.296804921320018
2956 1.334404762125154 -4.980236399561685 -1.6470310960126773
3244 -0.637841940109078 -0.8691644909037464 4.502700587574219
3532 1.4423679375399476 0.2991659726991776 -0.9130760193721006
3820 1.4425846247223557 -3.304348718466111 3.143577296041654
3859 0.7890528151017284 -0.5866224374677225 -2.3472538640655025
3746 -3.8719438799025845 1.029852973150032 1.8541964329494642
3571 -1.9611250712393014 3.5492056433141044 -1.3542036313817483
2667 0.7039158242947438 -1.4216936623053775 -2.427014052878723
2955 2.1758380257634786 -1.1982208164497725 0.14086358494510182
3243 -2.4655571051514213 -3.216669670112828 -3.1731143675867823
3531 -1.1097527988065998 3.1029818531393887 2.6998654301344205
2954 3.266596539832724 -2.639321650068441 -3.4733866335712955
3819 1.6993580890934812 -1.6328166100876091 -1.8874920754363769
2992 -3.235744898236437 -4.017720509120814 -0.4219624594348148
2703 -0.2982635637851827 -4.761728006478756 0.6142012301112246
3605 -2.8757976951514324 1.1200504969791367 1.1966972713603865
3280 1.9126237023824775 -3.538714655597634 -0.5139174565926771
2991 -0.8913385472520718 -2.009100026398986 -5.43486127600937
3568 5.4526173409079215 -1.9553676055668088 -2.6847775528085855
3279 0.90251583292985 -0.16375663327527798 0.9550715383469592
149 1.083044533807293 1.9648135806056837 -1.460158026622078
3567 0.9949645207892521 3.262089827647323 0.9166607282905013
2594 -3.8648226944086126 2.4628209871470617 -2.069176212088547
3856 -0.8713524298129712 -0.2650872853764958 0.45800133925824965
4 -3.330728000234543 -4.362564911542234 -0.49013402934400824
3572 -1.7340677922814687 0.08192752392466593 -4.177722766878178
3855 -1.3272638613259522 1.4109186227968231 -0.46292782664850896
2598 -1.1899982763389645 3.307755242886958 -1.157219768673474
2888 -0.41485233617127215 0.7990864357412762 0.9110343254840915
2886 2.257967383347539 -8.070087840791352 -2.1836517214244204
3176 -2.617413082228331 0.22605136442012394 -0.2696997846154601
3174 -2.568179240422261 -0.6449033006782317 -0.4556414641947566
3464 0.017089641662563854 4.990366187489858 1.5883417797282122
3462 2.043853093747135 -0.9327995241352863 4.419190246756548
3752 3.7167647862233335 -3.76941609605283 -2.662412215232517
2882 -3.058316260409128 2.132550457232421 -0.37694096225035945
3750 4.37988530000916 2.3909682863506574 0.45734641940853765
2599 -0.08418863481517781 -0.525296616729131 1.002757787563841
2921 0.45772060020225536 -1.1318888294870009 2.087407822839573
2887 2.970966428370716 -3.4033255376396583 2.2293155750260496
3209 -3.0134182433866044 -1.1987442153167698 -1.388365649362278
3175 -4.889029232210552 1.2755917475546146 -1.061623674143067
3497 0.0888596221110461 -0.38454675377156977 1.2323911632037752
3463 3.330549627783651 3.8225961361472955 -1.534872553411597
3785 0.09531300963010776 -1.4259900842166413 -1.0932741437499258
3751 0.5041816463818789 3.1310895793520994 -1.495952397129588
2635 3.440482746907957 -1.7790557207247604 0.2927078654691029
2634 -0.3019510632648209 3.6101182172759554 1.9538804360967743
2924 1.9741906564347864 0.41892743154637624 -0.7765136026148534
2957 -1.8304779468524208 0.09836743109886698 0.9004993978800652
3212 1.2238951680027965 2.7549834135065874 -2.786763038477361
2922 1.613644402538282 -1.044299238058868 -2.392460447978848
2923 4.864013272833184 -6.482435493959302 -4.676308978046975
3245 -1.6834506010894374 0.39898153058562397 1.2938077785936681
3210 1.7540602937535286 -2.388605881379413 0.6608656195350626
3211 -0.4308907651109727 0.16488172676225754 2.7967020991419123
3500 -3.606951097637361 0.20909424106970295 -2.1749366373737167
3533 1.3193960080043707 -2.0026161201189105 -0.029057522961598064
3498 1.7353450424555483 -2.791093890016898 1.5282286014620885
3499 1.4052563452213693 -4.604210637257344 0.9092917726028137
3821 -0.7138616336795287 0.7825323306122963 2.787885249163792
3788 -0.6842410158312546 -1.3767315703289815 -3.5634330281806124
3570 -2.445769397009096 -2.141054557570887 -1.0863907987564851
3786 -1.5635937700976135 0.9647638425268119 4.320405506371463
3787 -1.2319064888817641 2.2547813410942696 -0.6445264984965701
2960 -0.4089304806518361 1.0773231145437525 -1.3985964233432835
2670 -1.8966881723749658 3.131884548607203 -0.6438106565201493
2958 -1.4428300036085229 6.554114663427816 0.9264848941571886
3248 -1.3400910852937071 -1.8478245634300692 -2.4333639777895644
3246 -3.498937282509138 -0.9138065532093056 2.4646818848966965
3536 0.1728970711232723 2.9095645356738324 1.6527133865368184
3534 -2.872674095750974 1.654305308014479 0.005567820243033402
3824 -1.7512176553294803 -0.019832875138472195 -2.5440948222551163
3458 0.04250456714291558 1.0149411712053173 1.2080104946190928
3822 -4.012031942821917 2.039841908774384 -0.6425298365129447
2671 -2.642149134601549 -0.913454695381808 0.48007174336103364
2993 3.8293414760813684 -2.4020568935488638 4.2362097223939745
2959 2.2114316172581714 -0.05730883712800956 0.628696184260135
3281 3.061688615401478 -3.454239692397238 0.9091002563120387
3247 -0.024750320615947605 1.055451769487583 0.24164637697461852
3569 -5.7650720148749235 -5.215385642041135 -1.69767380936369
3535 1.031814298905423 2.1307011266620024 1.6966390550740138
3857 2.3284317338108225 -1.4534691573672955 -0.5750979185855758
3893 -3.576334894017532 -1.0588100149677677 -0.1259845379344896
3823 1.2637651067452207 -1.2416362554387534 -0.10160170392518268
2706 4.14324545277309 0.8062280425029902 1.6037839721807219
3029 -2.0272857781908518 -0.3279643364889397 2.825140231195701
2996 1.976305033323756 -0.43945808861255853 0.4165129395272739
2707 -2.254365734456053 2.3226525581202107 2.1386363564535937
2994 0.16861722034248558 1.73124657187313 0.24234740586492026
3317 -2.3291822005210694 2.231868353025627 0.6243901160062135
3284 0.8685817584006295 1.0362555606363473 -5.229802422561139
2995 -0.9435004720055151 4.240228661297639 0.5669655103883763
3283 2.4786947556381693 -1.4701954888547393 0.7560531346132016
3282 -1.2761110572449448 -0.9124475892010386 -1.1920606355493208
8 1.8167857639793794 0.19589281333460934 -2.134276636168024
2666 -1.1244845829823067 -1.9116407217745266 -1.3408889501670052
2918 1.3528915265825352 -0.05970082928608055 0.03218983065587607
3782 1.722886677288462 0.03385655306437871 -0.720452313430765
3565 -0.44348871825430836 -0.33831904018363695 -3.1607920807514787
3170 1.1002207564532418 -1.2109864653966005 1.0845955807240855
3494 -0.33731089539452574 2.4008845466542548 -3.8107084551876564
3781 -2.1875143149946026 1.171439065854458 0.7190554692092248
3493 0.7796813797532741 -2.772047834645911 -2.333473499854496
3817 0.9635240305042411 -2.167816062282858 2.7972784764085743
2702 -0.958751945102103 -1.4736358538427001 1.664865766626588
3566 3.2357683606551633 -3.253491821262172 2.885304231372248
3241 5.07889375587094 -1.868280682053286 -2.215131202263778
3025 0.4727532137035691 5.413259610333204 1.1975958704724992
3818 0.9539057812731723 -2.8129120846251734 1.7579779100103823
3529 4.586201722926368 -1.1297167362523939 0.7323990534967713
145 0.5019651410388271 0.420961678873638 -0.3473120049510861
2892 -5.563177794753518 1.8103458977474762 -4.188278334896218
2602 -1.6909121374887797 -0.9660145192768239 0.1340015104473343
2890 -0.12823685617370958 -1.3586334776877156 -0.0464083122207826
3180 1.2407809839313204 -4.981368563383786 -4.864688717328748
3178 -4.477844220695211 6.313920977676156 0.6023967033846136
3468 -1.6465798036986512 1.2554632223057762 5.127430140512631
3466 -0.7352352322049914 3.0223123005071306 0.993841555065856
3756 -2.377770916298153 1.477888319852659 2.8405977427252402
3754 -1.5165689004365694 -1.9725706735018262 3.0270872620043
2925 2.3701560431912596 -0.06316634979891901 0.33131485356950996
2603 0.6858884007631746 5.028701314028346 0.853635670222667
2891 -3.6756923906502315 -2.101071831177628 1.0517347689387815
3213 -2.1428712529213008 -0.1271585144387323 -0.049312155119079035
3179 -2.6266761167677313 -4.549994456941199 2.5388344489018513
3501 3.973664334444938 0.6838278658980604 -3.934763413731219
3467 -2.171341862548856 0.6361790416014395 0.6159479812350451
3789 -1.3081269024115327 0.6136355881353985 2.50265059287779
3755 -5.446595807129444 -4.497191581716332 0.04944724575977248
2928 -0.3748907118653549 -4.614710370334187 2.0614644390817642
2638 -0.7567691016163635 -1.8945326817639863 0.9113413378444409
2639 -1.0374198906484247 1.8484810657269697 -2.757336486650594
2961 0.7424472902117889 -4.272312192382457 3.6108155784952736
2926 1.1241033036000052 -1.6352966202447912 -0.3265458059822968
2927 -0.8287504056375578 -3.1855490878878348 1.3293996618976878
3216 -7.564271697668518 2.4100712682898493 1.2656420193040214
3249 -3.965032484291164 -3.6574730122950765 1.0666777682620758
3214 -1.2337710457991637 3.3138170913656197 -0.921454521116183
3215 1.6603230739819257 1.0351950859864971 4.724443812450277
3504 2.2654474679422845 -0.5507443782493012 -1.3185643013887343
3537 1.6685084767037037 0.10838962191167031 1.8129353667453763
3792 3.60023220482718 -5.509173644892999 -2.7879824563834696
3502 3.047791009619733 2.4731487363319 2.700926510938745
3503 0.45564400348999823 -0.2835090340261773 -1.451529269544355
3825 -1.0364263922584342 -1.4566717170813686 -3.041532802788627
81 2.383806586414305 -0.9620467268248927 3.8601408141399576
3790 1.4966900656267816 3.517402309313356 -0.27851469266709994
3791 1.5192425688171385 -2.3162173051512993 7.272204263432334
124 0.934717288917984 -4.216067734684681 0.8786674694388421
2674 0.5119686742004201 0.6937898555716845 -2.086361568316039
2964 -1.5354296898960478 -0.2723159240660434 0.9559450402990323
2962 -3.6301446497638596 -5.001880858689348 -0.7671094421208253
3252 -0.7609849314783378 0.04961904560306047 -2.5899390361678796
3250 1.6991138695921155 0.08649019515090971 -0.7314228607211162
3540 -5.2647187397947315 3.7563798385209095 0.0887913412410224
3538 -1.0649458150746085 1.0955411736933844 4.819170209565755
3828 -1.1124258469636163 1.4861927421147152 0.40728882746798695
3826 0.218621431565424 1.0506695056234807 1.411383796866602
3866 4.3200329533714195 -1.6344852017138434 2.2726230664495626
2675 0.3089801415035909 -1.5575564924350576 -2.7219400015167685
2997 -1.0953704690671078 -0.07107115302453983 -4.240652292573193
2963 -0.07079146727275663 1.132290717771704 -3.4434824496526906
3285 2.7676410210593057 -2.0609920751350175 -1.4741036401302279
3251 -1.973313754416016 -0.015862250397978055 0.2679280887396147
3573 2.028789409189025 2.659258132233677 0.7781992057628552
3539 0.17788634779482182 1.1089241099361018 -2.170789507794915
3861 -2.0378066146181504 -2.655203323791871 0.3331515832913644
3827 2.9444909024977393 -3.285249923155512 0.4590700499899422
3000 -3.0811295695912366 0.617815825161738 -2.018311979539313
2710 2.3547613787364616 2.6578796882571956 2.3573420041028257
2711 -2.68512111148811 -0.42707975177584984 -0.24753676622822174
3033 0.13680367495523327 1.604278315260265 -0.801154006746882
3288 0.07251592684648071 -5.247905212631844 0.8214946962665087
2999 1.8071372223486666 -4.060354881479595 4.891263941568171
2998 -2.2444160495612144 -2.6178305841174496 5.017222623907481
3321 5.686470246154954 -0.7083190638311899 3.6645260933213817
3576 0.10812744301076149 -0.7052815490719486 0.38013972628528336
3286 -2.1936581775110557 -0.7401495814293578 4.000573173224565
3287 0.990406793743153 1.2096787137536225 2.9477566731990588
3609 0.7341456343446308 -0.8937536821270436 -1.546082668184488
3574 -1.911232050481961 -1.5439436359023198 0.46030233123334974
3575 -1.5896906618079247 -2.066827880219778 -0.476031333878208
3897 0.6678985426086347 -2.3105251719719027 -2.4193086655440905
3864 2.1835182443141865 -0.4097072215025755 0.3928197011803786
3867 4.11589506714713 1.4353305576518562 -1.7845904198051652
3862 -0.2844812902364747 -0.2016131583050012 0.20522987053972755
3863 1.530398403267364 -0.1511871911092523 -3.1701570912576567
2896 1.7132177011399021 1.8249054051951057 0.9280569698171718
2606 0.7376790572908775 -3.601525018468735 0.8550491558864054
2894 3.7371613346460064 1.3834526134434966 2.496614809391278
3184 -6.4470227437496845 -2.012036408501225 -0.02008562607690452
3182 3.156922200878963 -1.4641884758906423 -1.3057378565259292
3472 -0.9905327410165162 0.6674176729297159 2.407500988818777
3470 1.7279773062175698 -4.736992468226609 -0.7983886363322528
3760 5.25182941852391 4.058551977920722 -0.3059051824349318
3758 1.8571810807203284 0.7369609616904519 -2.7168492668663626
2929 -1.175668376989875 -2.1095964117025607 -1.9732632277040536
2607 -1.1641144875526037 3.7250171806810997 -3.4709832265969727
2895 -0.31630838120325344 1.6131856087269925 4.876024092358298
3217 -0.43708595351341256 -2.0416930765320775 0.3526020981156604
3183 -2.5036838476035324 3.2563914143107775 0.9832231585282071
3505 0.20090518241618302 -0.2960710491350957 -1.7136126499442588
3471 1.8666516589904647 2.8413229497226604 1.485081426639697
3793 -2.1743270112978546 1.0087087303670748 2.8454179219344384
3759 -2.106567157967998 -1.2087318646024403 1.1102194330573956
2643 -0.34281785052075914 0.9441433758062359 0.19455364531433572
2932 -0.9665593479164203 0.5755325839201271 3.385653950615408
2642 -1.9075124941402142 -1.2832254508568173 4.954668745597136
2965 2.9178231924730396 3.8664153794603964 4.065661899331684
2931 4.029309816258321 -4.882958120200187 0.30954705571258834
2930 -1.5865066119657016 -2.8945567447153175 -3.7090567188408863
3220 2.364236735425879 -1.9975121212727032 0.5989560665682971
3253 2.097169641924176 1.943240638193678 -6.170961304056012
3218 0.9514674005297157 -1.2784525253725623 6.270429834384873
3219 -0.027258411962569094 -2.2351043112156237 -0.0933538727640637
3508 1.6515993157815398 2.0066931335249834 -3.409093143968537
3541 -2.794497426154144 -1.1971345511554845 2.9212029760464913
3506 -3.1615493501404868 -0.9659589857572485 6.9486532007324735
3507 2.3447985495567676 1.942699419067714 2.2552966388596967
3796 -2.243209092290997 1.969537093115315 -1.6783385801580704
3829 -0.7485619057595724 1.9174191640399572 -5.346444452034005
3794 3.9163865192864944 -2.59608147419239 -1.1514725098106477
3795 1.2405131766403323 1.431895129751154 -0.49558845411317637
2968 -2.5624468503483357 5.0747026622463896 -0.15431118257002424
2678 1.2297512145275897 -2.5017670113077752 0.5071627311322029
2966 4.974066504760004 -2.546161968999034 3.3852562741880603
3256 -3.001206423740981 0.969363138817933 -4.170455679010037
3254 -1.764858745653399 2.6905669245042683 -1.2612508163194898
3544 3.0516698084843075 -1.1005865371456691 2.5982306392222814
3542 -1.3332635527151557 -0.9137404793878435 2.6986577042533666
3832 0.28889755631110114 -2.0240439369042176 -2.2734490233940745
3830 -1.006331016926731 0.6277884019147959 -2.731141816623926
3578 0.5306136481194129 -3.591963961452651 -4.415333500512128
2679 2.0473236226233436 1.3285119005417125 -2.8931699477844726
3001 -0.6848467257829255 -4.530238407776509 0.44507801397921
2967 -0.8563630348317047 1.2501460737971313 -2.3137715568112234
3289 2.292936996565955 0.6970053619658927 4.626711214435078
3255 2.440310484393808 -1.3231991217886203 3.830619759677026
3577 0.45151634768598836 -2.4869240704529267 0.5472081369129733
3543 -4.3411234647871835 2.0167184740601236 -1.670248545376284
3865 -0.1396869357791094 3.569689797829802 -2.220250320800124
45 1.3364640618809196 1.7171756262379163 0.19186262521886147
3831 1.4630901431952699 1.424796082805343 -0.9403120920269507
3037 -1.6895778099087493 -2.0295466797873694 0.9200627340160019
3004 -0.6840250576974225 -1.645513737547111 1.2522209927159855
2715 -0.8518425067918359 -0.5756391012475172 -0.39639584212698364
2714 4.437410633201014 -1.295196569629957 -4.44217870257178
3292 1.3979130567105333 0.33779617632941117 1.5236194765025042
3003 1.433491534260392 -3.6475015726065982 2.1101059752192968
3002 4.075821987429255 -1.855569125302814 1.9253323393143544
3325 -0.1463826101195538 -0.15591977917877517 4.517777060843653
3291 -0.8941643168281296 1.5910806522342553 -0.39446220820072897
3580 -2.5069929902865464 2.0566628990045808 0.4344394160875276
3613 -3.274256357897174 -0.8232334805762928 4.2106529315964485
3290 0.23040247802462313 1.2869191183578166 -2.328285669740967
3868 1.3266786110799975 -2.908297263260686 -2.512038228954765
3901 -1.1238186815995477 -0.39676381051772763 3.7848446306257943
3579 2.517028310679088 3.7565462845147795 -2.3229770525059252
84 -3.5440646733957344 -2.871837962626868 3.2088555773380705
121 -0.9757164324652845 -1.4470987700125866 0.46280238760967063
117 -0.6325951434183803 2.198493520172705 1.3274323902824101
52 -3.161408968801972 -0.6515032296520366 2.4719895272957952
16 -0.32970993624207773 -0.1633201625624317 -3.2532148114855532
2610 -0.5571251334586018 0.47812495148397166 2.6968333684851418
2900 -1.1808009812155795 -4.096077473254389 -4.269136152220457
2898 0.45923442095530215 -3.474957661607468 -1.5544683641328163
3188 0.310057963186487 -0.741840325722534 2.6764279983316968
3186 2.3457792744657597 -6.0722049858627445 2.3840446680288077
3474 0.49251629782140216 -3.6732735001247474 4.281859110463434
3762 -2.2331623226857924 -1.446844244709528 2.58740365501878
2933 2.006708130422746 2.6111437094159866 0.9066012687084296
2611 4.224060626507765 2.1930952874051237 -5.115308838849681
3221 -0.4857755465668925 3.154638919720217 -3.3272171395950445
2899 -0.676068764504933 4.787198524447666 4.346929582063145
3509 0.948633604070408 -1.8691670706114498 -1.9034496718565594
3797 2.74129603427413 4.647183683249161 -1.279543659278988
3763 -0.2916396466226449 0.44554150836897793 0.5451634852813959
2646 3.9656387522535423 0.4686659343197725 -0.9716604967323719
2969 1.3652845310282198 -2.8383845584357745 -0.07109844376830571
2934 -2.3675305167116254 -1.760982747857529 -0.29930794142014916
3257 -0.05105891828781674 -0.4650218598455596 -0.2578648618851506
3222 -2.232022451479511 -0.6706501679718273 2.7721537994075645
3545 0.8380620261139479 -2.646984708613093 0.8214301608153317
3510 1.844434490349706 -0.8079363736846952 -0.39494667310822446
3833 2.17933160239175 2.9981973568712497 1.9163976668727378
3798 0.38367448619442396 1.6446319316378752 3.142284624359827
56 0.5474212338716531 0.8473297564307346 -0.9768701342718294
2682 3.055071973515995 0.840918012172133 0.06724955521734031
2970 -3.089001087382597 1.8291617023508968 -0.48221842673095355
3260 0.3375776825363521 1.1037032813307202 -2.137654034800407
3258 1.3981642640189915 -3.1879585444517398 2.367165712491836
3546 -0.4985583340839133 0.9548813891881294 -3.219578914392451
3836 -1.4310826911724817 0.4198109561698507 3.4807697494554732
3834 0.3350203203031621 -0.4866894572434566 3.3827925370981555
3005 -2.471860862909445 -4.725116267267451 -2.853653501083151
3293 -1.5770753023280337 -2.485691585250699 2.198904192103921
2971 1.0517735182999457 1.4569860864951611 -1.67666547073304
3581 2.7200595676533976 2.370263181248824 -2.6348051469279503
3259 -0.10885670900109218 0.6781722116904163 -2.2580906187094687
3869 2.13513253053648 2.9345823763100736 1.7456234451631556
2718 -0.3530676278552626 1.6551769693251994 -3.2483333438065483
3041 -0.10955770831011713 1.1007542124255556 -2.9392640868645383
2719 3.9057132871271354 -0.8663086192515693 1.3382675992887236
3008 -1.1788152016957443 -1.936190123333085 -0.6580037915447371
3006 2.2587552640743085 1.5470364877806915 -0.38092132468775275
3329 -0.2564889575870742 2.3670519592516466 -4.872633534084106
3296 -3.1311156730579794 -0.4427510585831196 0.6111372138669052
3007 -0.5876215347973047 5.220759290350745 -1.142070759361622
3294 -1.0301248131378349 -2.0978315805062695 3.508561023558029
3617 2.9721381094985895 4.36414831457779 -0.056821050402275974
3295 0.2124037586262642 -2.070644530607513 -0.4503752990443492
3582 -1.9565401383728567 0.14582693471084282 -2.8732895590577496
3905 -1.675979272217842 0.9606800686614669 -2.1694502734686214
3870 0.5156829996641675 -0.9418970618412009 -0.9211569936897193
3871 2.1127002213227057 0.7469245074268929 2.2639193614939703
2614 -2.7208533020874195 -0.6381077447042125 -0.9042343444911951
2902 0.5026043020101764 3.7123734749530697 0.9311589786577849
3476 3.5948121501731753 4.9327645813195 0.09158465224622028
3190 -1.473863966928288 0.0026586848442659754 -1.6253090429257624
3764 -2.339453796973191 -3.4097189293450354 4.90835492500045
3478 -1.1956673971956897 0.5079796609377787 -1.8996012883623816
3766 -1.1614444097738306 2.1053105960935383 -2.780215777007838
129 -4.380429773261989 -0.2765344435485423 -1.7825730865929827
2937 0.3692467647499952 0.19969931960538287 -4.059026177648581
3225 -1.8500000722077938 -0.4203539031074171 2.72178748258394
3187 2.7517839548605476 -0.7976878306186721 1.0509158702578145
3513 -0.46533154454522624 -1.756084760518729 -0.013444600405781082
3475 3.4916873000557884 1.4487094174707673 -1.3819213679142275
3801 -3.8138052284405504 -0.9402680450892008 -0.921902137854343
128 3.4987380681850357 -2.6998361297740052 -0.694145857366795
2936 -1.2355605753523056 -1.6857041472641137 0.16612022484697792
2647 0.029451843449166102 0.2168978828213389 4.6759237789452905
2650 -0.6954872572340102 1.486560522438237 1.562308359910742
2973 1.2538274206272921 1.7247552633611043 -1.2190082391351886
2935 5.14069114270202 -3.5352268292693294 1.7224709711167454
3224 -3.0454966445395493 -3.0917875779970285 0.492720653398501
2938 3.9964342205053374 0.40913128629428996 -2.0092373619972093
3261 1.3528558020059098 -0.5909200597844124 -3.6136138573198937
3223 -0.11703822914268197 2.219943223222658 -0.6746856392483183
3512 -1.3010359182566884 1.5378190219010486 4.355127609914389
3226 1.259889208701427 4.767316594598599 0.6129676443357773
3549 0.5115929999016834 0.14452104893550036 3.4644199646695077
3511 -0.6034179381847364 0.8266748410525409 -2.0774247423936103
3800 4.120720549664414 1.1199753849682434 -2.7926823202947575
3514 -2.972796954958533 1.3108722254970453 -3.5740796502372163
3837 2.0470231426866534 0.35566659717398436 -2.4577005457338488
3799 -0.5080436479086452 -1.0133335500559915 0.7744132307448368
3802 2.104778778431934 2.1653199306728896 0.03041271737664304
2972 -0.8456387980539822 -0.5987136515851915 1.7979056612115014
2686 -3.030061515293287 3.675010786639116 -4.848433311117732
2974 -0.9128798547750776 -3.264315680039279 -0.5636048335691469
3548 3.913413304585999 -2.443646172472629 4.410583609051747
3262 -0.06608635672828782 -3.549346159122217 -1.667913222795663
3550 -1.0223253968341979 0.9769135139800981 1.6370074605294402
3874 0.6062496643723149 1.4775522820351192 2.078148168668166
3838 -0.0948612927337495 -0.33388560278373186 0.6252838770508468
2683 -0.08725511672095727 -1.7899356743126058 -2.586321679976182
3009 2.1800627581071157 1.6899966427066115 0.2015182599640635
3297 0.5656238280743234 0.8596733472448623 3.0652401084828553
3585 -2.5770952461362957 3.0071778736252908 3.6583416593901927
3547 -2.20673133139798 0.8647223089284034 -0.8468007977177722
3873 0.7334000583420991 0.37591622682774817 1.1644541442896699
3835 -1.3891113433785138 -1.3725713474956867 0.47524263221631896
3909 -0.5545714008279726 -1.1602702444259707 -0.15032628759510544
3045 3.262634968672737 0.41606398514459747 -4.790436458734099
2722 5.14239454397654 -1.8252970445961119 -1.8430180743804716
3333 -1.7856264643023698 0.22925282989327192 1.0705359455715255
3010 -1.974533459931916 -3.760052794017036 -0.4093843432035797
3584 -1.2136298082552812 1.5022898900632495 -0.8366701226471337
3621 -0.9209342461431953 -1.6912969526213677 -1.7128727634165952
3298 1.3784169953925594 0.2773514138168169 -1.295643923007182
3872 -1.234189353897636 -2.739533010210627 0.5409397392194532
3583 -2.3288410862542923 1.6704271378708306 -2.0619536167498778
3586 -0.22667038261911004 0.18764201681142742 2.171635417147968
161 -1.5949950815498475 2.335322862937914 1.5423023137126763
53 -1.409946282801297 5.802017578244541 1.1785226902823358
125 4.006298339363939 -0.2898591914970443 -2.5177189810020897
57 -4.441686279089511 -0.6489491901816733 0.9099333358767162
165 4.157798090442256 2.096621417559124 0.9418100847697284
92 -1.2897220361661228 -1.7271120644590108 2.445289456890976
2904 0.444100344153127 -3.794307644640569 0.09361471593942672
2618 -0.021217347465674396 -1.9937999987469597 -2.3822076825643888
2906 -3.1200882509700083 1.6757783425460917 -3.4954581353382164
3192 -0.18826934036481696 -0.2208943535210595 3.002079303278037
3194 2.0809031558092346 -2.6791991592777116 -2.6686165387903675
3480 0.3536667510150614 -2.5363517145537524 -0.38684827139917805
3482 -1.3543844537463117 1.2503892412955513 4.635467548405087
3768 -2.905838087318426 2.346536751101585 -3.616857904929363
3770 -3.765035636844718 2.8460365676384716 0.10881687755286154
2615 3.8035753723662173 3.6165713226911698 -2.1971023197972395
2941 -1.7562147544399371 -1.3572091400265915 2.5533695681437307
2903 -0.15652131384772747 -1.9953382021799457 8.20438975607119
3229 -1.3551318494560556 1.4442713381430823 1.1938872059072358
3191 2.273421573302355 -4.238263744882825 0.0475016902234925
3517 -5.724681042347446 -2.0770138689698556 -0.06515078421373634
3479 -6.798117401552276 1.6821229949422947 2.2080713373840695
3805 3.0954480276736334 -5.437139240927765 3.299916805292595
3767 -3.0045502752657636 -2.170851303286124 1.879040928015404
2940 0.10645505695125926 5.016994663570263 -1.3698467655126814
2651 -2.4796344765629597 -2.7775684100324733 2.8668888937034263
2977 1.2395361088003312 -0.23199192050696774 -2.396462207215566
2654 6.852245510786936 -6.5537394483539 5.132238110499649
3228 -5.260951295789798 1.37247407808497 4.069323159728988
2939 2.5507004181696824 2.357696272352708 -3.102327012746302
2942 2.634510894721047 -1.0585613525530215 3.625702007941897
3265 -2.0126092935609696 -3.9348531804871456 -0.396093600702619
3516 -0.22194878867030576 2.790802996778183 -2.238584818888478
3230 2.6726599535966957 1.0747449981414339 1.4786208737670965
3227 0.8898517527799392 0.26450157616688186 0.9756894108747594
3553 0.5897181405139041 0.5077288731480647 2.130082933445712
3518 -0.43128341413055477 -0.9874752255535281 1.6102975195961196
3515 -2.0044988556045715 -5.418337967125244 -2.631702927756845
3804 1.2170357558453206 4.0221693111320125 1.2876257517171383
3841 -1.7959642529404642 -0.971453360980657 -6.425248045662038
3806 2.5919133723157493 1.6471864406718943 2.1881832727357637
3803 -0.4265607179034174 -3.4411570996723397 -1.9526700172744873
132 1.018772980424272 -1.8378316060847328 -1.0694688562785168
3879 -0.34724851540913604 -0.3071094456155048 -5.3981465015709365
2976 -0.5800188704284275 1.0430328435870106 2.5423424181813887
2690 -0.46861264739362507 -4.515660024041289 -0.530371007458107
2978 -0.1238314374629836 1.8908522785239248 1.6571519773127852
3264 4.053786452526108 -1.1877608739399736 -0.37513859010269696
3266 1.414532691816461 1.1107535067687566 1.1834377989682257
3552 -0.7121429618361615 1.8102084500088036 -0.5435845985506669
3554 0.18741968711982224 1.5089321185078646 -5.518578827195407
3840 4.4735854102172095 3.7718091820644215 -0.647736286218816
3842 1.3367344029590964 -5.0046469185388975 1.2993528957592946
2687 3.967586352188289 0.6897231048366569 3.406492560521212
3013 9.124950009660507 -2.702872312600623 -4.746128386620586
2975 -0.6763142532756214 0.6706865285332603 0.5756667352597523
3301 -1.0745084115108756 -0.1549351195064348 -2.6875603594120525
3263 3.0826728861872335 2.9377754302523136 -0.36403101776636787
3589 -2.4343541272675795 -0.2675097288743657 1.416164938539336
3551 1.5702121282546473 -2.102109998360657 -1.0350033348486798
3877 0.42254264096995753 -3.2742049188141054 0.07894729069283457
3839 1.2574314637491089 2.556768984401336 -0.4368535098816365
3012 0.8029864050388155 0.009555272357464492 2.5051340247492133
3049 1.3209104486009138 0.821176169496655 -0.9176953928373408
2723 1.0188148260607461 2.6302345589718557 0.7728580366259936
2726 -2.2296739236403447 -3.154334791774178 1.2997515534069422
3300 1.2368032583612005 0.36068683080122427 -2.223549946896226
3337 -5.922280206101854 4.213633140958542 0.8464279571802885
3011 2.115092086925627 -6.459541393791928 1.3902552396704964
3014 -2.218487747968053 -2.216960478407519 -2.728781581980081
3588 -0.5583719990521785 5.503533266061763 1.081638364610992
3299 3.58184276431417 2.5279787539201863 -0.3282412542664377
3302 -0.1516650896902297 -3.9647416949200744 -2.705240651869045
3625 -2.3642339691521275 3.0319639407276546 -2.342656570314934
3587 1.3089956289262725 -0.1535782647523992 1.686550161163627
3590 3.9538868877286957 0.9831279015689294 -0.9027693793568223
3913 -4.291852114312575 0.16088970581833467 -1.3052394076313913
3876 1.270628573224346 -1.0915297142271667 2.1974655802888825
3875 -0.8861356847793321 -1.7605561703223758 0.3952890463030974
3878 1.8829451598287317 -1.2872679481989815 1.8221312372962541
3917 -1.1619440383400905 1.181629582168012 5.279120756228411
2622 -1.6801013847294537 1.1361677916205075 -0.09900990484564443
2908 4.504820765087743 -6.040882702590078 3.3667976751092468
2910 -3.510524431861522 2.9936542004171813 -0.5058420770502438
3196 2.33897894074584 -0.6842615280757406 4.957165400704623
3198 -0.8579041939732224 0.3849838972957001 -0.023358285720126073
3484 -0.6311233996269977 1.2789698860156398 5.101177482345683
3486 3.3541575105635513 4.892445829290488 -0.378010928964882
3772 1.1442756778571515 -2.623361748832837 1.2894838080794355
3774 4.499573003199999 -1.6738103566085227 4.196808872263846
2945 -0.8884738063014221 -2.166800031970825 1.985639202921626
2619 0.024621053796120472 -1.3126380220332214 0.41889722951051755
2907 0.5961956155569428 -3.0087772234958376 -1.411593810345354
3233 -2.98994770444274 -1.887058485151086 -0.14820984080049393
3195 -2.802890399263014 -0.8741474084731836 2.5575723308529446
3521 -4.252396998709421 -1.1925264976321532 0.7531962313692446
3483 -2.546658236407785 2.6379141383713973 2.884644792960849
3809 0.6273503608979748 1.5879643832676658 -1.5753664744254159
3771 -3.1948204914525933 -2.757604637025263 -3.3398208056894445
3882 -2.5696926818499572 -0.42613408409019154 -1.269745687226486
2944 4.1918460991019 1.4326012851496752 0.054037046573125296
2658 0.14155359454618108 2.990172218897931 -1.3269298365962507
2655 -4.890408210953287 4.769166743797049 -1.3397854684161472
2981 -5.61344467590668 -2.0414161591307733 -3.4580602684326625
3232 -0.5152593436630514 0.7748126982859851 0.7473031320450996
2946 -0.9144068839432441 1.1693669275418126 -4.165592531897969
2943 -1.1261483762352862 -0.7545245594943422 -5.437803151589699
3269 -0.6596716823959551 -0.8658329953655751 0.7067344347444431
3520 0.2858327711204971 2.906141677174779 1.196197247545547
3234 -1.9026302133480046 -1.991003911250384 -1.6027299980973462
3231 -1.190196039832607 2.005702710114388 -0.9032632721687207
3557 -1.5635989466607192 2.0248902423426585 -2.8807158789911047
3522 -2.385974732823415 0.943651397263483 -2.9391950973008503
3519 3.374685031518826 0.6839617733458079 5.697137295464257
3808 -1.9576586552188169 0.31859338657946534 0.2760276150163048
3845 1.1481014420915265 0.3384840716447985 2.897058775936745
3810 -3.8656953757073835 -2.9739878814819 1.1529564327880701
3807 4.274031288897755 1.0158046916446315 2.1283202918281563
3880 -1.2570838147808223 -0.8837918456389269 -1.2027280797415854
3594 1.3209328466425043 1.3354688274797337 -0.3678032469315626
2694 0.6550476444855462 -3.791494211547831 1.6662984275205273
2980 -0.09881351571492288 1.553570116139143 2.062240193138237
2982 0.8738351877836402 -3.3101738799623464 -2.607521999637024
3268 1.4207613272219166 3.6282303610944355 -0.0124615074755185
3270 4.387873696625071 2.950157158869665 5.607640558329787
3556 2.5980828514713754 -6.099392112037541 -3.5431099700387674
3558 -0.21583315972063483 -2.5457799360431843 2.126001443148143
3844 2.202392463608095 1.3982945673421174 -2.933644312230716
3846 2.4156797783492574 1.7488122882270734 -1.9840086359776605
2691 -0.6598702954422757 -0.8869199139503786 -0.48037718177370003
3017 -0.2169891868033391 -1.5561111137428087 1.7426400975601875
2979 1.561882778012711 1.5809074158380563 -1.1925248453393622
3305 1.147175275449317 4.002595640182989 0.6481430716922804
3267 0.10573903694998828 -4.741860101179291 -3.635512814607342
3593 2.714004123884385 2.5647254893643674 0.24787128607588083
3555 1.7631934894124823 0.10569371540880512 0.6323859562609679
3881 1.4030709549598432 3.5443544938573606 0.8019416710032582
3843 -1.7527777542643175 -1.32238797281872 1.7115856380596297
3016 2.615820759915002 -0.25229864974678545 -0.6916690499479092
3053 1.9922110836740672 -3.2185005990347846 1.980017902326993
2730 -5.844718709658517 -3.3739653393231315 -0.42584694356920166
2727 -3.5376566308835002 -0.18757808821998903 0.5784474787391674
3015 1.0658724002755315 0.3639211058913891 1.6172171892637974
3341 2.1707541031230795 -0.8035433071760651 -0.6207966094297873
3304 4.224835325043543 -0.27308588764781494 1.713233943808899
3018 4.65021137503951 -0.28590754763356857 -2.555376297212765
3303 0.7769104718597879 -0.8799708916515634 -1.0411705860820994
3592 2.772511096937169 -1.522185211930146 -2.7562278220801977
3629 0.8930202888576171 -0.4435294789195474 0.5504960596222521
3306 0.012577645296622773 -3.1396723362317975 3.093468543417629
3591 4.903915939494055 1.258207137217661 1.2318631562707714
64 0.984538172878029 1.9666008688741312 -1.4906545289264863
169 -1.532108948643126 0.5140877935529662 0.06747973749799732
28 3.948450356326043 0.8282745302316221 3.333587613954037
24 -1.4340032276039971 -1.2935898762866016 -1.0140865067028269
173 -1.3064341138481028 -2.5395634353575725 1.8430668009225681
133 1.9604023343925077 -0.09008374776100866 0.3847919271881459
65 -2.2788616567967104 0.7447654817382175 -4.681844449570591
2912 3.136962561965646 4.638070023732762 1.1518444790476574
2626 -0.9788874589994707 -4.741500022243174 2.7293205273313936
2914 0.6126727363963379 4.205612493128006 1.5055994762669584
3200 1.857962221093154 1.4302907882668663 -2.409966772871939
3202 1.214779312779039 0.6302184222413123 -1.1390692537935632
3488 3.705692927811004 -3.135602558224004 -0.8325824017854999
3490 -2.4089328967418755 2.812291514393739 0.9580261592515871
3776 -0.48959417049470844 1.0057103163859957 1.8402555934957436
3778 0.226921355377923 -0.062014780180528875 1.759264805777588
2949 -1.7078633757503678 1.347677161757831 1.0021783362212109
2623 2.5689382769697873 2.4744891762956405 1.1241755321506872
2911 0.07048404669449461 2.142700346954532 -1.0206502954581593
3237 0.787944468954751 0.8614372188590328 0.9258680518156873
3199 -4.63275060895493 0.8816024486724482 5.896285052111207
3525 0.5569539080608306 1.8438311865672827 -1.5801872913532435
3487 3.7198486777402633 1.3952777224611894 -2.3836056083878936
3813 -1.1995559798411601 -0.6030333199244243 -2.7887814338067285
3775 -0.3370915284394639 2.9967258421166276 -0.6844522957083828
140 1.4652766245382658 -1.1915986349157408 -2.2770983614625924
2659 5.155121191974046 -2.056466172701772 2.32678018707119
2948 2.2809787176710863 -0.8754684000640489 -0.34492573618625666
2662 3.384061351615022 3.7865315826999666 -0.21253089838427205
2985 -0.9773165798670038 -1.3166083178104295 -1.477367298829646
3236 4.753509191842179 2.122813998735231 2.7708887172748984
2950 -4.633075446036666 -1.1497949792817128 2.2169781830707698
2947 0.5011842000638688 3.1752251393025985 -1.6352473363652973
3273 2.1076063781202006 2.8591988286502685 2.4747224442737092
3524 1.7115753042334159 0.5391516412350321 1.7704172997463392
3238 -0.4164263283738983 3.1501153966476516 0.6946952465250105
3235 1.4403953817432322 0.9121051201930818 -3.271040945812429
3561 3.7808282874958796 0.8861646332298134 2.467206750367785
3812 -1.9547753902715004 0.2683169861782876 -0.987218914612534
3526 0.3906726206526065 -3.992397736467858 1.528739495685076
3523 1.3935420886030467 -1.0652389681138719 -1.4189076856752258
3849 -0.9306617780099166 2.6925307309884183 -6.210849934164242
3814 -1.8431551670878363 -4.080377915199908 1.9526578655765472
3811 -0.32846589907553936 1.1496681411277159 -1.6227457620338555
2698 -1.2966683151554865 -2.1407590060630834 1.511282030560968
2984 4.180727175707798 0.7543736286178241 2.2953524610220235
2986 -3.331492173270716 -1.6236135219506505 3.9059201051697072
3272 -0.7137875238897033 -0.5692283939944678 0.8461428798287063
3274 -0.22056832281586755 -3.055745504691172 0.015579603971333183
3560 1.4632107069302673 4.278616828749031 -0.2884828275343723
3562 1.4208055560603075 1.7453825305685056 -0.8684225034861207
3848 -3.5311786562674814 0.8374898622035871 1.3833568713381716
3850 -2.7039600437274354 2.557766852393 -5.064549397156384
2695 0.5181679127317397 0.550931926014331 -0.2809853440827028
3021 1.9476227347606732 -3.232861591388981 -1.3937071758739563
2983 -1.6318226697423914 -0.6519998725878741 -2.0497104989147013
3309 1.3898113719988214 -1.0053055229680254 1.785691657515387
3271 0.46464031903568465 -1.4150844157209999 -0.5079005166944156
3597 0.7125438329957698 -0.28240572781228934 0.29150478228610127
3559 -2.0802930353478963 2.8099611493772083 -2.0071936760659708
3885 2.6137835841651036 1.356629767795961 0.110552166966854
3847 5.369666173201522 0.5937994065472243 0.4998385726763478
2734 -0.3944312592028721 0.590377546376768 -5.201508957075728
3057 -2.5262827507376557 3.0971883065254775 0.17134732163721902
3020 -0.8418485953463735 -1.0543028650953417 -4.774908251136323
2731 3.956811071834403 2.8189498603285545 -2.45399584910626
3308 1.1134181155942837 -2.1181821594997294 -1.579530349395172
3345 3.830546245640891 1.6575793575088125 -0.2511434929693258
3022 -2.591560450678565 -1.216402093614853 4.928229551218553
3019 4.614615534547795 1.6005814237260794 -0.9467401193760829
3596 1.814571112772725 0.763972735474208 -0.8502429601597834
3307 2.432963603578121 -3.3877328023251834 0.8635767537110508
3310 -1.7213299368147168 2.723722946438706 0.5138899957177003
3633 0.45291109014281783 0.12821246009225123 1.465780857443367
3884 0.3048631744919007 -0.5265494756465238 4.05214355128443
3595 5.39680146138401 -0.8145310424154215 -1.4659272273570352
3598 3.3405655087962995 4.336154311188133 -4.45524623275801
3921 -0.7680836013780112 1.8894059265687049 -0.31618195258381493
3883 2.0984320610540625 2.3794988023705312 -2.957710762308094
3886 1.7519792284513667 -1.5720739814511835 -2.211661502608802
3854 2.1261469188781996 -2.3543010955345314 -0.5194507143819805
2916 0.7025885398099704 0.9709285908088165 1.9663251271678517
68 -1.942103484324308 -3.286702680399143 0.8805744019381047
3204 3.121454797730019 1.0472113357321955 -3.291911981359881
3492 0.07571117616258777 -1.9694176360850246 3.279114791129456
3780 -1.8614907150996296 0.005864031942549044 1.5759008793766225
3312 3.1880457598585608 -0.3999651604028121 -1.6853182795383541
3889 -2.4066955020291076 1.3137923062087093 -0.9251750337924233
2627 2.70078051810508 -0.014238807645925123 1.296216916989063
2915 -2.3145968137824537 2.3425710863251115 3.5187978741300254
3023 -2.0632546215778342 -1.4169447181564145 -3.3031519946044043
3203 -0.8395059911938293 0.5178994887865924 0.4533492279206019
3491 3.98518891327667 -0.6900731871489997 -3.0630684805758994
3311 1.3719286424336008 0.8638586024282959 -3.0729248807898113
3779 1.2975273138472372 4.90429322712748 0.9755260409452482
2663 0.6243710364267043 0.3181800815413894 2.797619770704401
2952 4.011565869186174 -3.671448762256105 -2.082178486416095
32 1.5228421934837284 1.0265038339223622 -1.6162399022335199
177 2.0036917820107605 5.766385467842251 -3.4137079067084035
3240 -0.25074683623152677 -0.758944449618187 -2.725730247470197
2951 2.578973661154957 0.7396522484004121 -0.07642158914535907
3853 2.426208117436527 -1.3489127728634138 2.7149263516382836
3275 -2.1645692001626733 1.8362776114759545 -1.1420090011414672
3887 -3.0341490044663377 4.370603590145521 4.1129544265046185
3528 -5.1855559930958846 -1.1849937542191071 -3.8208005593157885
3239 0.19716774255745495 -2.5348734741600216 -0.2759718888516882
3527 -2.2882950720559334 3.3471583697204905 0.11537718442635117
3816 4.29757786208688 -3.735853489312433 -1.366634232262198
2735 0.3674982703441251 -3.7709089066264707 0.42976212999059565
3599 -0.6750508930720749 -2.8560549758576927 4.329680388996854
3024 2.5946440457588973 -1.1149223692774013 -1.1667093912269395
3815 1.6594059356990523 -1.0717199977550331 -0.8246518250373611
3313 0.8325824733843444 1.5600556868730329 -1.512125674465475
36 2.4414427600120767 -2.5648053854889903 -0.5140800445116573
2988 1.1486046579068123 -1.910846294897168 4.410673228108736
3276 4.674466019375691 1.7729779345218257 0.4929004996543216
3888 -1.8191901309789524 2.095295629247692 1.2280096663594624
3564 -2.3957783453517707 -0.1150966736698654 -1.8332457108284403
3601 -4.314528531261212 -1.4635941134370785 -0.21782071341604328
3852 2.461115604524807 1.3190968127327705 0.3812595116992426
3851 4.177262781684624 -0.977634061936965 1.3556578197568934
3530 -2.30368813374204 2.5303209264388435 3.962116739430454
2699 -3.4492869818407126 -2.013499150493929 0.34289919641827993
2987 -0.45945933955024704 3.129230849490263 1.7637311409990337
3563 -0.9501180791692635 -1.3685361643898362 -0.9971450506408117
3600 -3.8766306362428296 1.785891168226593 0.20191669894867842
2989 3.177805785749041 0.2698683722417454 -1.655049781598091
2630 -0.8248647762409764 3.0412616410831768 -1.1453564937887402
2990 -3.3329840664636157 -3.092506261520128 -2.67079637143306
3242 -4.786501774437989 -2.7931382532501923 -1.208668849743923
3278 4.350609939277276 -0.44874011237090816 -3.56683032904907
3028 1.0505601621849014 -1.310650866261105 -1.5199728359532072
220 -0.5097695661222366 1.1968455375979088 1.8057707207811677
3316 -3.8404670143653594 -2.1138102351401926 2.184719049145261
3604 1.873821380623864 -1.356971318502334 0.2700769188411737
5 -0.6333685433285362 1.2132012183561913 -0.7923188016977737
3892 -1.3016564872956953 1.8499423654179175 4.122843175456041
4002 -0.36074973318536635 -3.4193548587035285 -0.37112634825135743
221 -2.905346008731498 -2.7096364907082036 -0.2841652923358737
2739 3.7166485519895547 -4.411426663360962 -2.2870011744739194
3027 -2.2188455685851043 1.1969785306512397 -0.21533032101965288
3457 4.221732765840729 -3.738808092138553 -0.4245845252181089
3315 -2.448200306844242 2.555189327717591 1.9179209604776302
181 -0.02612023175508284 1.5308221722006463 -2.542803368996532
3603 -0.07861644394839397 4.075695685540789 -2.6441847914282057
3891 0.18884697832208028 3.0810688668806563 0.6473556558122536
3064 4.317873900531124 5.08499132950862 2.5274775881823635
2775 -0.23887054353850984 2.444710194139799 -1.5885080877678461
188 1.0768331441165633 -1.024035578944141 1.983048816276008
224 -5.037135822517638 -3.727585237050971 -2.5056500513395843
3352 3.6872165693895433 -3.487132053306917 0.5536747594393366
3063 -0.2927221747278574 0.09640743316740488 -1.4625406124977585
257 0.17672079131390922 1.236958934663672 0.327138391843473
3640 2.9399307046813328 -2.8908359372112784 0.5317076037963753
3351 2.8883678211548767 -0.20710098787133238 1.2877574535237393
3749 0.7245318185159338 -2.618917469928282 0.39139018219399174
3928 -1.470977988780298 -2.2914576118145886 1.0594481592751763
3639 -1.2988344658732978 -6.551344265167328 3.735749223007529
3927 -1.1725420662919293 1.9906543633539802 1.473612476907086
260 -1.994029072820723 3.899015818525087 -0.14447426290307508
152 2.0277273925208483 -0.6991793933804393 -1.9757046324311651
3100 -1.2482302193042085 -4.734813060833895 -0.5628449123290998
3715 1.6071125040027747 2.007533864120766 0.35029372795125174
3388 1.5924190711630828 -1.447744308240803 -5.736919965202096
4004 1.4431629082303021 -2.0411510814317024 -1.3184180100334058
3676 1.7714452945426533 1.8323693088751565 -2.9445113874320206
3427 2.434525105757922 -4.510453017966448 1.1297809133444174
1 2.583401623829247 0.7157421246743737 -2.0850641033087025
3964 3.317028438271417 -1.0962111679160729 0.764332574557909
2851 1.381493076175664 0.8366023765274044 0.36781227403818195
2811 -1.4100152398101322 -3.372654587991939 0.4297846179721096
3099 0.8277080353191745 -0.04134144484490303 -2.3953361416902372
217 -0.2881379588987087 -0.9143054464394514 -1.2806851835285864
3387 -1.8710120016975056 -0.7345054176061667 -4.946015951573379
3461 -0.601727691813702 -3.516091504820235 -0.7963453816207862
3675 5.1368505290397755 0.15455235221409125 -1.4065054825709777
3963 2.043937125006084 -1.6098831381636525 -2.7007466440536914
2847 1.8935782955363427 -2.7985585578432484 1.9054403807962592
3136 2.25857364922816 -2.1931254620719542 0.10698951599533389
3426 -0.4652177062703702 -1.8540930668808917 0.9085088254166375
2850 1.8008383757247495 4.516590677954617 -2.973989912861596
3424 1.3781111299639255 -0.15462908570357833 3.1971621668885035
3135 -0.5680000657678257 3.2723857483228227 -3.956946375934548
3139 1.7721614266285086 -2.955494788463214 -1.1402796461926248
3423 -2.913318523867892 -0.9003173979971701 -0.014924298120447266
3712 3.0894485982533784 -3.086896122286374 0.4930250672065197
3716 -0.17013391293891142 0.38834825239860116 2.1046328373322307
4000 -2.7144340542259098 0.9017840580523548 -0.4297491974445306
3711 2.216292998168675 1.029452172953151 -2.890581794121741
3138 4.457163094660763 -3.564087811726304 -1.3809165732052522
3999 -0.9326430284504716 2.6748881147596566 -3.617199102047861
3173 1.7836870290533933 0.9187188462495843 -4.807154965866764
3714 2.032724806637987 2.0212259269723165 -0.12358923463801631
2742 -5.8850619721581925 2.0038178439497183 0.7718928642161462
3032 0.6420575245694617 -1.1592721365797596 -1.7276831011428941
3030 -3.004609624116475 -0.3889294182794692 -0.7426512716867408
3320 -0.9455726227927066 -3.03607962941388 -1.5463225683131532
3318 -1.1367003962731899 -1.9245713758274927 3.4474363813582714
3608 1.3115239685224793 -2.77258860390477 1.6267880014395288
3606 -0.18163462954692838 0.2951743986981371 -0.11483214463334351
3896 1.0919501758039052 -0.2769361337752755 2.269659740147269
3428 0.5348277556695082 2.0617679900782844 -1.1385231203195776
3894 -0.4339635420457123 -0.4974444467164364 0.17419883318216678
2743 -2.1594385502725224 -0.20659329423945422 0.7437614777880246
3065 -1.9224492739488306 4.715516780320005 -4.71096124185217
3031 0.4110180518996774 1.7213935039881438 1.8498737510550483
3353 -5.7295215360615686 -4.038593759795664 3.713064210529687
3319 -3.028421731104123 -0.8741537813002467 0.9799037536395266
3641 -0.23250449180513574 -1.2930193873535263 0.5181838740678781
3607 -0.7163380311963845 -4.0627296102266515 1.7777102164770748
3929 0.7980458292886462 1.581328407102801 -0.7641612528841614
3895 -0.43293584740293833 0.8376028245447376 1.0216406812305403
3068 -2.8259829589233725 -0.7616802185278404 -1.3088326589306472
2778 -3.5892710839022537 2.8673368503211645 -2.037305679478341
2779 -0.13208850213052298 0.9935310645128547 1.0955115759331921
3101 -3.875594866487387 4.655762013440699 -0.8799921279519696
3356 -5.365970916160631 1.1516606310006787 -4.220261642446553
3067 0.7258482939304882 0.37140733013176985 0.6818548131250486
3066 -0.30445550910913755 -1.085716863296152 -0.41032572672826817
3389 -1.4723500557913938 -0.7937090258905648 -1.0727808899754125
3644 1.4839672160785318 1.760622843958719 1.74312299625388
3354 3.244157283305323 0.06267247820351429 -3.7907821083819853
3355 2.6294864499833666 -1.172677990239984 6.282588364041977
3677 -1.1557136744973007 -1.0181348474854797 -2.5196876089288245
3932 1.1385061563954644 3.2191870950696577 -4.746731756747138
3642 1.6109270258709385 2.7490799149380996 0.1760115793190646
3643 -0.43320740174573225 -0.8151526317857354 0.675321165332908
3965 -1.9222835723707077 1.3792700405718366 -0.3681804294560832
4003 -2.0264893849878804 0.48149921993506317 -0.41040687261777525
3930 -1.0976259005045683 -1.7751138433979936 -3.746275664715894
3931 3.2540603374496535 2.1556460593959894 -0.41022124171216734
2814 3.1411446306530495 0.0804767635972294 0.21922908409652328
3104 0.4901637988616738 1.1199818815974847 1.7767585262554288
3102 -0.2632159409988783 1.6848938644849671 -1.614543254382472
3392 3.695791409496034 -1.2631325471729287 -0.038283703523200534
3390 -0.9119086580884161 -2.0511951673018034 -0.42340533378228307
3680 -0.1869351357565896 -1.0343567676454462 1.9139161913787874
3678 2.8323573205901655 1.665100598448684 -2.4914148224527817
3968 1.3698286822066248 -3.1132962322872313 -0.8289486249642157
2885 1.7360767583872407 -3.8215733151983735 2.817191401616906
3966 -1.1037142854412036 2.2143385102667503 2.564678190599944
2815 -0.9621470514081337 -3.286048781115309 -0.7439298959610057
3137 3.5616901961621337 -1.5631270386066 1.8525336499419687
3425 0.7385706704359704 -1.4220996247948163 -2.1846123824117227
3103 1.2671002491788657 0.9822961851913407 3.585827961799194
3391 1.7499873312775585 -0.319693942070858 1.4082205003126969
3713 0.6788737556517122 0.7436402721491108 0.40385138452392755
3679 -1.0873521840990596 5.205719242133157 -0.6547428112457758
4001 -1.7451097257007702 -1.4705527107047651 -1.361023711670392
3967 -1.1587426275809047 3.618250612893324 0.6141463993166302
3140 -0.11344264602442501 0.8606053716389221 -0.01455375962159143
3097 -3.3950597612799003 -2.2414591109283184 6.018345650588655
3062 -2.8448022614620116 0.47172357769640816 -0.1164040688409344
3926 -4.125658862566892 -0.6804976299288241 -6.852621209267772
2881 -1.4162094668411875 4.017111695696759 -1.033566406167338
3745 1.7771338620586807 -3.3283079276460947 -1.3676714875071925
2846 -0.3209575395713387 -3.9576321193315476 -0.4265068347854409
2810 -1.6690099379665173 -0.029138823440636057 -1.4703967688721318
3169 -1.7625042316441077 2.63979692187972 3.157573705798934
3098 -4.854948131382363 -3.7818921874560267 2.0601854757334035
3133 0.08668153691358126 -2.1848050028023063 2.3424328310516436
3385 4.301497942137991 -0.41740077416198884 3.5157600085595915
2746 1.4501973441868947 -1.7935222018719659 -1.109437065308499
3036 -1.1165107872616924 1.2467378498121169 1.8014329109947413
3034 0.8776659291777663 -0.4046902836918464 2.921512914410966
3324 1.6677873208028837 -1.2991696051849309 3.585527119038419
3322 -0.05923751157928169 0.9876166646495568 3.200157356268333
3612 0.7826983721161089 3.325395634857225 1.0996160630870335
3610 -3.6065994188178223 1.6737459662046206 1.7780728685923857
3900 0.38548284358327 0.6325182871013119 3.396412484150367
3898 -0.11548119141601651 -0.10333772595859593 -1.310273003279658
4010 4.310766601591177 -1.2366264924918913 -1.875778691801556
2747 1.725672430318032 -3.1860102526851986 -1.2077040899526144
3069 4.822503729757637 2.3755526339770534 -0.18603118356983755
3035 3.102930936408541 4.6982895877047595 -0.29747366595730995
3357 -1.9923859596445084 1.4336001641386056 -1.631638649862709
3323 1.3601449061525983 -1.6309590352139702 2.927460994905431
3645 -4.209968755639019 -4.015005946597368 -1.0398708653363413
3611 -0.48416691627526015 -2.6563021446547985 5.699752978960734
3933 0.9378601171579866 -0.01029846906871728 3.3298297695345855
3899 -1.4881432708370506 -1.203248043721242 -3.8019088786861848
265 -1.4408345282313277 0.7599117156888916 3.9915411331015047
3072 1.392857540244671 1.0149103871838072 -3.2738790585503197
2782 -1.0468430382921188 0.6209307741030178 -0.10108320124382185
2783 -0.40580864301412045 6.709644789128089 4.2904914951954956
3105 -3.4068789498487546 3.8519556949030798 1.7864329579599996
3070 -2.357355108945686 -4.480318122267448 0.5503643834190021
3360 -1.7583815796944708 1.1223958737087338 -1.95051309141729
3071 1.0623147907368684 1.227880417868533 2.7182857142701935
3393 1.2461425075083659 3.0896115679357083 7.588683907330911
3648 -4.37223107176647 -6.196106230966669 1.839482306312683
3358 -2.6475838015339037 -1.8824016214869996 -0.099123463599724
3359 5.203548505778374 -3.9396157009071984 -0.7466059365842029
3681 -1.0892919194553323 -0.4726278349818293 -0.6497538007810503
3646 -1.8557354090178113 0.9675994274271659 -3.0457531681156698
3647 0.5837348988214365 1.3986987439237237 -0.9746135111967833
3969 0.21042867264944626 -3.4986899055561382 -0.0663883091922219
3936 -1.5194851439837873 -1.7046388185872252 -0.8761695533853723
4011 -0.20563828368837211 -1.4693336497158185 1.5543954955323276
3934 1.5682286078108183 -4.228408392917826 3.3584094022103077
3935 -0.2176149301511867 5.431662085935478 -0.9770158208974128
2818 3.9460126559301307 -1.4565513632355356 0.9825325700344923
3108 0.7334270037758702 -2.2540356867104285 1.050664192006489
3106 -2.5127431913625693 -1.3686846076245822 3.3214134315370485
3396 0.35055358525284586 5.423167229395211 0.9867875591368055
3394 1.7832379837975338 0.8049150215846376 1.9591943731352857
3684 3.2872909203442076 0.2558726929510823 -1.9150715474458946
3682 0.7966961035946839 -0.2492048154831174 -3.345805986512822
3972 -1.855769525989435 -0.7381157513809944 -1.2885859331804268
3970 -1.598519993444586 1.4540428419358942 -2.262482681089773
3757 -2.5288006557364264 2.031291988855882 0.22227361188734085
2819 3.995458897594353 -1.8056242407291845 -0.7093686187538849
3141 -1.5100674852480587 0.21181621193610353 1.8499546735946293
3107 0.17517140569952458 0.6515478567564352 3.3364862763055942
3429 1.3339549902898944 -3.8104511699763943 -1.0897131544709981
3395 1.7106630315163618 -0.8550927713855567 -1.9954734700261578
3717 -1.2127712985950547 -0.6589971690203923 1.0473144134369434
3683 3.1794196963918333 2.2601112455153185 -0.608009019420587
4005 2.834016315957245 -1.7034953164181597 0.8664200897810428
3971 -3.8039104254661327 -3.6548325713122116 1.0253695670346754
2889 -1.9372601930402538 2.334595982618808 5.2784852631807375
3144 -1.590475994506666 0.0826647274494933 -0.347956571803168
2855 -0.13111970017913727 0.8888066984056548 -4.356765855492803
2854 -1.0118636725649564 -0.7486581239458958 1.817806840749736
3143 1.4796865982449638 2.414409040256835 0.4429415925279626
3432 1.2556739101426684 0.28627670486138246 -1.1487072715850262
3142 -3.4244236012687095 -1.602914442124237 -2.20738620573072
3177 4.0826253378244255 1.3895130521685062 -0.15746316752733383
3465 2.9312873676697944 -1.9628500235369974 -2.8660869235079067
3720 0.736165119268155 1.9954854742051196 1.681447374310123
3430 2.304907839135761 -2.083251495080584 3.8390659944439367
3431 -0.10561934647697971 -0.3146309182780807 -2.8423116325266595
3753 -0.3047916625366507 -0.2935516333521469 0.49832027602250345
3718 3.8590931115234497 -0.2103863565073753 2.021482633383155
3719 -6.464402564980702 0.8283618946943356 5.676760486277815
4008 5.726193885413882 -1.5132676089906782 4.787286238808483
4006 -3.0707452058047795 -4.322028059778543 1.4305601171911004
4007 -2.0158670930481204 -1.931140002283851 2.823104434924236
2750 -0.9291493517992494 1.8430837867534322 -0.9657281941524544
3040 1.0288191198322156 2.9109200011292624 -5.024845724588391
3038 1.319135759894042 -0.902079750516553 0.7400992099860406
3328 -0.9437405443545243 0.7663771593738644 1.298128420290809
3326 1.4449587226652958 -0.07644395067677427 2.5463330073930903
3616 1.922894309368338 3.1007758440222566 0.619989850308387
3614 6.051191372939661 -0.06376288861652797 -1.099602252079218
3904 -0.5669659630555336 0.06868660121397913 -2.9789764052226544
9 1.1141675794853994 1.392012689398668 -3.2706450352758907
3902 -0.5279641454551075 -0.04375039199690283 -0.26301628160875845
2751 -2.5388701792596673 -1.5046272678406265 -0.8999813992447183
3073 -0.8032849047776152 -0.6171878108273947 -0.4159836225408105
3039 -3.1237909416112544 0.1994571575334991 0.3454893584814228
3361 0.016531826904367893 -0.2879931550151917 3.046447970981234
3327 -2.787128755847139 -1.8054831508546345 -5.530043154952552
3649 0.7969322000234723 2.021337799111901 0.9819467162361559
3615 0.5437918791770124 0.5625470819058668 4.172796459733192
3937 0.6162365004263218 -0.19770310003493521 -6.051479158056887
3903 1.5182924944117948 0.22558926784007807 -1.8381089053912416
4012 2.0066001979582593 3.703295185628338 -2.1252509637038726
3076 -3.215992619460752 -0.8598874306686487 -0.7790986508821246
2786 -0.10196998653708958 -4.2079230604029325 0.4645760596236636
2787 -2.3686012359930646 -4.863945395063418 2.519165255652965
3109 1.0844095896127905 0.6808075639551207 -0.8886150562649674
3364 -1.346901306167147 1.8386671626543387 2.282778081554203
3074 -2.185411027670651 -1.251193006157898 2.103095327933457
3075 -3.1017685911189736 -1.3576310857317844 -0.4712792018333081
3397 -1.4446200570205991 -2.148216035745509 -1.5133242397703817
3652 -2.990572718675395 -1.4292376493613919 1.2424034495537466
3362 -0.6276213164170944 -3.9239196079998093 1.1703060220606962
3363 3.355295869420786 -1.4842965916515038 -1.1244391084086611
3685 -0.9714240967490739 -1.727130605077906 4.8465718270602185
3650 4.478428270878441 1.2423254237412367 -4.419599597020459
3651 1.291756256636253 -3.389526213052016 2.567615155427934
3973 -0.7739405545137126 1.6249222449450484 -3.496418024912517
3940 -6.565678803010004 1.7938178447737794 -2.8319596939106764
3938 -1.3770484296977568 -1.9587306880655966 -1.4942216558137549
3939 1.4448971551400092 2.150433070510852 -0.9740859076324236
264 1.0496354288092817 -2.351038080732622 2.5136613844207503
2822 0.4964374452558639 1.137971933724653 0.7396931422873275
3112 -0.5033541539082389 0.05934474580352308 -2.341867712539591
3110 -1.5696803921826126 1.2754628449807135 -3.7099613579903314
3400 3.200668066766296 -1.2013899257783596 0.4710488853149626
3398 1.8975980722699035 1.4084684731282036 -2.869460258440379
3688 1.3282350246120727 -1.167218415454724 -2.594759985341091
3686 3.296923664292517 -3.317964695810027 -2.1162941590995024
3976 1.7847291650009882 -0.8452443029026488 1.5922608829919842
3974 0.34030929026784 0.21187137147600968 6.460495191364616
2823 0.34715459206662913 1.3438113260314866 -4.273532112840901
3145 2.3581734650780617 2.156562611479853 0.434586477551376
3111 -1.2432701487019102 1.1618199997753091 0.3839593732360222
3433 -0.5349168142118333 3.052156282758269 2.0559148939850047
3399 1.8027972128050294 -0.0822461841574152 -0.8654450471394013
3721 2.199169297089648 -4.145038992073051 2.6322569562787623
3687 0.6912733397321424 0.7582301801174188 -2.302894812765273
4009 -1.412102565905271 -1.1710142351189112 0.6714303435635216
3975 -0.559483628685511 -1.8502187239250314 -1.504533625078369
2893 -0.3272446663710269 4.5617686829647495 1.5677251740421496
2858 0.23539415366210079 -2.276773825326932 0.7589980015417995
3148 1.456195200159132 -0.6010910528435085 0.39567395871355215
2859 -0.005457683910935239 -0.384326004316242 -0.04125764385070222
3181 0.09038363957270715 0.44488838371556805 -1.881108352739556
3436 0.014791875843691042 -1.916381696766315 1.075164869716469
3147 0.9791067806034474 0.28672898479056597 -2.3520707987233243
3146 1.1537493530750422 -0.14877801811850275 2.8124019183408855
3469 -2.3798846693882503 0.34938394493565406 -0.489382315850059
3724 2.508786646715771 3.4895268684132517 -0.7665217494275984
3435 2.034299039741679 -1.0200941850129723 1.4958121768110246
3434 1.0551975130767939 4.808209322609263 1.3060552632487754
3722 -1.9863818542321257 -0.13488393339809396 1.2065048069590925
3723 2.087528303271085 5.09417693771691 -1.5854746756359892
156 3.5860460956550413 2.6387623330123384 -1.3481496224926803
193 1.6217362635730488 0.016558963943796016 0.5424187067093991
225 -0.3528095605725738 -2.495418750018419 4.957358376924546
160 -4.173137098695175 -3.4431455102543485 1.6399523816369972
196 -1.585425627423615 2.1140965163658416 3.220730402346435
268 -0.3658902903706537 4.417417795034039 2.0642070966833894
261 0.7827928393719291 -2.6641476240562953 -0.33138419558533805
189 -6.458700940079613 -0.822590307708588 -4.20146824216509
2754 -2.6928980394369137 0.12325123717215963 2.2886291359345132
3044 2.02152350479922 3.5080282764368453 0.10190581554366628
3042 -0.0909989473429938 0.8715995049772234 4.9655015413692265
3332 1.6145681307064799 -3.5445760580250663 -1.0034711268540593
3330 -0.14467573836932085 -3.35824628186049 1.4722766394208722
3620 -1.4353754734793525 -3.2848453903716526 -8.083995295386158
3618 -2.6355829584056747 -1.3595851777231895 2.701027233978048
3906 4.62156060912989 -3.0877146407768796 -3.614114670864898
3077 -2.361865430673924 1.6414699305893337 -0.2698047587844238
3365 -3.485679140525812 -0.1951307423306235 -1.761946396964426
3043 3.1943582975769136 -1.802603345837828 -2.1452366875102182
3653 2.2137672819715393 3.151902473721867 1.1537419698412523
3941 -0.6049865489652728 -4.092763887317428 -3.9585874869344164
3619 -1.8817045773824297 0.4499471948220268 3.638829092966084
3907 -1.2041891163979281 1.5119370599246145 1.2162863288473205
2790 2.848669458781766 4.519824600331459 -1.0646658254631112
3113 -0.5619541102501245 2.418685853402278 -2.2763428841847073
3080 -1.4932004935113687 -1.2382092425825872 -0.09018131861384954
3078 -1.2150128548188515 1.8468747714652742 -1.6406470029266986
3401 1.7207383552711608 3.440625456073278 2.7790018596234307
3079 1.8887998484372872 -3.566843208776481 -2.647161193385521
3366 -1.897312382108483 1.185242611053396 -0.7127782684390735
3689 -1.4919166465554217 1.780849402051835 2.443284730250768
3656 -0.4221905200147808 -4.562799262288992 5.344330062651266
3654 2.234847721694299 1.3548118696189453 -3.5889115278360624
3977 -0.06963823807595018 -1.24206503293655 -3.553816550762543
3655 -1.713031296887007 -1.3200187662118301 1.707322531875682
3944 0.6589991206299913 -1.3453505760792845 -3.889758780760547
3942 3.171300079448941 -4.2991528047157965 4.747877666847887
4015 1.1750804503031063 -3.3636158341213442 -4.520129168535699
2826 0.45074065724522433 -0.858884975051206 1.078756249519595
3114 0.8524634188620621 -4.570382195489865 -0.14449996861765085
3404 3.0190908882414833 0.3455711122003335 1.5181701872915563
3402 -7.967563201803078 -3.6740520533314123 -2.458864575909947
3692 -0.44288743001810726 3.5186421248860187 1.3175689133359836
3690 0.7658219220503316 3.221531976001487 1.4656707858154352
3978 2.167472354296092 -0.32037041773272323 -0.822647231813067
3980 2.031160626407372 3.264410171587908 0.1519818252812404
3149 -3.1335616972618703 0.9735067101602851 -3.687673180342758
2827 1.9766532503383574 -0.8947580175398822 -1.6318861192075957
3437 -3.2744311546373543 -0.08663701530853363 3.509073971438909
3725 2.1552680913064988 -1.622870456554464 0.8345241888821541
3403 -1.3717767524259523 -0.03219796698139772 -0.12792234986641757
4013 -0.6683206534284687 2.4056878408440063 -1.048791600452392
3979 0.46776651766010524 2.1969179043831284 1.9060978017576575
4018 -0.34118746733648525 5.244617920543987 3.3919946691832097
2862 -0.7147720340950146 0.4170359048365236 -1.6291757443880055
2897 3.11458744464921 1.8291014417373457 -0.20009279334177915
3152 1.6174681919704825 -0.8926032893049286 -0.6523991882958103
3150 0.8986525342623795 0.10821885508517354 -0.8007710866066464
3185 -4.4417089641203376 1.2059709698385175 -0.26782411023032904
3151 2.1994921852856475 -1.4293807153983205 1.3605631169984187
3440 -3.168213361128044 1.760315855569235 -0.5928685258516776
3438 -0.8241244317345872 1.9733862410186898 2.406488390974299
3473 1.2264673959996877 -1.7927334003547915 -0.8235038201686932
3728 -0.4462132249728975 -1.57386132925145 -4.756020072997555
3439 1.4437448100096346 -1.8695144774514043 0.8338230417387483
3727 -0.8472347138308438 1.9852286882811683 3.2202825265095907
3726 1.6806734415415503 1.1195253771235383 -0.8039969150001638
3761 -0.4889216122984043 0.8502243804822756 -0.3044681182131487
4014 -1.0273536280511553 -0.4346340517278773 -1.176998317605207
2758 -0.9827813091083115 -1.9882180531949736 1.4526375392794433
3046 2.928741869962166 -0.7236861174545344 -1.2083098147237261
3334 -1.0681261761130663 4.531387116637115 2.103775723697065
3908 -0.0652808929298681 -2.566626243280436 1.6756110536678384
3622 -1.0812556808845315 -1.1841833976686478 -2.5090354283298204
3910 -3.20820405340942 -0.41746962154760386 2.363917729703611
2755 1.067140201620422 2.3996863752434794 -0.8352077145363637
3081 -0.03706824945204879 2.444529977942036 0.6653878593206689
3369 0.5801025223525842 2.2912579397854054 -0.856710526428922
3331 0.8875162252323846 -1.6876898665972582 0.4717812729092658
3657 -4.453972214855456 -1.615808512085745 3.8495882083123756
3945 1.7066994871653098 -1.21276222140104 -1.0279208490467413
3730 2.538919119228502 -1.73359167761266 0.39820744287366894
2791 -0.8193355335743906 -1.0100195079906473 0.8966473863398545
2794 -0.5680130188641913 -1.0365337210152423 2.3646964815205327
3117 0.2133438402654328 -0.8325348198069961 -1.7646950930327796
3368 2.421731212572578 1.6987332280914353 -5.091494322029011
3082 -0.02064865287434776 -2.272729744297555 -1.769234225588126
3405 2.891792698953656 -5.727004415622141 2.011804593186239
3367 4.806507851912611 -2.9661764767433487 0.23517747681703274
3370 2.4634897381405487 2.305549553057326 -2.6920259896700807
3693 1.1620176818851922 2.4854699053020832 3.8885002300536167
3658 -0.2400479665418534 3.673416044121994 -5.061705432816158
3981 0.4529769327647194 -2.9357966968130573 1.7067931592630734
3943 -2.838139856852746 3.9261221338430166 -2.0825530949202817
3946 -2.795032530779124 -0.7258410934790271 -3.465367944501559
3116 2.7401019741295616 -0.2900156279704234 -0.3153247511878526
2830 -0.36404136593119363 -2.989342905731431 -3.596122593402956
3118 -0.4229178527887783 3.1041044700696387 3.00423607469556
3406 -0.18509283895496187 0.8550209997583472 -5.287309925093717
3694 -4.95207670897853 3.2066588562955984 -0.8961592149885139
3982 4.1237868581720285 -1.2920664276061677 2.430450319867167
3153 -4.088568520122891 0.7117915935332054 -1.5979270531115168
3115 -2.6202260841773986 -1.8622364208308393 -2.7171794730925876
3441 -0.0886833584729509 3.0084271681398067 -0.4690406925771519
3729 -2.294508042294996 4.384574912578994 1.514376161085509
3691 -0.807836338882073 -0.5347462843853384 -0.8283363352941229
4017 1.2189302675563574 5.365609608271925 -0.39901713190318894
3765 -1.7163181956132492 -2.705620684866629 -1.2215991706569094
2863 0.42490143961434107 0.5710907456536802 -1.3178545130739956
2901 3.285237738021697 -0.0343705662483961 -1.0222990518472646
2866 1.352912863642467 1.9352862149506151 -7.407204639781974
3154 2.8744837924789524 -2.785526351504779 2.893852400528252
3189 -1.2652541344403316 6.026602801735778 2.457373956393669
3442 -0.2797970396519898 -2.4019004929316288 -6.237550001542914
3477 1.8882578579241451 -0.2711976480053871 -5.338170331530367
4016 1.5953419861418745 0.4886533993501444 -1.0833752730585253
237 -2.329312806756568 -2.9243110701605346 -3.8478851974154846
17 -1.581286290142192 -2.168267417499243 1.1998902767966761
2762 0.7882864091819473 0.3578144552000128 -4.633376852928508
3048 -0.3083348912988165 0.29187336021537685 -4.060626970110759
3050 -2.713735176568977 0.6250956064293799 2.4677763076946935
3336 -5.3032160786681075 0.6565637711517175 1.588791107732749
3338 3.2192802407764076 0.04417769179052531 0.4299452532802145
3624 -5.214105146902962 2.144713372124073 -2.6796793394097262
3626 4.865916009132474 -3.552786649964412 -1.7498869123671554
3912 -0.9064260767566775 -2.6147317694141514 3.0667529406465976
3914 -0.8500162230572698 -3.4587218823375876 1.1370443321012864
4026 -1.2130117652157086 -3.8325379197439866 1.4286075648653196
2759 0.5611047738863126 -0.8636293007724529 2.322419457397724
3085 -2.421384212385355 0.6110734063550687 0.06193412515322054
3047 -1.353875177997776 -0.5179563611207133 -0.5549382538301936
3373 -1.7715710325419414 1.3232867624298092 1.167008061433268
3335 2.2043465878246495 0.6034522509359049 -3.799201869445893
3661 -1.1055063902781377 5.378493382158935 0.087704376568614
3623 3.849279539861364 3.140798246405123 3.3461448976667505
3949 0.9975000416071381 0.08547361212178008 -2.648716051332316
3911 -1.1857563253308456 2.2753850137463147 2.0870401604721933
3084 -3.619184997705199 -1.3129523142665374 3.316602470746565
2798 0.08314263224704309 -2.4292210940887573 1.2799220090481063
2795 -5.423297823759472 5.226291248607577 2.229092170413049
3121 -0.6079134340741494 -2.352146669330325 0.22850060005349496
3372 -0.37815537138088484 2.0743231776633335 2.413531333511171
3083 2.3790185827257764 0.07351543482488682 -2.6517860354576355
3086 -2.5139540020489743 -0.1505447064519685 2.1428344060133124
3409 -3.9498742871447075 -0.362335521646905 -0.032567708953993316
3660 6.711836419111035 1.814795288492863 -0.129392165552026
3374 -2.2125923222034145 -3.116078725476572 -2.4227238362857464
3371 1.3846504649774527 -2.966143474155225 0.26119373271092117
3697 0.43431437948409696 1.0126926388386628 -1.5893069224510228
3662 2.3004617107654703 -4.748676019671624 1.9493358226505735
3659 -2.94723953587388 2.2334415903288214 1.0390447594803194
3948 -1.5158599723788606 -1.8115510469241691 2.851473852563757
3985 2.510063383295321 1.203092229565581 -2.7546429521110074
3950 0.6988068230764937 1.1963355358635681 -0.966604039369837
3947 1.6556794897806797 2.713247815598938 1.8128188680688655
4023 -0.520868241743486 -1.1933902649575312 -3.9551529469659483
241 1.4346372406922745 4.2847889363374225 -2.251792857534388
2834 0.724136222989492 3.070792906385219 4.0203641281015665
3120 -1.7520111387664419 -0.7759095422169084 -0.5964724609847255
3122 -1.9068657527288675 -1.147570284312184 -2.0592823511513862
3408 -1.9035922859890992 1.2494473648838362 3.599375949686019
3410 3.230142386791484 1.3263246715393555 -3.259440601307019
3696 -0.05458979372535471 1.2656122565815522 0.1513794239967661
3698 0.4275501043553873 1.7217967176416877 -0.7046945856727811
3984 -3.071178700560425 -0.2696513394701992 -0.9102175131304994
3986 -1.9219752442482192 -2.6629632391803177 -4.697734493590325
2831 -2.7061753219089337 -1.134754193026766 -2.6968761738776523
3157 -1.8025092461205234 1.9648319427537404 -3.110410729586364
3119 0.22303680018261435 1.383274473098524 1.7604527360384923
3445 -3.779715838909139 -2.9172618685286085 -2.668484886282865
3407 0.5467089185216568 -6.30022196479587 2.2568302051407296
3733 -1.6176130617156852 -0.7157314818590751 4.286204919104744
3695 -1.0082363960736378 -2.396425703615126 0.1340192963146623
4021 0.3354734223572751 -1.3919225033623575 -2.5784766855307764
3983 2.9999071059975244 -0.8736073173884239 -0.11580255556828747
3156 -1.5960958518687345 5.3723478568283936 2.258496951626634
2870 3.0559040357024108 0.1655428080647069 -0.7562718857371495
2867 -0.48641660109603496 -0.644106036794951 1.4789667086264107
2905 3.368814833845925 -3.0841853169203834 0.015281103372770236
3193 -0.7807011326988683 2.018314317174606 -2.192813024535734
3444 -0.8175351319628048 -0.9688730054825946 5.946291858660126
3158 -1.4886162915162304 2.4737534606731844 0.9331599858648615
3155 1.9522350366681425 4.511234969545186 2.37914913305918
3732 -3.3762665494813775 -3.0236371033859957 3.0192881410448202
3446 5.2962599182643535 -2.3079122244191113 -1.4507409487267053
3443 3.336390537186103 0.7124996855725461 -1.2898409737385739
3481 -1.749609861787669 2.219478634509107 0.24109700667941192
4020 -0.1605760133665254 0.46044135955952636 -0.21989508639435768
3731 -0.6256929261896521 0.8680121835720428 -1.6509341602714993
3734 5.623850971990103 -4.24162239360316 -1.3045145871834491
3769 -1.2183641625548718 2.6701435032908267 1.3740020496437833
4019 0.4639619382335302 -0.3717685085589187 2.4560118511460454
4022 -1.7316378820594742 5.46579219493529 -2.039639857417952
4024 1.2937420839296774 -2.6711173001265958 0.9114359185320926
3736 -1.4781965920627702 3.879475032839392 -3.904010620986202
2766 -1.8177440807914562 -0.012828805472485737 0.8198589948448403
3052 -0.48740220135742207 -1.4177593370601502 -1.4801254472631609
3054 -1.6419055170661492 2.792324049869379 0.08455427646605726
3340 3.1020595850642536 1.287271458738969 -1.664094793003564
3342 -1.774200518011644 1.9172621682364015 0.9979208492010126
3628 -0.02003985108508851 -0.20191436053976866 -3.2322597040133454
3630 -1.9702183038649559 -2.072466298754582 -3.480692474007511
3916 -0.2538481775324889 -0.31036966182006454 -0.9450103153939993
3918 0.3739964444263961 4.434652959258464 -1.4157880880964422
2763 -2.022198189143282 0.8464430963455358 0.670450279898948
3089 3.566744987908314 1.5270950181144411 -1.4117069483632958
3051 0.6003448570307084 1.625360805449282 -0.44283134765200327
3377 0.5659246717927976 -2.446585759616235 0.06982254669578142
3339 2.153494946350073 2.0019936942903014 1.1274383228931404
3665 3.120722540896446 0.2075143056195933 2.950089527619092
3627 0.8892402748466115 -1.1814908250668548 1.103697029682606
3953 0.6383330362146731 2.7055968705735816 0.6890851147036955
3738 -0.6849999892254901 2.0355319889626307 2.7001481181769154
3915 -1.4158840169059503 -1.3433987019914566 1.269090105043644
3088 -2.433483169183275 -3.6624158705526004 -0.5787298217603645
2802 -1.2621843208888721 -4.8927373004797525 -2.3612815553321527
2799 -0.07285016491144174 -3.8808860560059517 2.144145160427387
3125 4.309788022583785 0.32437799637231146 -1.929409628324801
3376 -2.2235689372736345 1.3920521327064677 3.4402918099086044
3087 7.055517179006209 3.1703311720867142 -2.6881004480313067
3090 2.9298598850653907 -0.9661342410219502 -1.518169935860481
3413 5.279668159247714 -2.8269154664835736 -2.4967225836921916
3664 -0.230171796160046 0.13688846742544203 2.247971485378646
3378 1.829906241497322 -3.2758653123523223 1.6244140687710713
3375 -0.2337085824972936 -0.890315308342559 1.8957698611627711
3701 -0.6635348764940961 -0.14132355443748448 1.3675242203034241
3666 -2.673031634143682 0.6057105709622488 0.4763785748668199
3663 0.010170577344183036 -0.4032287669607074 -3.6164683104888375
3989 -1.3207487910352222 -2.945306348535586 1.3050020581277888
3952 -0.7400413759736532 0.20175659904973223 2.8008065800869932
3954 -1.6121648239212687 1.2161916397046744 -1.2863614785415523
3951 -0.7646009090850588 1.8516574152550227 1.2554980237593825
3447 -0.2769647724632471 -2.269460294721618 -4.724226403479882
3735 3.2354072214520357 -0.3671821312447182 0.7658525728748697
2838 -0.917729035229578 -0.19366982586841752 -1.653602363187864
3124 -0.013603625279702273 -0.342818578383491 -0.6920109059446712
3126 -1.3550448989422077 -0.8977588468542645 -5.028456404345121
3412 -1.601339117997761 2.11360351032749 3.038533165712309
3414 -0.7519610237767433 0.5122256401112725 -0.25640712659585585
3700 2.949510154690291 -2.4604952863916334 0.1403691566003319
3702 -2.0601868762794275 1.2905879459108434 0.7694188325870474
3988 -2.936721840057858 -0.21250406665869379 3.343458627059817
3990 -2.043279513159076 0.10235201945112665 2.1221656366554824
3773 0.055842956148251625 0.8763008192688471 -1.3907316621290662
2835 -2.9054108114408552 -2.34068519479077 -0.546455824108832
3161 0.45238527485948193 -4.191056928771044 0.7450305272540824
3123 -4.2521765505431715 -1.437976387389761 -3.561601488357137
3449 -0.28176932541041216 1.9097548135712934 1.0257046207053313
3411 -1.3763763938986178 -4.388782869884031 -0.15363325303853717
3737 2.103760306041086 -2.334395864703691 -0.9444898012351781
3699 -1.4182176159360826 0.8446834974130127 -2.4150919876384243
4025 1.0570119448380628 -0.5913310647748993 1.3513750765034478
3987 9.516872892570806 -2.285276085370542 -3.8746025284812404
3450 -0.725244412726865 1.0986695221276062 1.7136700287323665
2909 2.2498688808427363 0.6607854241115217 0.06411861146216292
2874 -2.187049070706597 1.5676719061678617 1.6277447151302655
3160 2.486630600235194 -1.8742413343015685 -0.42178660398886175
2871 3.687764114402411 -0.8395294979641462 0.5019489957357582
3197 -0.055302942467646825 4.870409992875048 3.384451820975219
3159 1.8255717632209678 -1.381948900577545 0.4508171257952579
3162 -1.950141291566694 2.589961238324853 4.533046187025091
3448 -2.6237812459821046 -3.405561984791737 -0.7667936724278999
3485 -2.4272339606887283 4.45375597970641 3.1636287181964002
25 -0.9811132373734799 1.93724501835538 0.33392374705344924
281 -1.3824452632535142 -3.5399501629809493 -1.6212907258178855
280 -3.4555185816026195 0.06992876090371768 -0.03543179738432857
240 -0.8033496874654986 3.3458418957407354 -2.072554769348742
172 -5.810255082897773 -0.865480034224581 -1.7275300198093384
276 -1.1577328719086937 -0.09647110942342668 -0.30428171664880305
208 -0.5117378826147629 -1.798364273490873 0.16842791578868715
2770 -2.153109452924882 0.48206544552512115 2.5785156960090916
3056 0.3974017108737345 0.3513874282027922 2.0761710889581186
3058 4.939941710330926 0.4106148899623949 0.20263371501372693
3344 -1.2320394589193888 2.306982492795221 2.1824567681881164
3346 0.8145442362346416 -4.100907306187034 -3.1021994231238303
3632 1.325148407325416 1.8725899916077093 -1.7433314091660965
3634 0.274541320236224 2.5068700937875885 1.1172413986739567
3920 -2.656932148980955 0.6610920453995786 -0.7149998874866282
3922 2.7313954000930023 -1.096102264358902 1.5863675546189333
2767 -0.42904203261010454 3.1691839824766186 2.3786128081358853
3093 2.225516872761692 -1.7803594364737958 -1.7402722034686349
3055 -1.416891192424758 -1.8988842715340761 -2.6996901893728382
3381 -0.6798759196363328 0.13948789473541778 0.5502133514883285
3343 1.7625492008231518 -1.8892267795331137 -0.6414414304364318
3669 -0.7807984527161 1.8958764985501704 0.32010811552750035
3631 1.7083227043705127 -1.9600686066523219 2.69128217056072
3957 2.3888250341481503 0.40795066165381194 0.6562867397387034
3919 1.2227068262129699 -0.03249830675461369 0.660754237103969
3092 -0.6180925742162778 3.1800120421773146 -1.2897553202262306
2806 1.5033371871832562 1.5952896131954448 4.50974149862431
2803 1.120121410209391 0.7795827730303331 0.4324679461406381
3129 -0.44508387669018507 -2.962653784511319 1.1239049065035043
3380 -2.933375275776558 5.200047267744809 1.588449453826328
3091 -2.789167760367944 -1.8479990755896705 1.5395208419375757
3094 4.3386476795551365 2.014892867216124 -0.04806922818168787
3417 0.10878560530745963 -3.0890022495959 0.2356678766383522
3668 -0.9595120369759922 0.6913569434291154 -0.7647807965251859
3382 -4.02250631690214 -0.8705225364974128 1.7178030262771324
3379 -0.9289544675240816 -0.2635125801052149 -2.0862313891940776
3705 1.4606485444231445 -3.1135031983324346 -0.08861466663993137
3956 -0.7093392030369271 -4.413155527057781 4.423368007677955
3670 -1.0727403271016223 -0.6743580998810633 1.4657557382504443
3667 -2.343717302440157 0.24045005257863244 4.33305244772707
3993 2.97666420854097 -3.0099302088278708 1.0101215288495178
3958 -1.8142918807761512 3.41753312755583 0.5755449859365442
3955 -2.9393512193831794 3.2724599863674895 2.134471527608392
3602 2.7091489549664076 -1.712467752373152 3.4171584098543057
2842 -1.5700945292968398 0.13420750055959765 -3.09716835577113
3128 0.23415397400611887 0.8110465009092713 -0.018315484491885657
3130 -0.16161557972450133 -2.5349005131787044 -0.21001438291471022
3416 4.060468703069149 -0.3592723659286316 -1.358967659932425
3418 0.6333211878320105 -0.3428418193238206 1.83812898921497
3704 -1.2867950000146562 -4.602510162617733 -0.6380946655697272
3706 -3.2197310034561273 -1.784886576947998 5.859505751144666
3992 1.4056523623950496 1.8414774077724547 -0.4893269852201224
3994 1.1819202416728138 -0.23275398899621993 4.382671631815795
249 -3.21810142993949 -0.8442720868680488 -0.3632686076961297
2839 1.256847655183637 -0.39940405886947167 -9.667219375981608
3165 -0.7102399674795893 1.6650450418886806 -0.9486200630054842
3127 -3.4276175783463536 -1.8873944203830957 0.20826440942753713
3453 -2.194896609118951 3.243506853648606 0.17167592609372695
3415 -2.493625298724647 4.070088811695604 0.5818319194749451
3741 3.6817710346255694 1.275665080499787 -0.4765765164497524
3703 1.4723523788850978 0.4813198983506989 -0.7183268455722833
4029 0.5985973656870685 -0.5117807723304699 3.491680304422172
3991 -3.866876947129662 1.835379105390274 -3.8773120814282915
3164 -2.0232809793151953 -1.0692586432632663 1.090515384880853
2878 -3.017483709854925 -4.700264034394873 -0.5060378781527346
2875 1.312045430725715 -2.2307362831845734 -1.278489422341564
2913 2.1886249451979762 0.02117681523303529 2.8335041903166984
3452 -1.9523747008522088 -1.6796421709117677 -2.2489444694713656
3166 1.0837804523087025 2.321538988097015 0.44187471921483695
3163 -2.394389593503593 0.05496472343901742 0.7671757600536472
3201 -1.4355445381900303 -3.4692673403645444 1.3094008338400918
3740 2.1039845473006364 -0.817909615269285 -0.683085033838356
3454 3.9744050542552465 -3.104398604966352 -1.351786642939892
3451 -0.355921965370002 2.0981252212489476 -3.970285986386968
3489 -3.195750054172901 -0.7199814775500328 -1.536818223742189
3739 4.653057759533634 -5.341678738536641 3.3495025134200724
4028 -2.3219043268570574 -0.7577397068877849 -0.7906967318118434
3742 -3.5846372648064957 -2.5506754625906 0.6229703481504557
3777 2.6542950020937193 -1.6023242123613537 -0.3988280013087021
4027 -2.7239647067436357 -0.7423117055773296 2.5124023857321163
4030 1.258254960983568 0.27252312049093214 0.10521800274706604
4031 4.4827934459639085 0.8498120642957169 -0.9840824983914612
3674 -3.974004184438693 2.2888021171288084 0.5012205395320005
3060 2.051773116708116 5.125980303637412 -0.22951371004628313
3348 2.652987160155229 0.8239378153771205 -2.5559732969094813
3638 1.8465449068687256 -3.772413055825722 1.5846509972357203
3636 1.2769659727825868 1.7386657684597688 0.3624371380526484
3924 -0.299769378338144 -1.823023172573314 0.2977185372530709
3890 3.3370994876775324 -0.2769436052762588 0.9353131597654322
2771 -2.552956113047457 -1.9399246696533585 -2.1488280502493367
3061 0.3087974531078337 -0.11754388392870717 0.002764435270729383
3059 2.8932666512088825 3.8547801610381587 -0.0068001699347281465
3347 0.6259071238903331 -0.0013371568942051278 -1.859262607563442
3635 1.8696154216491003 -2.6044498279618105 1.66540298160104
3709 -1.3435203422740274 -0.6115583685108144 -0.3129821835555374
253 1.4333270260659259 -0.5997718428104334 -0.10750473930377585
3923 -1.7786109084850252 -0.009100853336858077 -1.4126041330082217
3096 -4.244805462773618 2.729989354359811 -3.7041102697301858
2807 -1.4533104533530796 -0.9742590700714487 3.0102704673788
3384 3.554181675954617 -3.0733126235546684 -3.4721587720060336
3095 1.2862537668932832 -1.0654899357061698 2.755757949212288
3743 -1.2062021877159321 1.9432699916512697 -3.9797472940785434
3672 4.246399713818983 -0.44203206438148507 -4.793828605130884
3383 3.527552978780668 0.3003406010657167 2.164830859753999
4032 -1.587370977801868 1.0101763408374234 -0.6990165519940962
3455 0.5574443982650911 -1.7972839148820423 -3.596954355948374
3744 -0.4962587388785837 -0.9892808662781329 -0.4822857950094858
3671 0.5409968446363532 -1.6372785846860938 1.1318888946828145
3960 -3.0547571453192917 -5.255601954634455 -0.2131035675228795
216 3.46589985631001 1.7556794070454125 3.198306690341387
3959 -0.09564892427147899 0.6148666283604108 0.32685365661939136
3132 -1.6079102477710328 3.4327779229086084 0.31165809409842304
3420 1.0041867428229954 2.3687914613042387 1.201727922716464
3708 -3.255033524099157 1.7175369412407686 -0.2901927701050982
3996 -3.4492665971994745 0.8215820791777774 -1.3157770417167083
2738 -1.5291994116606038 -0.4101404199843341 0.8603885819819567
3349 0.18666735078733074 -0.9004209996002946 2.968501485751299
3925 0.22500669091402872 0.7246188670767706 0.2295758226208038
2843 0.7515569408202242 4.190803800536305 -0.3206580775960753
3131 2.062630725372796 -0.23412130406081882 -0.12847633630161315
3419 -2.845002245903661 0.24611320736799033 0.704915893816801
3707 -1.4661981067260792 -0.6581575779072106 -1.6974050779125631
3314 2.3078062881496706 1.3305825270351532 1.2897310539316817
3386 -0.1994996076046453 1.8184717791490053 0.6325038133455926
3995 1.151441117776313 -4.388061143415414 1.6220640642469417
3168 0.6582717478653868 1.4517277535413171 0.9658037624152689
2879 0.4565292194442107 -5.014905387354738 1.5065332419534283
3167 1.8735827796828899 -3.324169357276616 -0.3235686941554477
3456 -5.184812831944434 4.853822952874771 -2.6358353767982954
3637 -1.0795276200622361 -1.781802254016411 1.9130990878460092
2774 -3.4645793747750178 -1.0069193051261023 3.850821591663326
3962 -2.0798164013259615 -1.784624163635213 2.3146505150378918
3673 -2.7221205807765214 2.4636836556572503 -0.23668257733035258
180 4.465596481175898 5.309214697710173 -0.4023425403084996
3026 0.6690525777849033 -2.62768346944655 0.655148840434592
3350 -1.1979550817090099 -1.6608297115034696 -0.4710141061895897
3422 0.7330104270896112 1.4900905236916144 0.7329034983787798
3134 -0.9274905429015264 -2.7570965892918533 -0.32089972456017557
3961 -0.22122409851093813 1.9954696125455114 -0.4876945362884865
3997 -0.5959020709497216 1.8652322438736237 -6.364576508276859
3421 -3.3472419322517326 0.7723448152862058 -1.9509280089417165
3710 -2.5253799669060544 2.9382370344283006 -0.9464443511016786
176 -1.950139734243841 1.4743415549588201 0.5237279004942734
213 -5.048108593252626 0.3502072762193544 3.243401767290099
3998 -0.6966591159347849 -1.862500620100994 -3.619911266111614
