LAMMPS (22 Jul 2025 - Update 4)
  using 1 OpenMP thread(s) per MPI task
Reading data file ...
  orthogonal box = (0 0 0) to (82.096 81.253967 84.312)
  4 by 2 by 4 MPI processor grid
  reading atoms ...
  32256 atoms
  read_data CPU = 0.057 seconds
Neighbor list info ...
  update: every = 1 steps, delay = 0 steps, check = yes
  max neighbors/atom: 2000, page size: 100000
  master list distance cutoff = 5.8
  ghost atom cutoff = 5.8
  binsize = 2.9, bins = 29 29 30
  2 neighbor lists, perpetual/occasional/extra = 2 0 0
  (1) pair meam, perpetual
      attributes: full, newton on
      pair build: full/bin/atomonly
      stencil: full/bin/3d
      bin: standard
  (2) pair meam, perpetual, half/full from (1)
      attributes: half, newton on
      pair build: halffull/newton
      stencil: none
      bin: none
Setting up cg style minimization ...
  Unit style    : metal
  Current step  : 0
Per MPI rank memory allocation (min/avg/max) = 10.85 | 10.85 | 10.85 Mbytes
   Step          Temp          Press          PotEng         v_pea            Lx             Ly             Lz           Volume    
         0   0             -12679.329     -154107        -4.7776227      82.096         81.253967      84.312         562413.79    
        26   0             -10140.698     -154406.78     -4.7869164      82.096         81.253967      84.312         562413.79    
Loop time of 0.442318 on 32 procs for 26 steps with 32256 atoms

97.0% CPU use with 32 MPI tasks x 1 OpenMP threads

Minimization stats:
  Stopping criterion = energy tolerance
  Energy initial, next-to-last, final = 
     -154106.996777299  -154406.774654643  -154406.776159267
  Force two-norm initial, final = 60.748407 0.099854451
  Force max component initial, final = 0.70463453 0.007461126
  Final line search alpha, max atom move = 1 0.007461126
  Iterations, force evaluations = 26 52

MPI task timing breakdown:
Section |  min time  |  avg time  |  max time  |%varavg| %total
---------------------------------------------------------------
Pair    | 0.34203    | 0.40248    | 0.4236     |   4.3 | 90.99
Neigh   | 0          | 0          | 0          |   0.0 |  0.00
Comm    | 0.012733   | 0.033784   | 0.09447    |  15.0 |  7.64
Output  | 0          | 0          | 0          |   0.0 |  0.00
Modify  | 0          | 0          | 0          |   0.0 |  0.00
Other   |            | 0.006057   |            |       |  1.37

Nlocal:           1008 ave        1008 max        1008 min
Histogram: 32 0 0 0 0 0 0 0 0 0
Nghost:           2002 ave        2002 max        2002 min
Histogram: 32 0 0 0 0 0 0 0 0 0
Neighs:          25200 ave       25200 max       25200 min
Histogram: 32 0 0 0 0 0 0 0 0 0
FullNghs:        50400 ave       50400 max       50400 min
Histogram: 32 0 0 0 0 0 0 0 0 0

Total # of neighbors = 1612800
Ave neighs/atom = 50
Neighbor list builds = 0
Dangerous builds = 0
Setting up Verlet run ...
  Unit style    : metal
  Current step  : 0
  Time step     : 0.001
Per MPI rank memory allocation (min/avg/max) = 9.722 | 9.734 | 9.755 Mbytes
   Step          Temp          Press          PotEng         v_pea            Lx             Ly             Lz           Volume    
         0   300           -7765.2465     -154406.78     -4.7869164      82.096         81.253967      84.312         562413.79    
       500   214.90172     -2298.4995     -153512        -4.7591765      82.096         81.253967      84.312         562413.79    
      1000   294.80781      545.22321     -153182.83     -4.7489718      82.096         81.253967      84.312         562413.79    
      1500   294.24491      372.94444     -153200.75     -4.7495271      82.096         81.253967      84.312         562413.79    
      2000   296.37141      635.73463     -153169.49     -4.748558       82.096         81.253967      84.312         562413.79    
      2500   303.46048      676.06304     -153164.69     -4.7484093      82.096         81.253967      84.312         562413.79    
      3000   303.75669      661.38133     -153175.48     -4.7487437      82.096         81.253967      84.312         562413.79    
      3500   298.13786      537.85615     -153182.42     -4.748959       82.096         81.253967      84.312         562413.79    
      4000   297.72492      471.55939     -153188.14     -4.7491363      82.096         81.253967      84.312         562413.79    
      4500   300.38485      635.10048     -153171.73     -4.7486275      82.096         81.253967      84.312         562413.79    
      5000   301.0973       688.37818     -153163.31     -4.7483664      82.096         81.253967      84.312         562413.79    
Loop time of 55.7336 on 32 procs for 5000 steps with 32256 atoms

Performance: 7.751 ns/day, 3.096 hours/ns, 89.713 timesteps/s, 2.894 Matom-step/s
97.1% CPU use with 32 MPI tasks x 1 OpenMP threads

MPI task timing breakdown:
Section |  min time  |  avg time  |  max time  |%varavg| %total
---------------------------------------------------------------
Pair    | 44.843     | 49.98      | 52.988     |  32.0 | 89.68
Neigh   | 0.10467    | 0.13118    | 0.14685    |   3.6 |  0.24
Comm    | 2.1785     | 5.1888     | 10.366     | 100.0 |  9.31
Output  | 0.0010467  | 0.0011     | 0.0018602  |   0.4 |  0.00
Modify  | 0.23577    | 0.26265    | 0.28634    |   2.4 |  0.47
Other   |            | 0.1697     |            |       |  0.30

Nlocal:           1008 ave        1028 max         976 min
Histogram: 1 0 2 2 5 3 7 6 2 4
Nghost:        2080.31 ave        2108 max        2043 min
Histogram: 1 0 3 4 5 5 6 0 5 3
Neighs:        26038.2 ave       26595 max       25144 min
Histogram: 1 0 2 2 6 2 5 7 3 4
FullNghs:      52076.4 ave       53099 max       50348 min
Histogram: 1 0 2 3 4 3 5 7 3 4

Total # of neighbors = 1666446
Ave neighs/atom = 51.663132
Neighbor list builds = 58
Dangerous builds = 0
Setting up Verlet run ...
  Unit style    : metal
  Current step  : 0
  Time step     : 0.001
Per MPI rank memory allocation (min/avg/max) = 9.747 | 9.759 | 9.776 Mbytes
   Step          Temp          Press          PotEng         v_pea            Lx             Ly             Lz           Volume    
         0   301.0973       688.37818     -153163.31     -4.7483664      82.096         81.253967      84.312         562413.79    
       500   299.81687      371.13942     -153173.82     -4.7486925      82.048827      81.200245      84.432606      562522.52    
      1000   298.11899      22.737655     -153177.11     -4.7487944      82.040672      81.188836      84.47198       562649.84    
      1500   298.75521      23.094076     -153170        -4.748574       82.028557      81.204181      84.47232       562675.34    
      2000   302.95257     -326.14242     -153176.7      -4.7487816      82.063904      81.217405      84.448891      562853.32    
      2500   302.31352     -483.40984     -153170.53     -4.7485903      82.049709      81.245751      84.451082      562966.98    
      3000   298.95196     -383.02957     -153175.03     -4.7487299      82.038414      81.218454      84.474261      562854.8     
      3500   297.50614      14.439345     -153169.18     -4.7485486      82.044492      81.177482      84.48272       562668.87    
      4000   297.98662      64.655866     -153173.65     -4.7486872      82.020822      81.229277      84.450869      562653.25    
      4500   299.8315      -434.98124     -153169.75     -4.7485661      82.063124      81.225088      84.450286      562910.52    
      5000   296.41064     -174.36884     -153169.64     -4.7485629      82.059605      81.217777      84.441934      562780.05    
      5500   298.84718     -420.40469     -153182.81     -4.7489709      82.045721      81.228726      84.453604      562838.46    
      6000   299.75302     -175.86777     -153177.76     -4.7488146      82.054996      81.201429      84.463745      562780.48    
      6500   299.57022     -373.81882     -153169.52     -4.7485589      82.058088      81.214203      84.466445      562908.22    
      7000   299.87664      65.616199     -153166.96     -4.7484798      82.021902      81.207357      84.483283      562724.71    
      7500   300.02661     -173.01949     -153164.74     -4.7484107      82.072929      81.190459      84.45499       562769.1     
      8000   299.24895      132.73408     -153172.83     -4.7486615      82.055429      81.234665      84.408783      562647.44    
      8500   300.63353      159.89915     -153176.7      -4.7487816      82.054509      81.175274      84.462451      562587.25    
      9000   302.43724     -34.268548     -153161.84     -4.7483209      82.049348      81.193656      84.472531      562746.42    
      9500   298.89275     -162.79895     -153168.77     -4.7485358      82.048749      81.236812      84.434192      562785.88    
     10000   299.21036     -44.281459     -153176.43     -4.7487731      82.056389      81.229901      84.421875      562708.29    
     10500   297.33908      238.34897     -153175.61     -4.7487479      82.040857      81.162664      84.486498      562566.41    
     11000   298.05399      280.09764     -153182.27     -4.7489542      81.995306      81.217371      84.472309      562538.55    
     11500   298.66186      165.42411     -153173.52     -4.7486831      82.063464      81.203451      84.425722      562599.2     
     12000   299.63751     -154.00222     -153167.55     -4.748498       82.088188      81.195313      84.437838      562793.06    
     12500   299.32697      98.387381     -153173.49     -4.7486822      82.033023      81.204301      84.463306      562646.77    
     13000   298.98099      200.71765     -153180.42     -4.7488971      82.028049      81.197503      84.458201      562531.54    
     13500   299.20152      462.46198     -153167.96     -4.7485105      82.052755      81.175837      84.447132      562477.1     
     14000   301.21657      351.66143     -153170.81     -4.7485991      82.025417      81.224811      84.435105      562548.8     
     14500   298.40589      703.00783     -153168.88     -4.7485392      82.059086      81.182878      84.418004      562375.24    
     15000   299.3637       421.32743     -153177.2      -4.7487971      82.014667      81.225886      84.432737      562466.75    
     15500   300.64986      400.36434     -153154.11     -4.7480813      82.057141      81.18564       84.446457      562570.6     
     16000   300.8066       156.32212     -153171.62     -4.7486242      82.068252      81.196387      84.428896      562604.24    
     16500   299.33675      625.34091     -153173.01     -4.7486671      82.020917      81.203991      84.437644      562390.66    
     17000   298.41642      589.58047     -153176.97     -4.7487901      82.008922      81.187518      84.469838      562408.7     
     17500   298.32302      192.35025     -153183.73     -4.7489996      82.061133      81.187035      84.439538      562561.54    
     18000   297.75302      153.22555     -153166.31     -4.7484596      82.02399       81.231235      84.445502      562652.78    
     18500   298.72656     -263.52728     -153166.44     -4.7484635      82.060882      81.211073      84.450766      562801.21    
     19000   298.47436     -445.20531     -153171.87     -4.748632       82.051033      81.219199      84.466851      562897.16    
     19500   298.45949     -364.80514     -153178.93     -4.7488507      82.062768      81.216736      84.449625      562845.79    
     20000   299.61979     -155.92355     -153174.81     -4.7487232      82.076009      81.220685      84.416499      562743.15    
     20500   301.60402     -657.4171      -153177.98     -4.7488214      82.039228      81.257142      84.451315      562975.54    
     21000   303.06399     -1.6403267     -153165.6      -4.7484376      82.06769       81.179324      84.466574      562733.18    
     21500   300.00975     -111.6085      -153181.07     -4.7489172      82.031182      81.23629       84.446325      562742.62    
     22000   298.71005     -10.756813     -153176.98     -4.7487902      82.066344      81.20816       84.427554      562663.78    
     22500   299.34597     -144.55253     -153171.35     -4.7486156      82.055795      81.197026      84.458043      562717.46    
     23000   300.56921     -107.24225     -153171.21     -4.7486114      82.014531      81.234535      84.467159      562755.04    
     23500   300.90612     -260.13343     -153173.79     -4.7486914      82.089043      81.172206      84.461851      562798.77    
     24000   297.41354      11.292299     -153173.71     -4.7486889      82.058203      81.218827      84.427624      562682.34    
     24500   296.38327     -223.97688     -153166.65     -4.74847        82.037363      81.246352      84.439708      562810.63    
     25000   302.13966      91.904307     -153165.88     -4.7484461      82.055861      81.184462      84.467897      562696.49    
     25500   301.87021      69.072579     -153175.78     -4.7487532      82.04214       81.223         84.438056      562670.62    
     26000   301.16332      123.33308     -153176.02     -4.7487604      82.055859      81.218298      84.423024      562631.94    
     26500   298.69791      54.239185     -153177.34     -4.7488016      82.074685      81.187214      84.437818      562644.23    
     27000   300.69839     -246.78304     -153165.38     -4.7484306      82.023236      81.21825       84.48467       562818.59    
     27500   301.80479     -473.1431      -153172.76     -4.7486594      82.051686      81.204525      84.484209      562915.6     
     28000   298.81562     -84.80046      -153177.22     -4.7487978      82.058452      81.205481      84.447194      562721.98    
     28500   299.86556      33.383514     -153168.21     -4.7485185      82.04877       81.226135      84.43605       562724.43    
     29000   299.56875      91.092372     -153167.51     -4.7484968      82.070961      81.19984       84.434818      562686.21    
     29500   298.36033     -373.76338     -153163.7      -4.7483787      82.047703      81.214028      84.474205      562887.49    
     30000   299.70669     -367.0232      -153182.26     -4.7489539      82.031286      81.204887      84.493416      562839.48    
     30500   299.20906     -399.21007     -153179.87     -4.7488799      82.093592      81.214723      84.424968      562878.85    
     31000   297.41205     -121.73215     -153165.97     -4.7484488      82.070707      81.229374      84.414519      562753.8     
     31500   301.37477     -132.25634     -153175.89     -4.7487564      82.052778      81.194386      84.472674      562775.95    
     32000   300.92867     -424.24846     -153172.83     -4.7486618      82.051453      81.224894      84.460956      562900.22    
     32500   299.49081     -303.88526     -153180.92     -4.7489125      82.051642      81.197058      84.477456      562818.54    
     33000   298.17853     -241.44772     -153169.37     -4.7485545      82.023444      81.214995      84.48594       562805.93    
     33500   300.72172      116.22062     -153172.83     -4.7486618      82.08011       81.178412      84.443669      562659.39    
     34000   300.03414     -144.57373     -153164.42     -4.7484009      82.035549      81.253541      84.43116       562791       
     34500   301.97407     -81.282558     -153175.58     -4.7487469      82.076818      81.190068      84.447697      562744.46    
     35000   297.50744     -111.60775     -153171.08     -4.7486073      82.022875      81.226004      84.460845      562711.12    
     35500   299.80116     -101.64531     -153171.08     -4.7486073      82.05415       81.210515      84.453426      562768.9     
     36000   301.1603      -184.02812     -153182.51     -4.7489616      82.077034      81.207972      84.433307      562774.12    
     36500   298.45401     -49.709943     -153177.36     -4.7488022      82.037983      81.220528      84.451222      562712.71    
     37000   297.64487     -156.79584     -153173.71     -4.7486888      82.068125      81.195764      84.45228       562754.87    
     37500   299.22506     -41.357789     -153170.88     -4.7486012      82.060366      81.196275      84.453327      562712.19    
     38000   300.38409      303.28542     -153173.71     -4.7486888      82.011263      81.236313      84.440025      562564.15    
     38500   298.54118      362.52078     -153175.65     -4.7487492      82.055536      81.173837      84.448779      562493.27    
     39000   301.36058      304.41017     -153161.3      -4.7483041      82.019863      81.20807       84.463082      562581.12    
     39500   300.99133      132.36136     -153171        -4.7486048      82.053312      81.190984      84.45068       562609.51    
     40000   299.44065      5.1584535     -153170.23     -4.7485811      82.067174      81.214971      84.421732      562677.86    
     40500   298.79538      246.86823     -153172.89     -4.7486636      82.003244      81.209706      84.478675      562582.3     
     41000   300.9221       295.64708     -153179.86     -4.7488795      82.029403      81.14888       84.505459      562518.54    
     41500   302.03231      304.23159     -153175.91     -4.7487572      82.029454      81.199238      84.455429      562534.74    
     42000   300.58454      164.74452     -153160.84     -4.7482901      82.077206      81.208869      84.417089      562673.42    
     42500   301.89493      150.55484     -153179.21     -4.7488593      82.036893      81.222905      84.433786      562605.52    
     43000   297.81975      140.2785      -153172.6      -4.7486544      82.052499      81.185744      84.460168      562630.84    
     43500   298.78667      137.70659     -153180.99     -4.7489147      82.036201      81.198971      84.457371      562592.1     
     44000   297.55208     -186.57737     -153175.27     -4.7487373      82.042208      81.203486      84.472246      562763.67    
     44500   298.96479     -195.41195     -153168.92     -4.7485404      82.078933      81.196908      84.447657      562806.11    
     45000   301.34523     -78.184335     -153179.42     -4.7488658      82.026293      81.238846      84.441569      562695.09    
     45500   297.0726      -66.496884     -153173.46     -4.7486812      82.051461      81.202397      84.452078      562685.22    
     46000   300.18381      142.7074      -153178.26     -4.7488299      82.057033      81.202044      84.43465       562604.85    
     46500   299.00391      343.74351     -153169.99     -4.7485737      82.051285      81.205556      84.427502      562542.15    
     47000   301.05521      643.79559     -153184.78     -4.749032       82.037233      81.161221      84.460784      562360.34    
     47500   303.50309      847.88029     -153169.53     -4.7485594      82.002901      81.202772      84.445001      562307.68    
     48000   301.76762      659.51975     -153177.78     -4.7488152      82.064276      81.183465      84.414714      562392.96    
     48500   300.46259      395.35684     -153175.64     -4.7487489      82.017194      81.218897      84.44059       562487.98    
     49000   301.18661     -39.047764     -153177.9      -4.7488188      82.05093       81.189237      84.464497      562673.12    
     49500   301.05049     -229.64852     -153183.53     -4.7489933      82.055616      81.200282      84.465867      562790.94    
     50000   301.36033     -401.60096     -153168        -4.748512       82.054647      81.22251       84.456665      562877.02    
Loop time of 573.933 on 32 procs for 50000 steps with 32256 atoms

Performance: 7.527 ns/day, 3.189 hours/ns, 87.118 timesteps/s, 2.810 Matom-step/s
97.1% CPU use with 32 MPI tasks x 1 OpenMP threads

MPI task timing breakdown:
Section |  min time  |  avg time  |  max time  |%varavg| %total
---------------------------------------------------------------
Pair    | 484.92     | 508.4      | 525.45     |  51.1 | 88.58
Neigh   | 2.3429     | 2.5888     | 2.7989     |   8.1 |  0.45
Comm    | 37.634     | 54.912     | 78.593     | 157.1 |  9.57
Output  | 0.0092876  | 0.009613   | 0.016488   |   1.3 |  0.00
Modify  | 5.9854     | 6.1761     | 6.366      |   3.7 |  1.08
Other   |            | 1.851      |            |       |  0.32

Nlocal:           1008 ave        1027 max         985 min
Histogram: 1 4 0 4 3 6 5 3 3 3
Nghost:        2083.38 ave        2114 max        2057 min
Histogram: 3 1 3 3 11 2 2 3 3 1
Neighs:        26047.1 ave       26522 max       25461 min
Histogram: 3 2 2 2 3 4 7 2 2 5
FullNghs:      52094.2 ave       53145 max       50844 min
Histogram: 2 3 1 4 1 6 6 3 3 3

Total # of neighbors = 1667016
Ave neighs/atom = 51.680804
Neighbor list builds = 1134
Dangerous builds = 0
System init for write_data ...
System init for write_restart ...
RELAX DONE
Total wall time: 0:10:30
