LAMMPS data file via write_data, version 22 Jul 2025, timestep = 15000, units = metal

4032 atoms
2 atom types

-3.0627130221785004 44.11071302217765 xlo xhi
2.194536256321115 38.43244774367707 ylo yhi
0.7210003817198647 41.43499961828132 zlo zhi

Masses

1 47.88
2 26.982

Atoms # atomic

292 1 0.1645638423115181 4.154298111428091 2.9638238032736233 0 0 0
580 1 3.728509070247509 4.2123451005346855 3.1009723024116753 0 0 0
868 1 6.890084207639005 4.20621028796845 2.8910872217696624 0 0 0
1156 1 10.514877010667497 4.194848547412751 2.8877192487243613 0 0 0
3 1 -1.411368103755261 6.472102698940598 3.1228067358074587 0 0 0
291 1 1.8600713117458483 6.401672138478676 2.9979163931602333 0 0 0
290 1 2.0555375358729577 4.142561187995124 0.8266496324498998 0 0 0
579 1 5.348810376486372 6.406954043977347 3.004417084197596 0 0 0
867 1 8.725861590717603 6.4537826536983465 2.8960331810419633 0 0 0
1155 1 12.002264670267671 6.413198411175022 2.9207940794832443 0 0 0
39 2 -1.538468203059136 10.800782263660356 3.0677347227309433 0 0 0
328 1 0.2619041460377103 8.639349825790237 3.1692639861484784 0 0 0
327 1 2.0166235083436668 10.827622566018524 3.1417025424157576 0 0 0
616 2 3.5782657333750976 8.622351368626163 3.11220570564515 0 0 0
615 1 5.199702845047729 10.993580519460973 2.9755964798201306 0 0 0
650 2 5.317432535508904 12.968709289583462 0.9100240268482954 0 0 0
904 1 6.851449372856542 8.601685893206021 3.0088810038397495 0 0 0
903 1 8.741019097164077 10.884098975796741 3.0297775132817226 0 0 0
1192 1 10.352823355819282 8.600681704901934 2.9526171001911887 0 0 0
1191 1 12.167138785008365 10.745898864396354 3.1275361339879084 0 0 0
109 1 -3.0580337566527165 15.358103415949715 0.7836796957091526 0 0 0
364 1 0.05763533123638798 13.129143714110661 3.0807386008697395 0 0 0
76 1 -3.060374532567856 13.016340524175668 3.10062685723723 0 0 0
652 1 3.5559177414978222 13.281299374001154 3.1765357756058576 0 0 0
940 1 7.045299223154037 13.205401266086588 3.095259987647282 0 0 0
649 2 3.45481198336918 11.095896454410498 0.7213579891623599 0 0 0
1228 2 10.37215171624408 13.110677517329577 2.9958490496963837 0 0 0
75 1 -1.4568191032318947 15.535538767848188 2.994552266049779 0 0 0
363 1 1.804368726540818 15.427229482336294 3.009733573051226 0 0 0
38 1 -1.3475693495679586 8.667380127151965 0.868320135155007 0 0 0
979 1 8.739059544060986 20.091115903124315 7.624503591871733 0 0 0
651 1 5.32904197902186 15.484261271810142 3.14227910255178 0 0 0
939 1 8.827032257015478 15.365392929725212 2.9716277088871625 0 0 0
1227 1 12.057139764184171 15.406416393201328 2.9036070829997978 0 0 0
1268 2 10.326225970270485 17.780119965626923 7.638493814764768 0 0 0
111 1 -1.635255108765857 19.962389549975175 2.9303069187003983 0 0 0
1225 1 10.497649865112141 10.996520892661813 0.8709026986927642 0 0 0
978 1 8.701845171802159 17.70124241088778 5.271072273294429 0 0 0
399 1 2.0067614415177886 19.868610579270484 3.1337236261379493 0 0 0
400 1 0.07307439393066195 17.85391803788584 2.9119259041460794 0 0 0
980 1 7.254005841983262 17.5596532870755 7.6163461035727416 0 0 0
688 1 3.7541605103806734 17.6500136182232 3.0380340215820043 0 0 0
687 1 5.329102020259016 19.852034732499536 3.083837516911127 0 0 0
1013 1 7.133354388462968 19.856946704569523 5.2373359544688105 0 0 0
976 1 6.915361227449705 17.541081594028583 3.051108066725471 0 0 0
975 1 8.846096739197222 19.89985091954453 2.917516247977927 0 0 0
1264 1 10.368774144599541 17.598981415038594 2.955835854749523 0 0 0
1263 1 12.097669732213294 19.968487260016264 3.002705760249301 0 0 0
6 1 -1.2103749161066688 3.9374759964301305 5.24459227077444 0 0 0
296 1 0.39104166006382 4.10086025347128 7.6562866285330795 0 0 0
294 2 1.9162904200550788 4.101747961394315 5.192029430623042 0 0 0
584 1 3.4614947314171483 4.105341292368803 7.5118778583133885 0 0 0
582 1 5.261900064826645 4.0786093881642715 5.231051629495263 0 0 0
872 1 6.971263524615517 4.14589658932408 7.490679741556667 0 0 0
870 1 8.508227531440188 4.144546847070776 5.108859434249258 0 0 0
1158 1 12.06548005090244 4.031848526938738 5.2462677651487 0 0 0
1160 2 10.379937051834684 4.020170525518322 7.402374206432547 0 0 0
398 2 1.9050681411003048 17.58787730759903 0.8237904870113046 0 0 0
7 1 -1.331415193931129 6.4083423141288565 7.591295674877882 0 0 0
329 1 0.3617911126682132 6.433903062230608 5.292235831983312 0 0 0
295 1 1.8671425401835515 6.5482270050294655 7.545793061350483 0 0 0
617 1 3.516579321461216 6.279893194372846 5.308977085202414 0 0 0
583 1 5.3384925818298035 6.411364276894836 7.511896752230665 0 0 0
905 1 6.91880068040525 6.405138678158953 5.253286145814559 0 0 0
871 1 8.629761919021348 6.2406900454856995 7.310408022753887 0 0 0
1159 1 12.034623302590596 6.288250152080039 7.505026121870532 0 0 0
1193 1 10.413734497812616 6.171572787548173 5.3075124235375775 0 0 0
1266 1 12.215704337233802 17.607220819289942 5.462032720726134 0 0 0
42 1 -1.4114585089009324 8.664840665982982 5.415438449216314 0 0 0
43 1 -1.6079526573549325 10.90705985481792 7.565079139175694 0 0 0
332 1 0.4268874802164886 8.745706117613718 7.518522491890064 0 0 0
330 1 2.117418370063877 8.71162137973645 5.339235290755127 0 0 0
331 1 2.085629117506647 10.86470852007521 7.595531411253157 0 0 0
365 1 0.3228954853091204 10.863846891397975 5.3509729269980815 0 0 0
620 2 3.5682857027139834 8.519493592233005 7.747466549531147 0 0 0
618 1 5.256526272414393 8.71271014775327 5.312310912290175 0 0 0
619 1 5.311424466312865 10.735221331715868 7.541091996459249 0 0 0
653 2 3.787710340023496 11.04816783300992 5.351831982244762 0 0 0
908 1 7.003713866445859 8.771946381986034 7.500254426207783 0 0 0
907 2 8.80966250881973 10.869718341017485 7.600954664585164 0 0 0
906 1 8.670818698669521 8.705898430998655 5.275374359580183 0 0 0
941 1 7.031237218727042 10.971828756003383 5.28843223500584 0 0 0
1196 1 10.309390672401367 8.472970545276159 7.425677733141508 0 0 0
1194 1 12.001086878944584 8.652584092541233 5.280108173167472 0 0 0
1195 1 12.200241841388326 10.80094553912985 7.525282153671131 0 0 0
1229 1 10.44481357097802 11.035380249439621 5.274248320366377 0 0 0
78 1 -1.4093064581631014 13.21075311043483 5.380414972349583 0 0 0
368 1 0.32067004914496566 12.927513727520044 7.622002856937743 0 0 0
366 1 1.820845771146078 13.140404108793328 5.297557531500116 0 0 0
656 1 3.709006167992035 13.026719153974431 7.521291344609703 0 0 0
654 2 5.448645108353744 13.264741995253841 5.205987190610937 0 0 0
942 1 8.769867348791575 13.18187918804019 5.4453601923688675 0 0 0
944 1 6.910516400691461 13.001196748807489 7.592649467829859 0 0 0
1230 1 12.142727969250778 13.23502704760465 5.264829513619579 0 0 0
1232 1 10.511697860024157 13.083665013510487 7.483931968845473 0 0 0
79 1 -1.216280128273432 15.455797138382826 7.593979103931032 0 0 0
401 1 0.26435050581596764 15.36796685366251 5.193281148635586 0 0 0
367 1 1.8302842499867005 15.289439166380477 7.541264152947902 0 0 0
689 1 3.5065795824448207 15.438217405126144 5.324875024103579 0 0 0
655 1 5.346957961628882 15.451191846928069 7.50574256825256 0 0 0
977 1 7.14240364949294 15.420228194431477 5.370777181274857 0 0 0
943 1 8.946962813974459 15.441244220533841 7.572956891571884 0 0 0
1231 1 12.057975696716248 15.443656974547036 7.692259426256334 0 0 0
1265 1 10.443644266137028 15.560327615628566 5.3436839756650345 0 0 0
114 2 -1.4025007621101695 17.717933056080682 5.233266930140337 0 0 0
1301 1 10.323096637044515 19.85690780150492 5.294233518592995 0 0 0
115 1 -1.5496749016300837 19.895673306811357 7.460343902040856 0 0 0
1267 1 12.074273904309955 19.899350572898467 7.6640165252582495 0 0 0
437 1 0.3158441185446974 19.932342356782673 5.230872492687097 0 0 0
402 1 1.6403152838235995 17.606316360787105 5.217025807352983 0 0 0
403 1 1.9936873800042223 19.987554425694903 7.4969470715947315 0 0 0
404 1 0.36470050608750304 17.748398280101036 7.591536568006001 0 0 0
690 2 5.458944164917784 17.496459797762533 5.408365571949254 0 0 0
692 1 3.455200313347752 17.510690205758287 7.445186323344 0 0 0
725 1 3.62476300072177 19.59159875187909 5.272652242115983 0 0 0
691 1 5.370900633583193 19.687225716606395 7.370466182162195 0 0 0
901 1 6.918528899820374 6.3884329086499125 0.793294782705984 0 0 0
4 1 -2.960373682420206 4.178645869354716 2.9379444295950288 0 0 0
721 1 3.5871130097871307 19.823310083967787 0.7663111069958605 0 0 0
361 1 0.25616950477780964 10.952027207467998 0.7818191494235609 0 0 0
937 1 7.1121242756445495 10.892360663113745 0.863015911487506 0 0 0
1262 1 12.192307897452615 17.558783268064296 0.7364717229316704 0 0 0
614 1 5.146515970308639 8.773099048301487 0.7965835745588087 0 0 0
116 1 -3.0350669013975105 17.61504788133562 7.469270591625701 0 0 0
433 1 0.36593433438961975 19.900226841625216 0.8561743210295645 0 0 0
1009 1 6.963836410878192 19.884634193958014 0.7572568240390609 0 0 0
362 1 1.8835464797019412 13.27954654159125 0.7664223865643578 0 0 0
74 1 -1.465451640412668 13.048005251261163 0.7255241762728843 0 0 0
902 1 8.90715362264422 8.661900261506222 0.7211828107107152 0 0 0
397 1 -0.008299120328491227 15.51595926113903 0.7491153524296266 0 0 0
1190 1 12.102631696163648 8.679057790038367 0.7361994144553989 0 0 0
110 1 -1.491275669778035 17.81353035570322 0.7279090552012377 0 0 0
10 2 -1.452937591157323 4.17006774220195 9.72244584276313 0 0 0
300 2 0.15680115587420573 3.8833615412174067 11.978671611987126 0 0 0
298 1 2.0604264932142966 4.0330548952212935 9.878859356558824 0 0 0
588 1 3.8403057471325823 4.167295728330245 12.052039209593897 0 0 0
586 2 5.286773746435206 4.310884353019079 9.703025796026456 0 0 0
876 1 7.073543252208252 4.115910256008934 12.013448375282403 0 0 0
874 1 8.74778603005188 4.061348998558328 9.61117205500319 0 0 0
1162 1 11.93530076796651 4.173903413374602 9.736891469670164 0 0 0
1164 1 10.308782234898818 4.026533730810385 11.922710664306395 0 0 0
11 1 -1.4265486159134482 6.188666854721934 12.043877258313248 0 0 0
333 1 0.33297850652392524 6.226929536465719 9.89912639441211 0 0 0
299 1 1.941909521359194 6.408406570095064 11.999030126493311 0 0 0
621 1 3.525549949144602 6.399651293425888 9.781154588773585 0 0 0
587 1 5.568165550495922 6.4056606960811004 11.80635596540322 0 0 0
909 1 7.220903742304967 6.362736997592817 9.66311282512448 0 0 0
875 2 8.805336480198747 6.444767061083992 12.104647646700535 0 0 0
1163 1 11.840520717295071 6.383987618712293 11.947208780434002 0 0 0
1197 1 10.17098165188407 6.517124633899271 9.662240634305167 0 0 0
46 1 -1.3374409013032018 8.593269112127768 9.72842089631445 0 0 0
47 1 -1.3548550421326178 10.988703773957978 12.047036757729567 0 0 0
369 1 0.19467518873614065 10.896972866864463 9.819352459372292 0 0 0
336 1 0.03586981289692659 8.596464923900012 12.022174089656852 0 0 0
334 1 1.7724723418361892 8.701470420619343 9.903351921037288 0 0 0
335 1 1.9118930097503641 10.890157074439665 12.075262854564942 0 0 0
624 2 3.694973252604661 8.65162512860009 11.978468772183202 0 0 0
622 1 5.375128933719972 8.558625907238525 9.761111609702928 0 0 0
623 1 5.5097457871599635 10.79206402172329 11.997913661083993 0 0 0
657 2 3.6707701839885623 10.77602020148268 9.943599527254792 0 0 0
912 1 7.1384159363063615 8.573931981708245 11.977678267529388 0 0 0
910 1 8.684364665220336 8.808712845967143 9.739248456315595 0 0 0
911 2 8.702665927595273 10.97302463047049 11.990347088158183 0 0 0
945 1 6.945068176550342 10.861518754927507 9.79135630237189 0 0 0
1200 1 10.353691817862643 8.732482890107937 12.071264624910187 0 0 0
1198 1 11.970426796695754 8.600060917740299 9.813122100884371 0 0 0
1199 1 12.128640606807853 10.859587116083494 12.13130678936019 0 0 0
1233 1 10.608068560602248 10.903259144549665 9.734383629525944 0 0 0
82 1 -1.5059717152080438 13.156838938871308 9.888137575307555 0 0 0
372 1 0.23676963072060309 13.196072905533557 12.112729947644896 0 0 0
370 1 1.9464439392474793 13.112360171755704 9.723595798392793 0 0 0
660 1 3.7373503412272413 13.056326519535457 12.123564187167132 0 0 0
658 1 5.290319521585386 13.107493670694227 9.931864562963655 0 0 0
948 1 6.960507671007902 13.114763542694622 12.140319544528058 0 0 0
946 1 8.687013989418404 12.967970467438397 9.782537115588234 0 0 0
1234 1 12.13183834760401 13.218093399119066 9.829897173520036 0 0 0
1236 1 10.486105243586639 13.152753080772253 12.099960171555717 0 0 0
83 1 -1.4439270684637084 15.457083024499378 12.129664313697525 0 0 0
124 1 -3.0321057717212727 17.68465308540314 16.536473246765166 0 0 0
405 2 0.23031383930735405 15.486509388182455 9.921034184664473 0 0 0
371 1 2.13083551920574 15.390251819780238 12.027911215442435 0 0 0
693 1 3.6899814252897736 15.39068232655807 9.810263882957363 0 0 0
659 1 5.523886723294299 15.300818970866027 12.04991801807058 0 0 0
981 1 7.109020876707162 15.461511977823466 9.863150429067112 0 0 0
947 1 8.679218682486965 15.250740235799894 12.074958907097994 0 0 0
1235 1 12.13724873552881 15.388548873318006 12.098301448629138 0 0 0
1269 1 10.439169374909287 15.421489382729114 9.872131002418678 0 0 0
85 1 -3.058008298855644 10.903530089443292 14.489654874194883 0 0 0
118 1 -1.5677060905018123 17.55956451055608 9.802765681836835 0 0 0
119 1 -1.3661211999141725 19.978936802612637 12.088398259293191 0 0 0
408 1 0.24328572675094584 17.550867381492914 12.159171231684352 0 0 0
406 1 2.1137184035739116 17.602302388814508 9.839259250840048 0 0 0
407 1 2.0248926229036845 19.82372965788336 11.947396275215839 0 0 0
441 1 0.2860989891389383 19.741076614882704 9.71637988478357 0 0 0
696 2 3.720612735068599 17.49704029060201 12.15115781926991 0 0 0
694 1 5.146927254765672 17.79909933252968 9.707431142663614 0 0 0
695 1 5.423649303400132 19.861547895053157 12.047742695974737 0 0 0
729 2 3.7952402794081577 20.110164978846985 9.806641809392058 0 0 0
984 1 7.02120939198313 17.562165653017672 12.030779406405246 0 0 0
982 1 8.771403047856392 17.70177216550814 9.776796637346491 0 0 0
983 1 8.749037675270365 19.865271138564115 11.964587345815236 0 0 0
1017 1 7.020923556280352 19.912595201094273 9.712988386102005 0 0 0
1272 1 10.395422917859097 17.526203790343985 12.132915407621349 0 0 0
1270 1 12.023457341455362 17.702322887157962 9.893043080043961 0 0 0
1271 1 11.940730257225233 19.980363634354507 12.081704358263442 0 0 0
1305 1 10.396618536738135 19.98976839819247 9.78697062142475 0 0 0
14 1 -1.2722990349310328 3.981682791974512 14.299538609833357 0 0 0
304 1 0.3856991640958114 3.9892844122587965 16.49707478190576 0 0 0
302 1 1.987833916507106 4.026856134211813 14.228595475806744 0 0 0
592 1 3.6267427678513418 4.081967736735818 16.547740443451275 0 0 0
590 1 5.147719232233238 4.0760792495760265 14.389213122524058 0 0 0
880 2 7.035225669322309 4.102754186108344 16.36925180959195 0 0 0
878 1 8.8006997527099 4.151379100761612 14.228835694464895 0 0 0
1166 1 11.91725673629087 4.020672293868943 14.280807412125567 0 0 0
1168 1 10.269598165513276 4.073279045557838 16.654756563574786 0 0 0
15 1 -1.4588479956858125 6.175254234486854 16.550337381441878 0 0 0
337 1 0.28236646260141995 6.28455822019428 14.479747339701186 0 0 0
303 1 1.93717811956396 6.430767956344893 16.707269892779664 0 0 0
625 1 3.6292586766884805 6.440817878971444 14.180450213000224 0 0 0
591 1 5.51407063061368 6.36904868068026 16.50113589995388 0 0 0
913 1 7.100150262956071 6.209176403219985 14.293662016647176 0 0 0
879 1 8.562279185146028 6.277870968048345 16.740556149959477 0 0 0
1167 1 12.201372445441557 6.299072638596 16.572738109194304 0 0 0
1201 1 10.497624341973665 6.393420856181885 14.419254716505005 0 0 0
50 1 -1.5232718426773053 8.640404903164715 14.285847546171961 0 0 0
51 2 -1.3581789305363374 10.912982364738651 16.76955955534948 0 0 0
340 1 0.1539716092312542 8.516117931487134 16.679982150451252 0 0 0
338 1 1.815354998420637 8.74891848080416 14.384257038752144 0 0 0
339 1 1.970230871655687 10.69054687463925 16.39020886874252 0 0 0
373 1 0.10403854608304641 10.915104693889301 14.409398680282193 0 0 0
628 1 3.729574982578267 8.606818808428152 16.539526305958102 0 0 0
626 1 5.504091093453115 8.520209760772737 14.213479262555163 0 0 0
627 1 5.349468689825515 10.752227943812457 16.64141607460815 0 0 0
661 1 3.7110218592480946 10.687859808835642 14.150575729141366 0 0 0
916 1 7.063013792187074 8.752369327895572 16.659142358175522 0 0 0
915 1 8.737181460155973 10.85845852171832 16.55941536062788 0 0 0
914 1 8.69347790046606 8.49964085697742 14.410022519685112 0 0 0
949 1 6.985516164978098 10.900683212631202 14.395102433790576 0 0 0
1204 2 10.387179220011507 8.49686169278097 16.556992228665777 0 0 0
1202 1 11.96718880933794 8.698307663083687 14.248616840422006 0 0 0
1203 1 11.99498240597946 10.753139976231685 16.49088992895428 0 0 0
1237 1 10.187081913560213 10.820336010625901 14.267036501974134 0 0 0
86 2 -1.4679156312601174 13.244012658986808 14.37741923398437 0 0 0
376 1 0.5284916874798098 13.02125498964487 16.59623247385206 0 0 0
374 1 1.9843421581426073 13.130846860292975 14.257434506140463 0 0 0
664 1 3.6952959384398714 13.123013936221955 16.661126032601523 0 0 0
662 1 5.23474277495728 13.20159161395141 14.346013629453171 0 0 0
952 2 6.987699760044095 12.998222315272326 16.63989177572508 0 0 0
950 1 8.865660573134033 13.16080902106144 14.462538586179452 0 0 0
1238 1 12.051351599906312 13.021469521971415 14.294275421887153 0 0 0
1240 1 10.60871772781066 13.106161380740057 16.55023723594905 0 0 0
87 1 -1.3337011188299888 15.297619219319039 16.588875912903788 0 0 0
409 1 0.42767865457939225 15.299816316895521 14.418220600139607 0 0 0
375 1 2.055370710907744 15.266317832079137 16.76538648071223 0 0 0
697 1 3.6510280402950865 15.443515399468719 14.39697691470767 0 0 0
663 1 5.332178555358053 15.27777133515666 16.63313868302299 0 0 0
985 2 7.067469250878021 15.325146675071656 14.350224300404774 0 0 0
951 1 8.616087538447761 15.300808556727194 16.74260521272867 0 0 0
1239 2 12.097041125383246 15.468035639742968 16.566711583661476 0 0 0
1273 1 10.35650989862988 15.450365242890646 14.44152461609601 0 0 0
1274 1 12.211002476574517 17.616499871520787 14.3789450205818 0 0 0
1309 1 10.451503670940639 19.95006163948081 14.327483811476174 0 0 0
122 2 -1.4020010551323905 17.509732645229448 14.36924175402881 0 0 0
123 1 -1.2366260638383666 19.84834815041817 16.669957419147444 0 0 0
445 1 0.20165070189793832 19.827690402208226 14.309713133465529 0 0 0
412 1 0.20941231863682042 17.53446348383683 16.621914473104056 0 0 0
411 1 1.8640233752289088 19.800014230768884 16.6149316975139 0 0 0
410 1 1.9121781854991715 17.614309799892908 14.343098233519953 0 0 0
699 2 5.2959778251831695 19.775139732481662 16.6173295250899 0 0 0
733 1 3.756300778373631 19.841614980737837 14.283909922253315 0 0 0
698 1 5.312224049198181 17.686898991504464 14.455542121445001 0 0 0
700 1 3.6215273946713973 17.521343851202914 16.604794333682406 0 0 0
987 1 8.699031798343832 20.000240706453187 16.449643467448595 0 0 0
986 1 8.577422008976825 17.615254815779764 14.202350203893296 0 0 0
1021 1 6.950532005261661 19.847816364344858 14.385445476893725 0 0 0
988 1 7.028055371656401 17.64475480960713 16.6536989124385 0 0 0
1275 1 12.189425713820768 19.940868781869987 16.521148589857578 0 0 0
1276 1 10.33509952272837 17.643391699383884 16.57610228770176 0 0 0
157 1 -2.9664914921548284 19.85999776849569 14.241404370450827 0 0 0
18 1 -1.4975982498203293 4.046580956282572 18.706247988338113 0 0 0
306 1 1.9550731921921587 4.081296915842204 18.805497364592153 0 0 0
594 1 5.432717289197719 4.16958942925708 18.834612072211357 0 0 0
596 1 3.645248681490375 4.201058597392155 20.93053105287571 0 0 0
882 1 8.650559706597868 4.178452618359396 18.921693261314342 0 0 0
1170 1 12.108572080816423 4.167026550071604 18.838396840036037 0 0 0
1172 2 10.413839956303391 4.0426081864820365 21.071031762398224 0 0 0
19 1 -1.6272919165858428 6.344772598230646 21.208986657467843 0 0 0
341 1 0.08383958304205397 6.373673005078619 18.96540172388142 0 0 0
307 1 1.9887077241803794 6.4133543720650295 20.973232756146412 0 0 0
629 1 3.8866687573920196 6.309663501837739 18.658940604405625 0 0 0
917 1 7.063402904648579 6.570493490225669 18.954085745053007 0 0 0
883 1 8.84155277093097 6.49004831674667 21.179174232739328 0 0 0
1205 1 10.487093094341159 6.386232374245682 18.874585941264474 0 0 0
1171 1 11.995484819197948 6.348683435353065 21.05136043600773 0 0 0
54 1 -1.384735192234986 8.683917328452107 18.81176627174486 0 0 0
55 2 -1.3182521738239807 10.78126928112827 20.94757071593414 0 0 0
344 1 0.2874878953231952 8.505369028270321 20.953375316080784 0 0 0
994 1 8.563619534453618 17.73004761182625 23.36820544197826 0 0 0
342 2 2.030593733041714 8.49712123474361 18.802386843434615 0 0 0
377 1 0.5178487335965523 10.801691813932434 18.629045678821527 0 0 0
630 1 5.164649304394547 8.693712586207745 18.927955884164454 0 0 0
665 1 3.567776929540088 10.941367119185973 18.80864042666858 0 0 0
631 2 5.370151746487374 10.864366388324855 21.108637530909576 0 0 0
918 1 8.745550683682286 8.6456673418102 18.993274616898088 0 0 0
953 1 7.019354280069648 10.943453812838271 18.768230703041805 0 0 0
920 1 7.136161113191746 8.732939850478978 21.12698292471214 0 0 0
1206 1 12.052356323842375 8.673584614750753 18.787581126724582 0 0 0
1241 1 10.445637190135937 10.854277686733797 18.99884737393898 0 0 0
90 1 -1.2680922225340423 12.904306452023992 18.73578040893293 0 0 0
378 2 1.934025006217551 13.242059281674743 18.937582519096466 0 0 0
380 1 0.16135522160612847 13.13738798662502 21.05774339094669 0 0 0
666 1 5.40727477921707 13.110416670225908 19.00754665279455 0 0 0
954 1 8.827836356448753 13.069921159009636 18.779667881459957 0 0 0
1242 1 12.210612111654704 13.131883750763151 18.8329201953185 0 0 0
91 1 -1.5223410287868924 15.497210213917333 21.204769731224882 0 0 0
1029 1 7.082383424988364 20.174083160825568 23.402470694325682 0 0 0
413 1 0.10767292976060894 15.397588773926232 18.827235147454086 0 0 0
379 1 1.8873566105637343 15.352324150531194 21.025673121492165 0 0 0
701 1 3.774406662714796 15.284308847096812 18.884676108262283 0 0 0
989 1 7.036234892546681 15.360603536062747 18.882582313233 0 0 0
1277 1 10.41778200148007 15.409549924094602 18.793761441261857 0 0 0
126 1 -1.4809158016955555 17.7263635902925 18.91639090088595 0 0 0
1282 1 11.955789315030248 17.640140534980635 23.312391225167 0 0 0
414 1 2.0277140227719856 17.569824932052327 18.99630541901727 0 0 0
416 1 0.2270004707947626 17.74743869785516 21.20680445171003 0 0 0
449 2 0.2734472453908534 19.753171941254397 19.00208918139335 0 0 0
415 1 2.034667320461293 19.828069400321844 21.209558366972594 0 0 0
702 1 5.232144003044845 17.807907452916407 18.900182447222388 0 0 0
737 1 3.452986927150164 19.848197106310995 18.992354382790573 0 0 0
704 1 3.8749114319001636 17.620503015282424 21.17926507594489 0 0 0
990 1 8.896096924571882 17.685790813482015 18.92767362683713 0 0 0
1025 1 7.088838527846501 19.87996514182601 18.74860787816559 0 0 0
992 1 6.945572580090178 17.721896490247673 21.020006401314685 0 0 0
1313 1 10.458863371426819 19.99251914027823 18.777062481572976 0 0 0
1278 1 12.218716915384192 17.575868744989897 18.65819109938644 0 0 0
22 1 -1.498217607746547 4.093167573169101 23.237374333294856 0 0 0
308 1 0.37083506052899073 4.053405581601798 21.10718510710156 0 0 0
310 1 2.1435247257968975 4.060517956865791 23.412767937756648 0 0 0
598 1 5.207630699004267 4.220679321141597 23.316823147618408 0 0 0
884 1 7.0381465371734935 4.3171081022999225 21.182696176677354 0 0 0
886 1 8.692628668208737 4.1331723062329475 23.347823690348157 0 0 0
1174 1 12.098482750000336 3.9050840522776573 23.231660146852615 0 0 0
1279 1 12.094983556030716 19.91604002765881 21.070604468420917 0 0 0
345 1 0.32405392053957716 6.338534887035966 23.21818134660348 0 0 0
633 1 3.4307845152739613 6.537912254718339 23.384794432838195 0 0 0
595 2 5.32709768965078 6.563718113361784 21.096305157603894 0 0 0
921 1 6.942586601108341 6.4820943676691325 23.259789506225363 0 0 0
1209 1 10.657908196480278 6.407557542222355 23.49797269346325 0 0 0
58 1 -1.3628127489213044 8.71158022271874 23.391055967849812 0 0 0
991 1 8.802710502250022 19.951725988182964 21.183524932825947 0 0 0
343 1 1.750500806329538 10.961419229644605 20.937594174731238 0 0 0
381 1 0.2331611968674352 10.98371872866914 23.268336555587638 0 0 0
346 2 1.7863414220029386 8.701050275714856 23.305899953654254 0 0 0
632 1 3.5194402764055717 8.73190763324552 21.1335666743899 0 0 0
669 1 3.672438455233528 10.944936117308892 23.30677693768399 0 0 0
634 1 5.26195041605198 8.731515737802214 23.39942412075848 0 0 0
919 1 8.849201331376406 10.907081178937565 21.171346921977424 0 0 0
957 1 6.966749746832234 10.873786383435661 23.35963625654623 0 0 0
922 2 8.797419207658958 8.565921560993923 23.38672104783618 0 0 0
1208 1 10.489448128389036 8.709627754394086 21.19996022144283 0 0 0
1207 1 12.162007658395883 10.907360972770897 21.18504761294655 0 0 0
1210 1 12.368033761409734 8.787510596216457 23.329461139137454 0 0 0
1245 1 10.487652729469428 10.738910200270336 23.447664352751993 0 0 0
94 1 -1.4553165337944993 13.260665192058516 23.302506939791538 0 0 0
382 1 2.018692234347477 13.183237358675832 23.221247541974765 0 0 0
668 1 3.5867025019774266 13.030302348603742 21.076526207994156 0 0 0
670 2 5.263708092274478 13.355003017072544 23.289657785990585 0 0 0
956 1 7.178620559865194 13.098970120245784 21.180187711414014 0 0 0
958 1 8.921656314955026 13.04233479544222 23.26966358875642 0 0 0
1244 2 10.455940222975222 13.165964512532401 21.04983649298361 0 0 0
1246 1 12.026499806528658 13.111069524810194 23.41013741779215 0 0 0
1317 1 10.462448886511233 20.1002536111555 23.445897740770658 0 0 0
417 1 0.3342399724289655 15.57501086849637 23.38589999349356 0 0 0
667 1 5.4918522264965395 15.342709998246677 21.224685068513537 0 0 0
705 1 3.5268935091223943 15.455706987074132 23.315911390224315 0 0 0
955 1 8.854622056559123 15.48563755258359 20.990042944345234 0 0 0
993 1 7.175997648206395 15.31160641321952 23.35475715896881 0 0 0
1243 1 12.260410389634007 15.294881371905712 21.119206810594005 0 0 0
1281 1 10.252817910481298 15.367940179736419 23.254320898428396 0 0 0
127 1 -1.5096182276164263 19.870857519526915 21.145627367785114 0 0 0
130 1 -1.5499792648345354 17.79131218271734 23.481808004976052 0 0 0
1280 1 10.737962562791402 17.601206044674072 20.951145690704884 0 0 0
418 1 2.034660645242802 17.842480635420323 23.306731481615675 0 0 0
453 1 0.1811522558526808 20.040019512538496 23.456540563136507 0 0 0
703 1 5.478022483906952 20.077438060649126 21.059891802339475 0 0 0
741 1 3.8641388027515715 19.932475276424242 23.32377116539978 0 0 0
706 1 5.404898435753993 17.584936661798892 23.38997391259221 0 0 0
125 1 -2.9588268934410067 15.224486768039375 18.833742239293795 0 0 0
92 1 -2.988641157510287 13.114160193476511 20.93906148264171 0 0 0
93 1 -3.0045696535172297 10.962502159487054 23.36973617503349 0 0 0
26 1 -1.404747554969729 4.0707085369387785 27.805046644741278 0 0 0
312 1 0.30065761217312525 3.8842842680026655 25.420588740904925 0 0 0
314 2 1.911206117746116 4.163398670677531 27.834514949063088 0 0 0
600 1 3.685070578546611 4.083008598403985 25.628765202981562 0 0 0
602 1 5.250369076500969 4.124571401006371 27.767821334352735 0 0 0
888 1 7.084913266449997 4.140791164952974 25.494046669390304 0 0 0
890 1 8.754433005784648 4.036388890854513 27.86500111569227 0 0 0
1176 1 10.493526079942832 4.099434248450145 25.461571435528132 0 0 0
1178 2 12.197106799760817 4.201981160749412 27.69946894328544 0 0 0
23 2 -1.282092130945007 6.256001675730425 25.569799285383112 0 0 0
1288 1 10.501207252166473 17.56745367801279 30.132332587281148 0 0 0
349 1 0.379094891749828 6.445722334335029 27.97280369405381 0 0 0
311 1 1.7876269946040173 6.202793567732828 25.646383984383828 0 0 0
637 1 3.581469210893311 6.399781398507968 27.866619179382614 0 0 0
599 1 5.143954602966873 6.403870883278175 25.61544806353729 0 0 0
925 1 7.024253823473894 6.2864180498114655 27.677405421617717 0 0 0
887 2 8.741909653139242 6.4450194767715105 25.470126378211123 0 0 0
1175 1 12.452393480827919 6.288754269256151 25.504872439791335 0 0 0
1213 1 10.431974309064213 6.31710182231586 27.717349655578865 0 0 0
62 1 -1.443314500456556 8.816522638136309 27.941805318490875 0 0 0
59 1 -1.4625962122221048 11.016810416965784 25.684908381044913 0 0 0
1290 1 12.226593471344895 17.766557929967064 32.43094769534338 0 0 0
348 1 0.217942415380608 8.629040131921158 25.629051898479837 0 0 0
350 1 2.0343698530576724 8.754857208913037 27.818736326980652 0 0 0
347 1 1.9379307984290826 10.890206704850355 25.52524332438199 0 0 0
385 1 0.4821281723120787 10.965673625358324 27.889482591330168 0 0 0
636 1 3.4971897564864403 8.653702669215598 25.551606306442036 0 0 0
638 1 5.338970680191305 8.67542174314411 27.959365623088058 0 0 0
635 1 5.417196341201703 10.775585544769188 25.644917816780488 0 0 0
673 1 3.684177423850862 10.84135671697089 27.74758204941771 0 0 0
924 1 6.9332828652640375 8.470644758633174 25.617517069583368 0 0 0
961 1 7.038080851769478 10.768213827566727 27.89562714747675 0 0 0
923 1 8.81380450854471 10.614235995152809 25.620475823429484 0 0 0
926 1 8.702973005445955 8.417532662815667 27.623437908513193 0 0 0
1212 1 10.67812704250332 8.597627545687857 25.517578299365407 0 0 0
1214 1 12.085571828335286 8.625324972139964 27.778319307073954 0 0 0
1211 1 12.345465701668981 10.883614575870986 25.636872600443994 0 0 0
1249 1 10.477541382593856 10.915957538483676 27.948655367136276 0 0 0
98 1 -1.1331324121489177 13.19338938075525 27.94808880794815 0 0 0
384 1 0.22540426576648587 13.142979980642252 25.549290240098507 0 0 0
386 1 1.9453413931100814 13.243218848845018 27.787900814691216 0 0 0
672 1 3.701594658698286 13.164098019582534 25.544699278169915 0 0 0
674 1 5.300329241405355 13.153237866205641 27.80544731815035 0 0 0
960 1 7.130859644044276 13.067859993470478 25.42448620718615 0 0 0
962 1 8.583181704423083 13.08041829778612 27.884643276989582 0 0 0
1248 2 10.389618239326374 12.994013824388809 25.7693317768415 0 0 0
1250 1 12.204856831989439 13.055882623369936 27.890824819538672 0 0 0
95 1 -1.4877900026480237 15.54689948363461 25.733943132391058 0 0 0
60 1 -2.8584560685629197 8.582810899971667 25.639049907386973 0 0 0
421 1 0.22894174651376886 15.416173721161424 28.02151192313122 0 0 0
383 1 1.8568295547041007 15.483286318132384 25.769164214444782 0 0 0
709 1 3.701709816598311 15.30667676745173 27.7878422097474 0 0 0
671 2 5.3344250097366155 15.359775383232948 25.49553326350393 0 0 0
997 1 7.058517813110796 15.298296504041726 27.76248291623942 0 0 0
959 1 8.81649809015304 15.408413795772487 25.554256141959172 0 0 0
1247 1 12.012213582761117 15.374330965091012 25.736344135817184 0 0 0
1285 1 10.387685558569462 15.284599959820655 28.029680181601325 0 0 0
131 1 -1.3197265213671785 19.84606578404321 25.723393033652556 0 0 0
134 1 -1.4082649395070894 17.786317963346857 27.97366263778792 0 0 0
999 1 8.77776114332141 19.75725926914 30.225718466964672 0 0 0
420 1 0.28772561977834377 17.702854369288012 25.56222231195495 0 0 0
419 2 2.0505851590841804 20.013783020185954 25.497503519766653 0 0 0
422 1 2.0336040742278927 17.571446316177052 27.83229173018042 0 0 0
457 1 0.5475062222903353 19.853397009060263 27.918971347660094 0 0 0
745 1 3.7146414670587413 19.81611206953901 27.966553832819038 0 0 0
708 1 3.6757143355499977 17.67988681980851 25.446798651598332 0 0 0
707 1 5.47412253644043 20.00944711501913 25.727714585465403 0 0 0
710 1 5.2726834936600335 17.643273417079392 27.78973221281801 0 0 0
996 1 7.119705518719058 17.67015453954945 25.72166233448685 0 0 0
998 2 8.800067770137474 17.607577937258135 27.95942865982603 0 0 0
995 1 8.74901519384981 20.059903612451254 25.667965053936772 0 0 0
1033 1 7.117254105036056 19.745274167929026 27.963354544752576 0 0 0
1321 1 10.501515271968358 19.92073973192532 28.055168862223034 0 0 0
1284 1 10.273082057033534 17.793501980861237 25.547344189952927 0 0 0
1283 2 12.093533955884876 19.855937292601883 25.736903622753175 0 0 0
1286 1 12.114707312251117 17.678326138764362 27.800177809767813 0 0 0
30 1 -1.3911857090116238 4.058968469456279 32.41256589465894 0 0 0
316 1 0.27822685203531794 4.249284411843897 30.11056102033475 0 0 0
318 1 1.9150232268584038 4.139472855798878 32.365241036293014 0 0 0
604 1 3.593540916239321 4.0802191975904805 30.11669474671014 0 0 0
606 1 5.364238554468186 3.9937524158266973 32.31531352584446 0 0 0
892 1 6.936506725779268 4.144490435705307 30.018538845057222 0 0 0
894 1 8.827955384264556 4.043421452864616 32.18826854644911 0 0 0
1180 1 10.57964201686466 3.9849301621778435 30.052091997097392 0 0 0
1182 1 12.131360556273844 3.9981532892727145 32.33063666149927 0 0 0
27 1 -1.474898789396523 6.261830993795119 30.10921042959896 0 0 0
1325 1 10.362488057864649 19.99368385608119 32.42911736910001 0 0 0
353 2 0.2520178281129044 6.323182780248755 32.32522678718303 0 0 0
315 1 2.064828761886889 6.417969506456239 30.209214457425357 0 0 0
641 1 3.6280991835593364 6.368929180099828 32.47661099429924 0 0 0
603 1 5.292367184658668 6.2297505393445025 30.115358743943 0 0 0
929 1 7.022732386434474 6.2441230761763995 32.30251612915869 0 0 0
891 1 8.732361771167962 6.176376164933391 29.99014912192521 0 0 0
1179 1 12.173315153014602 6.346726811816869 30.00029267421898 0 0 0
1217 1 10.61588857470364 6.281579606404212 32.3539000504273 0 0 0
66 1 -1.533629264627902 8.700539436374296 32.38212808555692 0 0 0
63 1 -1.3095026032820374 10.923598201118715 30.126379545708346 0 0 0
1000 1 6.907912931207721 17.476690045185272 30.05526547781626 0 0 0
1002 1 8.676162637060116 17.69970487805347 32.32808614887365 0 0 0
352 1 0.2694136265696465 8.570449390975728 30.200801210819893 0 0 0
354 1 2.099991864951475 8.68778649825163 32.41762652110296 0 0 0
351 1 2.137789223274921 10.821353523282232 30.22336810865378 0 0 0
389 1 0.5421902743257547 10.88245081889617 32.3969678010494 0 0 0
640 1 3.7909945628663575 8.622162675018512 30.244922205653253 0 0 0
642 1 5.515579307888584 8.667006352466746 32.48009603898315 0 0 0
639 2 5.403939965307964 10.771172641882885 30.130337631983515 0 0 0
677 1 3.7718824253691245 10.908954183604989 32.447342607807116 0 0 0
928 1 7.013140892132621 8.430219540395964 30.047775856080396 0 0 0
927 1 8.588843243015976 10.703698883367393 30.110998833898037 0 0 0
965 1 7.115087312650332 10.83095198511862 32.42141165613362 0 0 0
930 1 8.633380993429565 8.508130157282128 32.255662571123736 0 0 0
1216 1 10.42638637740447 8.557329341085069 30.005594440975745 0 0 0
1218 1 12.121284902338079 8.540699461029487 32.444148162767995 0 0 0
1215 1 12.086097219393668 10.832951701347087 30.144125957369674 0 0 0
1253 1 10.299285231592346 10.770638782171506 32.345577624729586 0 0 0
102 2 -1.2630827604238153 13.023012629609502 32.39483046966957 0 0 0
388 1 0.5987183961872837 13.2158222990171 30.216022277879226 0 0 0
390 1 2.1088376312263577 13.196227670598565 32.42003096728432 0 0 0
676 1 3.724081089509969 13.060756663179315 30.154289499445593 0 0 0
678 2 5.312081593679143 13.308706257881015 32.56135903041903 0 0 0
964 1 6.9967186818628475 13.091295746426567 30.163749383537297 0 0 0
966 1 8.68960133847538 13.072493871565154 32.4137144841365 0 0 0
1252 2 10.329749987424655 13.00314139327969 30.06214534267709 0 0 0
1254 1 12.060875192316864 12.929037789841153 32.27924535747873 0 0 0
99 1 -1.406810599520979 15.439259856748818 30.183246997637486 0 0 0
1287 1 12.14926728956669 19.94766583765458 30.205350910822986 0 0 0
425 1 0.3062417279040335 15.232650613233316 32.38849596096009 0 0 0
387 1 1.992703346278776 15.451737532730837 29.985831965749885 0 0 0
713 1 3.572895606168351 15.483352575589809 32.37676115312689 0 0 0
675 1 5.376148884127905 15.432230665934542 30.06572219144273 0 0 0
1001 1 7.04740120620619 15.412621365266787 32.37826934632869 0 0 0
963 1 8.637389957365887 15.48727394314425 30.132319649498008 0 0 0
1289 1 10.37493489712601 15.387331074475671 32.37368780444808 0 0 0
1251 1 12.142225525924918 15.117589854965225 30.150576188658924 0 0 0
135 1 -1.375988842000248 19.872767285393426 30.074158361773865 0 0 0
138 1 -1.214703492231553 17.78159149478585 32.37702719844299 0 0 0
1037 1 6.941756692148634 19.984919855097132 32.55483393602794 0 0 0
426 1 1.816478873271226 17.623913421035923 32.425060778016714 0 0 0
461 1 0.3938744488101853 20.015701277220856 32.35087435431656 0 0 0
424 1 0.38691919364218563 17.801552652025897 30.007001296980764 0 0 0
423 2 2.084994356229676 19.921053012006404 30.196908096238065 0 0 0
714 1 5.498827187362397 17.542329890023822 32.57594860587937 0 0 0
712 1 3.7838160242075887 17.739413165310033 30.12291609623794 0 0 0
749 1 3.688352068143563 19.726551318717398 32.47051990075437 0 0 0
711 1 5.426147226826745 19.923835371589913 30.24451551901258 0 0 0
96 1 -3.026932970773144 13.284514498339778 25.745797099983562 0 0 0
61 1 -2.9122096116836205 6.455739861934031 27.86693084190002 0 0 0
28 1 -2.9782966204612604 4.147938852582063 30.057340308349854 0 0 0
65 1 -3.048741902816999 6.383626049573812 32.406209837930035 0 0 0
137 1 -2.8796284799315783 15.355102228093546 32.52287839933663 0 0 0
64 1 -3.0210827137891476 8.711563665746407 30.02378905631952 0 0 0
136 1 -3.0545595607802483 17.604338119513656 30.234666791407317 0 0 0
97 2 -2.974865394111241 11.131201541069174 28.06658641681543 0 0 0
34 1 -1.2239448906852852 4.006043902625047 36.82522533822306 0 0 0
320 1 0.34042018316090994 4.128940046582738 34.56993320913361 0 0 0
322 1 2.0845751642523904 4.075865971027568 36.93353217500773 0 0 0
608 1 3.6611931656535646 4.1333701443257365 34.58207194562304 0 0 0
610 1 5.3370329389744215 4.214026563861907 36.86183642088645 0 0 0
896 1 7.093805951055281 4.098771178600968 34.32791613691997 0 0 0
898 1 8.618845191617567 4.08474472341891 36.78141495188976 0 0 0
1184 1 10.421770780572324 4.052671865941459 34.553674671310304 0 0 0
1186 1 11.986458621696304 4.094085767353751 36.90286303698609 0 0 0
31 1 -1.5251777256602745 6.251066582804533 34.70729844404465 0 0 0
357 1 0.2946959389805368 6.2578396016544495 36.81493974054278 0 0 0
319 1 1.9867447649593926 6.444634097371118 34.59106267503225 0 0 0
645 1 3.5295479933180136 6.465880513187281 36.95531062164794 0 0 0
607 1 5.469917943260721 6.274189127927481 34.664354104263154 0 0 0
933 1 7.0447838584472775 6.460388229633056 37.000266355576755 0 0 0
895 1 8.746056030011562 6.345239939679954 34.62802379132795 0 0 0
1183 1 11.996782317269734 6.424759231339493 34.708849041104884 0 0 0
1221 1 10.358975592892225 6.406869072576787 37.08471126693337 0 0 0
70 2 -1.249581951110131 8.569377879271297 36.89886344661221 0 0 0
67 2 -1.3573571500386705 10.878173725337147 34.51197145335301 0 0 0
356 1 0.20433681000890846 8.53210489147321 34.50243566646287 0 0 0
358 1 1.9232845481949035 8.68557467485008 36.96040809534192 0 0 0
355 1 1.934354679985102 10.689856348492489 34.7563750810705 0 0 0
393 1 0.14336398875978063 10.941204455438257 37.05036761343577 0 0 0
644 2 3.7299589752864364 8.746898369862757 34.676017995107856 0 0 0
646 1 5.464815958777167 8.66378038395629 36.8726745417563 0 0 0
643 1 5.54396192283592 10.909826246670104 34.68780987576186 0 0 0
681 2 3.7913030354042103 10.930182241045557 36.834047168038566 0 0 0
932 1 7.113563661326267 8.55076345915278 34.68925120892152 0 0 0
969 1 6.898301168270874 10.900349837926111 36.990361668218455 0 0 0
931 2 8.764268692901016 10.96863742708633 34.873463550593584 0 0 0
934 1 8.717500733390757 8.713229754333685 37.011415889437046 0 0 0
1220 1 10.26582348459349 8.668545266746971 34.587494701700265 0 0 0
1222 1 11.963095666747403 8.585750559915429 36.772739356028126 0 0 0
1219 1 11.99357593227754 10.786716662708303 34.661872069908156 0 0 0
1257 1 10.406414491142097 10.876837248278997 37.05955034274966 0 0 0
106 1 -1.6131276623966864 13.274475863462511 37.039995919155686 0 0 0
177 1 -3.024665013118219 19.95642439604416 36.99968251131844 0 0 0
392 1 0.2632915367204456 12.924278241797317 34.87207052531106 0 0 0
394 1 1.964640532649689 13.060641872640748 37.05205809762309 0 0 0
680 1 3.657252901429481 13.002188024207715 34.83003221541071 0 0 0
682 1 5.485758223683917 13.180279940972712 36.9894766723487 0 0 0
968 1 7.256122613979016 13.285102335933976 34.75039704370644 0 0 0
970 1 8.751933219221687 13.135673321302344 37.08060345666348 0 0 0
1256 1 10.428000199981561 13.239133926043454 34.64848653477445 0 0 0
1258 1 12.075066592333645 13.19079852152648 36.99780234687488 0 0 0
103 1 -1.2361020612583364 15.251094061596573 34.76674572633017 0 0 0
613 1 3.7810804474683373 6.361741886901055 41.3869933664119 0 0 -1
429 1 0.3313190547250655 15.293829247896078 37.05987899251541 0 0 0
391 2 1.9382746666349115 15.175142655201686 34.73611795707812 0 0 0
717 1 3.573842862375063 15.285466114197142 37.110361374352024 0 0 0
679 1 5.395286520348553 15.354989345041442 34.64217609168806 0 0 0
1005 2 7.069366631997153 15.53468881712272 36.802622466240564 0 0 0
967 1 8.829769089987202 15.559147502536883 34.68822023374375 0 0 0
1255 1 12.20288347174521 15.326195845086984 34.61178527543518 0 0 0
1293 1 10.481313997448044 15.2383329269492 36.98713774146755 0 0 0
68 1 -2.8167952157966263 8.625486435523463 34.67536217837491 0 0 0
142 1 -1.4754499705745374 17.573571792551697 37.03592444938445 0 0 0
139 1 -1.3752263143952461 19.877255151555975 34.571457901834464 0 0 0
69 1 -2.935551149452003 6.305181472616155 36.92207248885191 0 0 0
427 2 2.0580034009556174 19.89034433895383 34.69560351339763 0 0 0
428 1 0.2951896141522581 17.473349731530455 34.742988713750364 0 0 0
430 1 2.0178000141970696 17.71599120428551 36.98608253893815 0 0 0
465 1 0.17069526926329992 19.833162428951066 36.9498401994821 0 0 0
716 1 3.55283226942959 17.597703815020644 34.56231899929189 0 0 0
715 1 5.250272409499973 19.80846491315529 34.729013317309125 0 0 0
718 1 5.07533233623879 17.680857034637242 36.88127539083786 0 0 0
753 1 3.5975373143804177 19.93752648665449 37.015961174180006 0 0 0
1004 1 7.015625507201489 17.62985822974114 34.73936029497979 0 0 0
1006 1 8.913504189909414 17.626256826189454 36.914906444836646 0 0 0
1003 1 8.743983573664558 19.957302857681693 34.61283651440401 0 0 0
1041 1 6.992105799047413 19.968181178216906 36.9546885679089 0 0 0
1292 1 10.55450334027357 17.608270022759445 34.77937463480346 0 0 0
1291 1 12.171755250000103 19.909094155918776 34.68371904553943 0 0 0
1294 1 12.046561040926473 17.6476109866001 36.9981903706347 0 0 0
1329 1 10.41303144054989 19.87430217865161 37.07881745461789 0 0 0
1296 2 10.367484481146896 17.426595008619906 39.23058599452585 0 0 0
324 1 0.3268339280465602 4.081494781431565 39.122552673400364 0 0 0
1261 1 10.385823330830071 15.458871953105069 41.36896792939888 0 0 -1
612 1 3.7609352885488914 4.1236863815039415 39.21527938257455 0 0 0
971 1 8.587714694115292 15.409205579038003 39.23553269810944 0 0 0
938 1 8.774790239081415 13.099620137663031 41.38252116571411 0 0 -1
900 2 6.895599136702663 3.9005418819784943 39.27729032637919 0 0 0
1188 1 10.382986340538437 4.23611391455589 39.088769045355676 0 0 0
683 1 5.498855141114231 15.355756325620437 39.11035000957003 0 0 0
35 1 -1.243801720474669 6.513093201593949 39.182482464491386 0 0 0
323 1 1.9628984342017288 6.390631810948003 39.32529562222609 0 0 0
611 1 5.399171793346704 6.293134149108776 39.0679945169869 0 0 0
395 1 1.7839738978468445 15.397249882941646 39.324313307980475 0 0 0
899 1 8.581870969107793 6.302119914522183 39.31439729773196 0 0 0
107 1 -1.5669940444411241 15.480418972140482 39.200981020107335 0 0 0
1187 1 12.136931784487086 6.2914682236300665 39.179227740332834 0 0 0
104 1 -3.0154295787768035 13.234647144594991 34.591994876592295 0 0 0
719 1 5.417400209990171 20.05445368575441 39.30712722595227 0 0 0
71 1 -1.4894869701220121 10.86532023963546 39.15947886225635 0 0 0
1260 1 10.448874556383743 13.057031384244997 39.20326073507398 0 0 0
360 1 0.2540445255370738 8.779235390220872 39.216848728594485 0 0 0
359 1 2.081326577935763 10.868981777773806 39.12209953577835 0 0 0
143 1 -1.5015368780936433 19.826628893534807 39.22485359629502 0 0 0
1295 1 12.05008993388553 19.771526420203035 39.35610166905262 0 0 0
648 2 3.783802837236279 8.471279424308555 39.236634114474484 0 0 0
647 1 5.225610203804361 10.81751888697969 39.24347938513232 0 0 0
720 1 3.5634939774524597 17.72378957050337 39.357608171643804 0 0 0
140 1 -2.887275356123279 17.50326046006588 34.738630599907296 0 0 0
936 1 6.955392880399645 8.60688179149453 39.343756223850306 0 0 0
935 2 8.744902082522618 10.987970489880334 39.18276314147168 0 0 0
1007 1 8.813027430971829 19.815672141883308 39.262337486705476 0 0 0
432 1 0.32515870555077786 17.666218170142933 39.17480557335904 0 0 0
1259 1 12.149159587243517 15.31499528465247 39.26423846022858 0 0 0
1224 1 10.465861906174354 8.64981593893729 39.22632743765625 0 0 0
1223 1 12.188288272998406 10.910317543689652 39.349164852725835 0 0 0
431 1 1.8462917168103443 19.922708669097908 39.32394953812205 0 0 0
396 1 0.17397114592756235 13.008335618440183 39.093344737401324 0 0 0
684 1 3.7626905431175643 13.149754755321405 39.2968619403061 0 0 0
1008 1 6.810521154214171 17.770009711185804 39.05321495066181 0 0 0
972 1 6.9681779992643955 13.033854002420222 39.387826443099016 0 0 0
105 1 -2.8891289078698903 10.872948894598583 36.787034606150044 0 0 0
1154 1 12.279180816097863 4.339695751953396 41.38881535553713 0 0 -1
686 1 5.361408271057713 17.681366261853697 41.3646104111878 0 0 -1
2 1 -1.312555570483362 4.312969297995219 41.35759830692663 0 0 -1
1226 1 12.104550834340436 13.165448626178062 41.36054124964882 0 0 -1
866 1 8.713149547472558 4.152957147448104 41.42073148602776 0 0 -1
974 1 8.563827919403067 17.595411096889624 41.382773057829766 0 0 -1
1189 1 10.40884667834645 6.407930301926318 41.413630901002975 0 0 -1
1297 1 10.36711016107473 19.77409504427927 41.425859511359846 0 0 -1
685 1 3.6284330120492427 15.375065138841633 41.342054220847544 0 0 -1
325 1 0.25201726112619793 6.525037834003183 41.426493925483015 0 0 -1
578 1 5.2719327855449185 4.194385492741114 41.42504291637965 0 0 -1
973 1 6.98070319011634 15.266517013362055 41.410914866511305 0 0 -1
326 1 2.2178013323357755 8.647845912657322 41.431900212156215 0 0 -1
1410 2 12.070769490313872 35.96666045135006 5.118250776783586 0 0 0
1298 1 12.011002463701846 22.158538108691904 0.833006938524428 0 0 0
436 1 0.32736335170964903 22.18014938380503 3.0655337653367845 0 0 0
1123 2 8.700560553550144 38.15632654776671 7.674367154064249 0 0 0
724 1 3.7373750885579655 22.219104855262326 2.953730648439196 0 0 0
869 1 7.063667558949738 38.096433231387834 5.375017560125608 0 -1 0
1012 1 6.9561769525353485 22.100662143852347 3.1587729829282924 0 0 0
254 1 -1.1601200686576976 35.78075573637223 0.7224163344038209 0 0 0
1300 1 10.505060605354796 22.171231378409523 3.0420225612410476 0 0 0
147 1 -1.2822332684159434 24.514414178875192 3.025938292999576 0 0 0
260 1 -2.977068959536811 35.72709346280437 7.487637146476098 0 0 0
435 1 1.9758223242548478 24.589549875753804 2.9382061513814564 0 0 0
577 2 3.580746856573592 38.06631073929664 0.8904242552055808 0 -1 0
1124 1 7.025183793606307 35.829673215899014 7.441450381582929 0 0 0
723 1 5.326431863674421 24.35434288801167 2.947801082855778 0 0 0
1011 1 8.717151149558518 24.42500425988067 3.3008047042491033 0 0 0
1299 1 12.13736901217835 24.50465758605719 3.108301420575421 0 0 0
183 1 -1.399676452735666 29.05754530248168 2.788237660796513 0 0 0
289 1 0.27063548950610183 38.24852097560162 0.7472423893661838 0 -1 0
1122 1 8.71790232789952 35.872463255482856 5.1225409763212975 0 0 0
472 2 0.22042128231228197 26.75933246475646 2.9205177069660913 0 0 0
471 1 2.0447130459369047 28.91615080019601 2.9812900532122972 0 0 0
505 1 0.30277622238532675 29.102836792908775 0.8472700273797797 0 0 0
760 2 3.740209274497926 26.810301106443212 3.151705551927389 0 0 0
759 1 5.299705750681663 29.069911817963433 2.952060068735326 0 0 0
152 1 -2.985807616197448 22.20025264255602 7.493008033353226 0 0 0
835 1 5.213632571223809 38.17000156378621 7.466535455637711 0 0 0
1048 1 6.8731887932645455 26.87288315711492 2.862139250958303 0 0 0
1047 2 8.69357378628802 28.983122475520915 2.8178291912370392 0 0 0
1406 1 11.961489254100098 35.90856950886426 0.8440580394795079 0 0 0
1153 2 10.551882023752302 38.2514731758953 0.9281503205835628 0 -1 0
1335 1 12.20065561962808 29.00731246841199 3.068623042161367 0 0 0
1336 1 10.315783284419329 26.789115759240598 3.1419809532999414 0 0 0
548 1 0.10649390287589933 35.833812267525836 7.499000556659717 0 0 0
259 1 -1.4711149297655242 38.24925180588817 7.76305712542231 0 0 0
508 1 0.2961596364053749 31.27087019861771 3.074668016984555 0 0 0
796 1 3.707168218199448 31.430297256944506 2.7120668881874854 0 0 0
834 1 5.3389152469101235 35.79658682441335 5.240582773392118 0 0 0
1084 1 6.863913076874392 31.36019372595313 2.9243173324929894 0 0 0
293 1 0.3442179211456615 37.94597836072251 5.463530338393709 0 -1 0
1372 1 10.461211296155614 31.139131622301672 2.8706855295941898 0 0 0
219 1 -1.2780294725257968 33.427671447874374 3.092433085194541 0 0 0
507 1 1.942214406968807 33.484733087831145 3.0638018524907853 0 0 0
581 1 3.6530685767849143 38.10032294816164 5.313768800493488 0 -1 0
795 1 5.3179349504296445 33.75373324168289 2.7920708700890278 0 0 0
1333 1 10.34208474743236 24.520770724584548 0.7795555107519002 0 0 0
1083 2 8.70331052341465 33.51133650701349 2.8924915153649002 0 0 0
1371 1 12.038562206441394 33.524773199284894 2.8831128843718012 0 0 0
255 2 -1.271291837879331 38.0924169677276 3.078570222592721 0 0 0
1411 1 12.19491633128808 38.04819200446679 7.448647813982503 0 0 0
836 1 3.836538103795461 35.75578777191257 7.5624326059763645 0 0 0
544 1 0.3968423283813278 35.83037282732772 3.0651688797946113 0 0 0
543 1 1.9631433148765316 38.24476936798922 3.1213270324246514 0 0 0
832 1 3.5860877934160875 35.88018117295664 2.8750114313401998 0 0 0
831 1 5.369497520004619 38.062911427256815 3.046450860438575 0 0 0
547 2 2.0430106069242857 37.92158129739459 7.671015589919869 0 0 0
1120 1 7.02717628170515 35.90166070201925 2.9979005927442266 0 0 0
1119 1 8.583247521647017 38.18173647650859 2.9293897349302878 0 0 0
1408 1 10.388670006714062 35.90225158023807 3.028585956076515 0 0 0
1407 1 12.261419808693386 37.99775063622516 3.12016738420027 0 0 0
546 1 2.025672157793383 35.89810028608066 5.445511688155365 0 0 0
258 1 -1.4675664000173692 35.83369386958092 5.292248186157622 0 0 0
150 1 -1.533857982129335 22.037656165513948 5.2252794435095495 0 0 0
440 1 0.23035352633010664 22.113548264383752 7.458108096383883 0 0 0
438 2 2.1957998193082062 22.11788247896732 5.4034873022623255 0 0 0
728 1 3.938963846545441 22.088048077972697 7.739652969494814 0 0 0
726 1 5.147391138153462 22.08942951625391 5.312411898190486 0 0 0
1016 2 6.819209896063961 22.069110365260592 7.536464544212919 0 0 0
1014 1 8.793448420734588 22.169204546418484 5.423175253926543 0 0 0
1302 1 12.185083675533033 22.116781851837704 5.378316757095163 0 0 0
1304 1 10.565341600898968 22.168146183996022 7.580833770069408 0 0 0
151 1 -1.4092197505143236 24.616548212098746 7.438495510827891 0 0 0
473 1 0.45740754666473293 24.42293975758077 5.134743912694272 0 0 0
439 1 2.079172410507976 24.345579379074316 7.506952922142165 0 0 0
761 1 3.6006246133560245 24.61090333471342 5.124751035182084 0 0 0
727 1 5.287786828292366 24.42961284569036 7.618034437978742 0 0 0
1049 1 6.991943151010816 24.210824090543692 5.394873371852928 0 0 0
1015 1 8.684876880648751 24.351936773774614 7.732640082847241 0 0 0
1303 1 12.14716672535167 24.484576597830973 7.5920232780588846 0 0 0
1337 1 10.486100218742074 24.416898033985177 5.333544781882045 0 0 0
186 1 -1.3893487256874304 26.75245729584256 5.1738545402075005 0 0 0
187 1 -1.298310847936986 28.908156857990836 7.3656913308720755 0 0 0
509 1 0.33760784427534274 29.111914384201896 5.1572994645652654 0 0 0
476 1 0.40417556565985047 26.717215533017416 7.419458994283762 0 0 0
474 1 1.8778474564789152 26.9074454756991 5.171904710481319 0 0 0
475 1 2.065538229629384 28.99206349174114 7.539236345904591 0 0 0
764 1 3.5292995889959693 26.769556345366578 7.349313384296451 0 0 0
762 1 5.6553863115156835 26.620851419051778 5.390051100676468 0 0 0
763 1 5.377221165092766 28.9633540451436 7.480782827715747 0 0 0
797 1 3.6864401176166934 28.885578258958738 5.177415556114794 0 0 0
1052 1 7.211586326350729 26.7221924653087 7.681277169079435 0 0 0
1051 1 8.62617826133392 29.174844398876907 7.344490770253549 0 0 0
1085 1 6.961450809523291 29.102685076411753 5.179630063309212 0 0 0
1050 1 8.571947908623109 26.671447970575375 5.325013221990179 0 0 0
1339 1 11.923729583644274 28.935994427460635 7.372915481126291 0 0 0
1340 1 10.281509832150313 26.738684597872844 7.453264300843871 0 0 0
1373 1 10.237301120349816 28.997957771490245 5.175278819733676 0 0 0
1338 1 12.18540674103129 26.673798943218035 5.2812893931525355 0 0 0
222 1 -1.4957880388334075 31.268984603332374 5.288166731405308 0 0 0
512 1 0.3169358855806039 31.203799722515843 7.427982127767065 0 0 0
510 2 2.0848156872497343 31.200837800595494 5.0533972092665715 0 0 0
800 1 3.511688184475748 31.395028513935863 7.5452352047940074 0 0 0
798 1 5.211760197331837 31.290200503760488 5.2634508160233535 0 0 0
1088 1 7.235290816301458 31.376048340924978 7.363409611348851 0 0 0
1086 1 8.748219900443978 31.3361458748699 5.056993702220063 0 0 0
1374 1 12.149523091970785 31.156572105323498 5.089449328048034 0 0 0
1376 1 10.465591561259966 31.418658132574627 7.4402854696290035 0 0 0
223 2 -1.34969059639685 33.514418585140184 7.427932492504983 0 0 0
545 1 0.45032038581172307 33.55256302978877 5.26584010030506 0 0 0
1157 1 10.285249403962919 38.11619827149875 5.218286666480369 0 -1 0
511 1 2.020605844574855 33.67292086129423 7.553201547966822 0 0 0
833 1 3.670979725687083 33.507346078820675 5.1751670781255195 0 0 0
799 2 5.387383678501279 33.45260097246103 7.41663880876894 0 0 0
1087 1 8.79923409983212 33.77034793326321 7.412793990640948 0 0 0
1121 1 7.0943693920174224 33.598587244071254 5.153911502450815 0 0 0
1409 1 10.426607806347246 33.58430272162239 5.087817128867022 0 0 0
1375 1 12.124927635317366 33.647744258067284 7.435633281592265 0 0 0
1412 1 10.408493246721012 35.92254962435368 7.407106987719315 0 0 0
1010 1 8.909517663488796 22.160900730811264 0.954440710052287 0 0 0
146 1 -1.3266852561926255 22.180904382992765 0.7807837909050787 0 0 0
541 1 0.40482651032964023 33.573211242803595 0.7665769300208367 0 0 0
1082 1 8.664686707144835 31.30394713461413 0.7489523863811421 0 0 0
218 1 -1.3644993513149823 31.330872695343757 0.8096949837759029 0 0 0
469 1 0.4220475638773009 24.42629575563595 0.7697914120365831 0 0 0
434 1 1.894805251285514 22.03751032360357 0.8924298067719353 0 0 0
1334 1 12.152962260333943 26.75741086603187 0.7258426505796697 0 0 0
1045 1 7.0474176714160945 24.518275806362293 0.815117140263641 0 0 0
758 1 5.16616330778501 26.753185322415348 0.8275442548929439 0 0 0
1046 1 8.700437620642859 26.773645201546845 0.8538240752895188 0 0 0
722 2 5.305874018732463 22.161369846333113 0.7259923054334081 0 0 0
154 1 -1.3300607098820574 22.12482461683504 9.754410689978386 0 0 0
1165 1 10.396932580596353 37.99428661975942 14.416520542695114 0 -1 0
444 1 0.48327873062718796 22.130214909450125 11.970020523053169 0 0 0
442 1 1.834425247504126 21.99425997073874 9.733620450506825 0 0 0
732 1 3.683618774251645 22.125771620304132 11.902633743968883 0 0 0
730 1 5.479072658058043 22.377326976514645 9.992703959382945 0 0 0
1020 1 7.061570084246614 22.218586329613647 12.191552047444706 0 0 0
1018 1 8.644940465627055 22.292682634139638 9.825286953497846 0 0 0
1306 2 12.260840114515137 22.185512154891043 10.018183053845851 0 0 0
1308 1 10.116398962558293 22.23227619947564 12.003957525073023 0 0 0
155 1 -1.352377348624849 24.393691530478684 11.996732363049626 0 0 0
477 1 0.36106406683347725 24.493391170041292 9.827647713147165 0 0 0
443 1 2.0405542056240495 24.421613112154667 11.987189935656186 0 0 0
765 1 3.5524636165557553 24.417738611092446 9.769410567847013 0 0 0
731 1 5.200788815948402 24.51746792696596 12.152382257552334 0 0 0
1053 2 6.92174402197969 24.72141991315026 9.855806703801498 0 0 0
1019 1 8.705405688101575 24.52855814243939 12.032764165726267 0 0 0
1307 1 12.121288435023818 24.181337827487813 12.018703012732 0 0 0
1341 1 10.543379235030397 24.518049458996952 9.818516437659923 0 0 0
190 1 -1.441206466173519 26.674664135178443 9.526492901955198 0 0 0
191 1 -1.4062406060761636 29.031510760035154 11.955980520679192 0 0 0
1419 1 12.089677110652865 38.06311745418467 16.7234281477869 0 0 0
196 1 -2.928912402367441 26.744554556072575 16.448529168026234 0 0 0
513 1 0.20095762749787882 29.079466799871415 9.752968355996954 0 0 0
480 1 0.13866656352250173 26.82018147954855 11.847114212495773 0 0 0
478 2 1.9705917924345027 26.982431712320363 9.785759958078074 0 0 0
479 1 2.083387003993118 29.044151097433183 12.031029973125253 0 0 0
768 1 3.5672390926488564 26.762477892473967 12.12694380517018 0 0 0
801 1 3.706065041799955 29.142305331412633 9.768826650963252 0 0 0
766 1 5.0194222343716435 26.768904637824317 9.641700451376424 0 0 0
767 1 5.3311634274792 28.95041624917513 12.123793858442347 0 0 0
1056 1 7.042568405737941 26.761848029281353 11.905542151157569 0 0 0
1054 1 8.869458093186562 26.83461248337777 9.869475553516354 0 0 0
1089 2 7.017193279063759 28.77393580283251 9.837863548313718 0 0 0
1055 1 8.751217929920639 28.93451484786815 11.921464532499039 0 0 0
1344 1 10.488554004389503 26.757075386991094 12.029448031496283 0 0 0
1342 1 12.050578715754714 26.784991935461033 9.743318812820167 0 0 0
1343 1 12.046815784070947 29.14588236118047 12.10142328602037 0 0 0
1377 1 10.436039310616305 28.985353793614724 9.660579440301095 0 0 0
226 1 -1.3292076250575633 31.366021520363475 9.696320391874277 0 0 0
516 1 0.3302020102380179 31.121204304631764 11.999449017918332 0 0 0
514 1 1.8981551118065996 31.510579611534535 9.74454834204659 0 0 0
804 2 3.7762398879859935 31.241133852274356 11.901410249887887 0 0 0
802 1 5.517259134563058 31.346144987375137 9.597418291913637 0 0 0
1092 1 7.0734133234438845 31.222212506698902 12.056013096690432 0 0 0
1090 1 8.848276565856615 31.07539486691467 9.687328406431611 0 0 0
1380 1 10.21487630219723 31.244005248724562 11.964903980455071 0 0 0
1378 1 12.081626515506006 31.484423546347212 9.787736826105546 0 0 0
227 1 -1.4256711643967956 33.442524654279836 11.963029547869482 0 0 0
549 1 0.11705162199209829 33.714842775492 9.857664666233866 0 0 0
515 1 2.127482149459781 33.56527494311092 12.068593175330001 0 0 0
837 1 3.7024563973681346 33.56225045941066 9.736119696197251 0 0 0
803 1 5.338999240577954 33.56116809877723 11.89118694768941 0 0 0
1125 1 7.180571467894919 33.57326015640285 9.719245083517094 0 0 0
1091 1 8.69112280215926 33.52792708318492 11.931671984509995 0 0 0
1379 1 11.969051901233694 33.50390409030695 12.128684766986408 0 0 0
1413 1 10.462646940956962 33.68239424203293 9.847711497303298 0 0 0
262 2 -1.4602619743136114 35.929690874042535 9.963659687008116 0 0 0
263 1 -1.5903059483285498 37.87374866682479 12.080593364114328 0 0 0
297 1 0.22979968374279602 38.0914894442366 9.884355975543059 0 -1 0
193 1 -3.017595788329234 24.410988249957356 14.186412119541213 0 0 0
552 1 0.4502369201793117 35.79807388740991 12.015771748048135 0 0 0
550 1 2.085487765809483 35.8077826001989 9.751386654597951 0 0 0
551 1 2.1185888380314157 38.193902965529034 12.023754938146746 0 0 0
840 1 3.598028894359877 35.77647586262735 12.014352587087604 0 0 0
838 1 5.550723642369209 35.75851899005845 9.757257235189147 0 0 0
839 2 5.306002303995924 38.08312472270246 12.215420331166516 0 0 0
585 1 3.8512702976546906 38.04406881394727 9.883636881853922 0 -1 0
1128 1 6.921328711531415 35.79011185421971 12.091300010049185 0 0 0
1127 1 8.687238645128339 38.01325690834179 12.135623589581506 0 0 0
1126 1 8.56156193423707 35.894386285160735 9.849569720838053 0 0 0
873 1 6.843686732208911 38.255841513949456 9.838245410063736 0 -1 0
1416 1 10.344148712006255 35.80924914510881 12.065973071781249 0 0 0
1414 1 12.23176483473042 35.887077445252686 9.75202732546769 0 0 0
1415 1 12.087309388490596 38.21429150891789 12.012607254692494 0 0 0
1161 1 10.500555165463151 37.96339688768683 9.719898377700703 0 -1 0
158 1 -1.3681129821302123 22.103151838772312 14.341830183621225 0 0 0
448 1 0.3758795880580603 22.130564854646344 16.500867678104388 0 0 0
446 1 1.9631400355711914 22.182431567574433 14.36214480246175 0 0 0
736 1 3.6359169744744957 22.06511976329503 16.760921331448007 0 0 0
734 1 5.086595857013463 22.190797586728305 14.363296856680034 0 0 0
1024 1 6.897795115207141 22.1552369191974 16.61292336016104 0 0 0
1022 1 8.698371768429173 22.16220867058589 14.430353683713674 0 0 0
1310 2 12.108522902270991 22.159790561027396 14.051987970032396 0 0 0
1312 1 10.482669163319859 22.188574965739107 16.613143458621373 0 0 0
159 1 -1.435185669879041 24.46308772713926 16.501611284150634 0 0 0
1132 1 7.1517570555131345 35.904470200934334 16.561477282085548 0 0 0
481 1 0.42183309187554086 24.365677665852033 14.266395157292033 0 0 0
447 1 1.973401344265886 24.367415834205637 16.691703515816855 0 0 0
769 2 3.4481561455463945 24.656496783502686 14.395287836235669 0 0 0
735 2 5.158255031739862 24.458252315308012 16.404758364150915 0 0 0
1057 1 7.0730266238296275 24.377488153749322 14.489603377473452 0 0 0
1023 1 8.819320507453543 24.305535532330552 16.63894045545546 0 0 0
1311 2 12.123925002161592 24.545783160915576 16.57669819309855 0 0 0
1345 1 10.51072739383956 24.475012575141584 14.224214662267414 0 0 0
194 1 -1.191265170652098 26.60005272324556 14.271994139719828 0 0 0
195 1 -1.2650443774253313 28.962751448722692 16.479217495243212 0 0 0
484 2 0.3318843598323151 26.62681406507273 16.71867956553792 0 0 0
517 2 0.27299746051714235 29.166318839553124 14.120390500790878 0 0 0
482 1 1.7655689579933433 26.869693482874005 14.267391032978132 0 0 0
483 1 1.9078926785954078 29.05208552309472 16.56150681260091 0 0 0
772 1 3.455916866440499 26.688533838228867 16.428153024823708 0 0 0
770 1 5.470440138307809 26.666771047608524 14.321390675347734 0 0 0
771 2 5.294955056140677 28.82555629928623 16.631279357374428 0 0 0
805 1 3.5248894250751057 28.853366281234337 14.274296171505881 0 0 0
1060 1 7.118964427189515 26.578375030666137 16.581711333843 0 0 0
1058 2 8.782261333091398 26.58702129274822 14.209313306413693 0 0 0
1059 1 8.658302171193995 29.003553952124097 16.61513682263159 0 0 0
1093 1 7.222325260717134 28.92977629294554 14.31221952675718 0 0 0
1348 1 10.277186098859666 26.71174692734262 16.519667563234677 0 0 0
1381 1 10.425914800243905 28.80084324909488 14.345482712709703 0 0 0
1347 1 12.212429416344456 28.978489633537 16.623569254697955 0 0 0
1346 1 12.210558313144155 26.709866275748865 14.365414344949606 0 0 0
877 1 7.0679631591574354 38.14031085976105 14.416320439051717 0 -1 0
230 1 -1.5651369026330604 31.386439373330102 14.172482448126756 0 0 0
520 1 0.2818905574544943 31.28376703137226 16.440239971960835 0 0 0
518 1 2.177986562704354 31.22668412461572 14.261897100477828 0 0 0
808 1 3.793637440131673 31.35688016615792 16.548355575302367 0 0 0
806 1 5.254924997727579 31.162594078185677 14.108823301107472 0 0 0
1096 1 6.846171455763483 31.19110928533247 16.49721602777664 0 0 0
1094 1 8.769043054896702 31.152965444586542 14.452714094506014 0 0 0
1382 2 12.073798288440187 31.215322349831826 14.185944788208246 0 0 0
1384 1 10.535032211194185 31.220306664577304 16.653943933267662 0 0 0
156 2 -3.005812051902152 22.08629342321153 12.02538318076667 0 0 0
231 1 -1.4216599180500193 33.54986477990711 16.373233347588055 0 0 0
553 1 0.5370448658036024 33.54006080818652 14.182289016677062 0 0 0
519 1 1.969444808549711 33.64277895773547 16.578531368979974 0 0 0
841 1 3.8221976428589794 33.48780803970564 14.246072040756053 0 0 0
807 1 5.405583428798724 33.58356251081701 16.600244023076268 0 0 0
1129 1 6.999982347749916 33.47973721772007 14.179418378854583 0 0 0
1095 1 8.617249479422274 33.42667812133867 16.588241713558393 0 0 0
1383 1 12.223439300368248 33.536501877482266 16.48017317955651 0 0 0
1417 1 10.407576245873454 33.523017553589725 14.33246462579174 0 0 0
267 1 -1.3662043045397796 38.046217092546115 16.523200147161074 0 0 0
266 2 -1.4676536175433046 35.678398202914046 14.126370426881431 0 0 0
301 1 0.2631363312942794 38.00076906729371 14.149449469039686 0 -1 0
1418 1 12.088783756774642 35.85329662000224 14.21470603059691 0 0 0
1420 2 10.552603411765688 35.68028679179012 16.39084654535371 0 0 0
556 1 0.17817955320406265 35.83669659599804 16.397042137863572 0 0 0
555 2 1.927221156563884 37.976957347602145 16.571628959112925 0 0 0
554 1 2.001673005781284 35.8708012434388 14.10736479711979 0 0 0
844 1 3.6999361325671556 35.80462431261936 16.42099801788887 0 0 0
842 1 5.351950506602786 35.97384822120763 14.259496438509773 0 0 0
843 1 5.3205176837556385 38.07415835126385 16.599544135136398 0 0 0
589 1 3.560151213064791 38.09232196516288 14.360364999485773 0 -1 0
1130 1 8.713529610897012 35.81162636929115 14.296010066923921 0 0 0
1131 1 8.75816641331107 38.02424989547055 16.71217811339458 0 0 0
261 1 -3.0574746976726 33.47223501002355 9.688565566683794 0 0 0
192 1 -2.950405277161609 26.561357512108756 11.902989264098174 0 0 0
189 1 -3.04181025681031 24.39462309686064 9.697448135103864 0 0 0
232 1 -2.8958231815070574 31.247558293330705 16.57543843949439 0 0 0
160 1 -3.057654375757769 22.03895713329114 16.60485056125279 0 0 0
13 1 -3.0601702685637218 38.079432500035274 14.390658305076062 0 -1 0
229 1 -2.840423269630028 28.91253340858379 14.221914109231957 0 0 0
225 2 -2.8659061958648238 29.004743742279988 9.680735166015802 0 0 0
162 1 -1.2921846092788054 22.124392819553332 18.83278125978943 0 0 0
450 1 1.766994860512976 22.057164266728897 18.75247009951129 0 0 0
452 1 0.39459325402950185 22.011329096417356 21.21018479470817 0 0 0
738 1 5.33058780297283 21.9882352318019 18.80749485238297 0 0 0
740 1 3.569116716383398 22.160548059746667 21.23320106187652 0 0 0
1026 1 8.82676051666428 22.324049671063108 18.865483876209996 0 0 0
1028 1 7.012676789675999 22.24263730571062 21.138661869662947 0 0 0
1314 1 12.155283809944308 22.172742105014255 18.811458273775344 0 0 0
1316 1 10.551661247292262 22.165495392909996 21.12522832666529 0 0 0
485 1 0.250320507655414 24.404732810885303 18.864417635121978 0 0 0
451 1 1.8845548954564766 24.407683923066173 21.235908606362045 0 0 0
773 1 3.716873927616681 24.21648599605377 18.963770184224106 0 0 0
1061 1 6.958927537284274 24.500414126325477 18.683499687153525 0 0 0
1349 1 10.587212119142084 24.39547935166345 18.822454284694707 0 0 0
1315 1 12.235401994038714 24.48645931033187 20.94499710227984 0 0 0
198 1 -1.6143548383211666 26.596493793117986 18.831219871841164 0 0 0
1173 1 10.352688508339927 38.083522171335666 23.326561377372283 0 -1 0
486 1 2.1665684135532395 26.613264060965765 19.01240844108689 0 0 0
521 1 0.2857295776368307 28.950853908199196 18.789602944107447 0 0 0
488 1 0.13326357982154313 26.608338550857006 20.95983119210486 0 0 0
809 1 3.5165481082333327 28.92796507773271 18.698421768888103 0 0 0
774 1 5.2371429344960125 26.717716755752477 18.670018447621995 0 0 0
1097 1 7.072341092866581 28.898105983389964 18.748690038765087 0 0 0
1062 1 8.838184106165606 26.778486632789814 18.801375778357432 0 0 0
1385 1 10.464880732662916 28.997188848695995 18.73779100249143 0 0 0
1350 1 12.1290670173485 26.738402293552856 18.626203634945124 0 0 0
1351 1 12.070790912111555 28.99125516010818 20.871947783448064 0 0 0
234 1 -1.1211691441358762 31.236245250253877 18.77394106269099 0 0 0
522 1 1.9393818462831245 31.332117160380033 18.770025172093614 0 0 0
810 1 5.502689233142326 31.15969176454406 18.8434133034757 0 0 0
1098 2 8.658228369343309 31.189811927357866 18.660153886691866 0 0 0
1386 1 12.195707685144047 31.384746758295968 18.8757742500318 0 0 0
557 1 0.3140151338003463 33.622540765344766 18.785669462187002 0 0 0
523 1 2.031564509294766 33.36347182102182 21.123658231594874 0 0 0
845 1 3.5276223997462797 33.511220657037285 18.809997125072343 0 0 0
1133 1 7.106558032280371 33.59847248078508 19.07425895387292 0 0 0
1421 1 10.308906285433185 33.45329383690911 18.731366129222277 0 0 0
1387 1 12.167543966674238 33.57074488543286 21.081846227593413 0 0 0
270 1 -1.4953051921037688 35.86631859224485 19.063141560031116 0 0 0
271 1 -1.4929526737106313 38.01220452564266 21.118005920512317 0 0 0
305 1 0.17356032425568158 38.107447240408014 18.842110032205692 0 -1 0
558 1 2.014785460965956 35.95837297262772 18.631456916746963 0 0 0
560 1 0.37148718293467065 35.73091456015202 21.161192752553013 0 0 0
593 1 3.6539930831815983 38.161561448803376 18.815588386881892 0 -1 0
846 1 5.185340285107508 35.86167412968312 18.819697177759373 0 0 0
1134 1 8.8735945363117 35.688539229653706 18.72739430238814 0 0 0
881 1 7.030317104644841 38.03860350863211 18.79624162189042 0 -1 0
1135 1 8.534347844741454 38.214339351700225 21.210684061441913 0 0 0
1169 1 10.34465553570957 38.16029871775034 18.84826951619941 0 -1 0
1422 1 11.949372780226852 35.83645097620526 18.81777340174028 0 0 0
1423 1 12.098314747098922 38.21772459711708 21.029683999121573 0 0 0
166 1 -1.4810177583772335 22.2327987528054 23.33855533014057 0 0 0
269 2 -2.955417514826076 33.47218811601685 18.791629589855184 0 0 0
454 2 2.1010999960030734 22.08816869033464 23.539721186509254 0 0 0
742 1 5.280575825351613 22.332178250774227 23.44647744737795 0 0 0
1030 1 8.877184343478252 22.35209547604174 23.33877561739388 0 0 0
1318 2 12.098344702211154 22.333543277930985 23.383844749879106 0 0 0
163 1 -1.305578391925747 24.282633545378914 21.164663748633004 0 0 0
885 1 6.855670530605992 38.08697306574368 23.354361444080855 0 -1 0
489 1 0.3986009654140026 24.2915897809547 23.488967332173182 0 0 0
739 1 5.313949269128279 24.455152789013386 21.09207245960463 0 0 0
777 1 3.72147968904791 24.51061984099502 23.42864411221652 0 0 0
1027 1 8.789427736870504 24.446049349970973 21.04741766860525 0 0 0
1065 1 7.28281551529956 24.479429893387696 23.25421927935166 0 0 0
1353 1 10.509727573256669 24.516514610494653 23.487729894885707 0 0 0
199 1 -1.4155621099445446 28.911622310799437 21.09609220237009 0 0 0
202 1 -1.2677819458568753 26.49260564339188 23.315774008310022 0 0 0
1426 1 12.160452464205857 35.77584785547061 23.36723834067134 0 0 0
1136 1 7.0899661307573 35.780521459109124 21.04793507149308 0 0 0
487 1 1.9189841203285427 28.861879538346173 21.10878333988118 0 0 0
490 1 1.9791163253043118 26.665719999606686 23.234391300556116 0 0 0
525 2 0.21588316623520631 28.855659555645488 23.319835350589386 0 0 0
775 1 5.370787764293458 28.91188091106678 20.94194278797363 0 0 0
776 2 3.7602684475487953 26.691257083189615 21.259341562150066 0 0 0
778 1 5.521957511465227 26.547926673400845 23.45636084991874 0 0 0
813 1 3.711975229304837 28.86728518206252 23.24733137313085 0 0 0
1064 1 7.063759054945883 26.742172387125407 21.03125107789596 0 0 0
1063 1 8.74334452842724 28.847509059511232 21.112640860695375 0 0 0
1101 1 6.947580277405737 28.94759152350482 23.300518849795296 0 0 0
1066 1 8.81926362256127 26.753229858421868 23.307576128252805 0 0 0
1352 1 10.42916410317121 26.587809741632483 20.973753098676493 0 0 0
1354 1 12.103495884965309 26.735050036289014 23.477534226758642 0 0 0
1389 2 10.506520627911527 29.041667223107687 23.236173860574937 0 0 0
238 1 -1.5228922899960624 31.353993711441344 23.224437489553655 0 0 0
1424 1 10.450215173254318 35.96200108848311 21.11587538244998 0 0 0
524 1 0.37387832268155075 31.173942026915483 21.167945603054594 0 0 0
526 1 1.8833094072796355 31.195141131028052 23.37678369833851 0 0 0
812 1 3.6463206506165253 30.962068679113592 21.055856214608163 0 0 0
814 1 5.35639000385754 31.25729419032862 23.339102414384204 0 0 0
1100 1 7.203044985781916 31.312557944965764 21.08850615274477 0 0 0
1102 1 8.823916908815374 31.20952880237135 23.321293520032224 0 0 0
1388 1 10.301985448705217 31.276217452872558 20.998511701309393 0 0 0
1390 1 12.101574245685072 31.214676184762972 23.213020031700953 0 0 0
235 1 -1.2625535085586388 33.49142439930573 21.10469249822535 0 0 0
561 1 0.3008892701100745 33.499123027764405 23.322943092075505 0 0 0
811 1 5.170272667516408 33.50205786323343 21.049437396272452 0 0 0
849 1 3.624445377032342 33.47806769551053 23.414643356466023 0 0 0
1099 1 8.864960080376651 33.56297775085608 21.19243829209243 0 0 0
1137 1 6.859469637001788 33.666821831838845 23.269827539731303 0 0 0
1425 1 10.562801190239089 33.500137717695424 23.31605619000187 0 0 0
274 1 -1.2360866473677221 35.76405619647841 23.388037572538536 0 0 0
559 1 1.9896254251480894 38.10831636184387 21.036737931518775 0 0 0
309 2 0.28007194373841227 38.062067242824476 23.277737105650367 0 -1 0
562 1 1.9922632936272606 35.7462958534034 23.291835131922895 0 0 0
597 1 3.719386489027923 38.05708803404951 23.296813230174383 0 -1 0
848 2 3.4911310407149623 35.80146192062017 20.895054828817596 0 0 0
847 1 5.309302110076826 38.19023901963635 21.020815302589536 0 0 0
850 1 5.184056095272225 35.752417716813824 23.119672586155104 0 0 0
1138 2 8.739010223648656 35.77592328701363 23.39702383478371 0 0 0
200 1 -3.000445857342655 26.460451869351164 21.178047980155277 0 0 0
164 1 -2.996519680366717 22.104412081760827 21.082785438328838 0 0 0
237 1 -3.0427583257832413 28.971709068184655 23.331819440957663 0 0 0
236 1 -3.035012240691941 31.17407987520708 20.936037497842655 0 0 0
170 1 -1.1756755949297684 21.93917757175947 27.966579784852993 0 0 0
456 1 0.18565343889645902 22.259812598658698 25.654611835539388 0 0 0
458 2 2.0847898584614386 22.309623258204315 27.850193826086993 0 0 0
744 1 3.892733398811167 22.07207765498027 25.808733500588293 0 0 0
746 1 5.4044103024372125 22.126473434747325 28.13737627068014 0 0 0
1032 1 7.101529313347863 22.408889779011428 25.6093996252235 0 0 0
1034 1 8.705198287464864 22.10235485403888 27.8097265847247 0 0 0
1320 1 10.543910681535515 22.10147862742084 25.645130926619167 0 0 0
1322 1 11.986495796273026 22.233473438917017 27.911179331081655 0 0 0
167 2 -1.4525835100476847 24.387902359931516 25.450868765599687 0 0 0
493 1 0.21928340184415562 24.40099684214586 27.754471603244262 0 0 0
455 1 2.17591536094018 24.501962662280228 25.754032538605422 0 0 0
781 1 3.8698488379678153 24.43831405124639 27.975149309485765 0 0 0
743 2 5.4186385858706485 24.647619882918814 25.67951781505753 0 0 0
1069 1 7.1837295350272585 24.46656223480731 27.8357173216189 0 0 0
1031 1 8.71846534097509 24.42605200572472 25.540209623040255 0 0 0
1319 1 12.237341748626534 24.458002978839936 25.77445046109884 0 0 0
1357 1 10.257318205162221 24.403986414726038 27.85367161967418 0 0 0
206 1 -1.4915539705166296 26.641641419788417 27.648704140474106 0 0 0
203 1 -1.3136870954294466 28.788955125383175 25.626452137425286 0 0 0
529 1 0.388897604063418 28.893000160651383 27.72057248196467 0 0 0
1432 1 10.24883461076493 35.795105325602414 30.2461220118208 0 0 0
1431 1 12.127336165074954 37.944516201465646 30.193559939800025 0 0 0
492 1 0.4550637047935342 26.636904870757046 25.559988554911154 0 0 0
494 2 2.0881618472800545 26.575939880435023 27.872389447260407 0 0 0
491 1 1.871616910893879 28.997576278442995 25.47381607083862 0 0 0
780 1 3.6223837739301956 26.781337308070007 25.572395869733832 0 0 0
817 1 3.7514731464562443 29.10769932503874 27.67947337363964 0 0 0
782 1 5.420109408694205 26.69876724638556 27.73678677899495 0 0 0
779 1 5.457327932856683 29.091073298051978 25.528514744644237 0 0 0
1068 1 7.181463749610825 26.786722946007274 25.632856735547648 0 0 0
1105 1 6.8831615506349175 29.053237869905864 27.86175784589896 0 0 0
1070 1 8.751700010885262 26.91801436740948 27.915265816372848 0 0 0
1067 1 8.838049811603494 28.94312404253034 25.64246976732146 0 0 0
1355 1 12.110211829538425 28.985372788605197 25.723100568962007 0 0 0
1356 1 10.358168539065243 26.728911999279873 25.616082350636585 0 0 0
1358 1 12.16870715501365 26.749755555170204 27.87696468205484 0 0 0
1393 1 10.474329603307961 29.16585255858646 27.973928245070763 0 0 0
242 1 -1.1789022978115133 31.261150038392866 27.736966790354234 0 0 0
528 1 0.16386822775805454 31.142980706435726 25.482178767915105 0 0 0
530 1 2.028674982530349 31.363598325577765 27.79215967460791 0 0 0
816 2 3.724537550338625 31.233381577660257 25.570119804491807 0 0 0
818 1 5.408409875247274 31.378955726838893 27.776001668520866 0 0 0
1104 1 7.183009341373622 31.382243438964995 25.51059864051103 0 0 0
1106 1 8.677498366715312 31.24693126832605 27.78126785153459 0 0 0
1392 1 10.292466894130008 31.3102894598275 25.519071303345292 0 0 0
1394 1 12.094967902237798 31.440225538013557 27.852138109886944 0 0 0
239 1 -1.5066442551597055 33.391059563277295 25.444099093830033 0 0 0
565 1 0.24478705396000677 33.633941571807014 27.802644031236156 0 0 0
527 1 2.0732875033826064 33.43727756003139 25.51135049301307 0 0 0
853 1 3.6012186523770255 33.48638401273188 27.871770922859106 0 0 0
815 1 5.30283288399177 33.56346187805019 25.579497432928928 0 0 0
1141 1 7.074660764912433 33.6681279885824 27.905549272018526 0 0 0
1103 1 8.65862565268872 33.62340285410242 25.547757284298825 0 0 0
1391 1 12.160991259549583 33.56581594547828 25.56696576985116 0 0 0
1429 2 10.332689044402922 33.67144522885566 27.74952700895235 0 0 0
275 1 -1.3160882306218602 38.032142430539565 25.529290687236543 0 0 0
278 1 -1.4105781438774776 35.80164256211952 27.853717699124182 0 0 0
1181 1 10.315575136624755 38.02260056409499 32.20699579306611 0 -1 0
564 2 0.31511898822249496 35.616277726487404 25.66876553376397 0 0 0
313 1 0.30268752442195135 38.01071300573544 27.719416087793928 0 -1 0
563 1 1.92800141156195 37.98895562880653 25.58717304507149 0 0 0
566 1 2.020982663819873 35.74205141955022 27.829753714012078 0 0 0
852 1 3.5137236145909494 35.83352430183826 25.581474648756902 0 0 0
601 1 3.507694920615677 38.10889665174059 27.767718825975066 0 -1 0
851 1 5.280907969580778 37.97830030599309 25.736418610777633 0 0 0
854 1 5.2722215968448 35.911828648981604 27.848632016957254 0 0 0
889 1 6.978057725308164 38.09154449355921 27.812146077925565 0 -1 0
1140 1 6.94321545732256 35.90956088926808 25.479783232869387 0 0 0
1139 1 8.628748001400375 38.044333004071056 25.557689082896808 0 0 0
1142 1 8.663078514639917 35.86404542349834 27.836464853179447 0 0 0
1428 1 10.477505376712163 35.86505124375824 25.473676387257218 0 0 0
1177 1 10.593382090317217 38.07578666444964 27.91692530545989 0 -1 0
1427 1 12.188508403383054 38.15189972250436 25.45082157317258 0 0 0
1430 1 12.099158344870357 35.81071656943426 28.07451918469212 0 0 0
174 1 -1.387676687435173 22.23795909067467 32.27999966620659 0 0 0
460 1 0.39910926099828004 22.05662601815466 30.141385550231863 0 0 0
462 1 2.1262278585350227 22.131377952318623 32.392733282882716 0 0 0
748 1 3.7336969602555774 22.234119645487343 30.097408845951126 0 0 0
750 1 5.3386616390803825 22.26181121322266 32.305098075883095 0 0 0
1036 1 7.275970215887896 22.008447683004338 30.20441324441921 0 0 0
1038 2 8.710386142770894 22.255033403555675 32.467087771946694 0 0 0
1324 1 10.337351804062113 22.206680718379697 30.191862287215887 0 0 0
1326 1 12.011971098680224 22.510711189840293 32.38691263801044 0 0 0
171 1 -1.3675836462709474 24.3296615197323 30.145944231641312 0 0 0
1434 1 12.205349192837964 35.77462697440224 32.26186039492161 0 0 0
497 1 0.3621563627186406 24.367533151788926 32.2940130026105 0 0 0
459 1 1.9086631488041492 24.423679969105674 30.074532387416884 0 0 0
785 1 3.6482973845589157 24.58720724326958 32.34552338561488 0 0 0
747 2 5.504662419372123 24.351157878681963 30.185979906983786 0 0 0
1073 1 6.950687231198882 24.61651046853029 32.465837295277424 0 0 0
1035 1 8.549014528632014 24.521303265945342 30.18971674475071 0 0 0
1323 1 11.847424481779012 24.490264259324537 30.10155363373143 0 0 0
1361 1 10.307979817129045 24.600159881451827 32.343264131066675 0 0 0
210 1 -1.2010476978113047 26.625948649290272 32.439860072932234 0 0 0
207 1 -1.2755997863044768 29.088689578756185 29.913601094682956 0 0 0
496 1 0.09272672092918421 26.7040498625832 29.846484247672766 0 0 0
533 2 0.45005127735115513 29.077629351615023 32.39150883244439 0 0 0
498 1 1.9564029235745979 26.659668751293196 32.416804725138384 0 0 0
495 1 2.006455792875058 28.879442297072064 29.81960749800885 0 0 0
784 1 3.7641515187243186 26.63072287188384 30.084046142205974 0 0 0
821 1 3.3663020004083277 29.05146585346383 32.402565396571816 0 0 0
786 2 5.279711960474438 26.89241054789253 32.40588974667152 0 0 0
783 1 5.124794043456691 28.946230251005336 30.256090760839733 0 0 0
1072 1 6.996705541496538 26.815502470836563 30.138232467972284 0 0 0
1074 1 8.63147540540368 26.884872392849076 32.45651726131031 0 0 0
1071 1 8.522295701954938 29.042851357113662 30.117857257848414 0 0 0
1109 1 6.936126327083783 29.285222175613047 32.42454453112792 0 0 0
1360 2 10.285472251896739 26.858839515335568 30.150964259193966 0 0 0
1362 1 12.036180610665955 26.76704280646264 32.44168633649356 0 0 0
1359 1 12.317746165460012 28.710576739214567 30.19897634708984 0 0 0
1397 1 10.478089549626894 29.04112007960829 32.26332665067747 0 0 0
246 1 -1.3313391214384207 31.39226944252755 32.29264522348305 0 0 0
532 1 0.4966343549770853 31.221080236054945 30.18882222497705 0 0 0
534 1 1.9925125830245731 31.467581670067247 32.519513486352 0 0 0
820 2 3.5610406835094874 31.249884544638835 30.02430761676507 0 0 0
822 1 5.170564112005322 31.355609457436167 32.44020184714414 0 0 0
1108 1 6.919322806818754 31.38576518452652 30.097788928529905 0 0 0
1110 1 8.81384098742857 31.428883931440318 32.29282037740434 0 0 0
1396 2 10.476858519818794 31.098372693761135 30.16230086100227 0 0 0
1398 1 11.866854165098463 31.54334832389973 32.40931918283954 0 0 0
1143 1 8.555553273537143 38.01603662922071 29.94125746329811 0 0 0
243 2 -1.2816902519340412 33.579002799139886 30.15274564340517 0 0 0
569 1 0.37149167745812406 33.51691458827783 32.408894431233094 0 0 0
531 1 1.9350279106509278 33.629465345436586 30.089062497819803 0 0 0
857 1 3.6470882801576296 33.706143753111874 32.34645335476252 0 0 0
819 1 5.18009610249531 33.71385521536229 30.040921946563067 0 0 0
1145 1 7.0752287155657045 33.548912402224 32.0916783374525 0 0 0
1107 1 8.835036647919804 33.48443978451592 29.981832083209532 0 0 0
1395 1 11.903838386056947 33.562011528751 30.13068774561369 0 0 0
1433 2 10.266431716452875 33.81522166864848 32.36757792204634 0 0 0
282 1 -1.3528375164434454 35.83242886306109 32.22841254997374 0 0 0
279 1 -1.3830853652394883 38.0762781070287 30.119491902303803 0 0 0
568 1 0.2654518992884096 35.828442668255036 30.078748003446396 0 0 0
317 2 0.22099417860473558 38.12135639338298 32.353695731881544 0 -1 0
570 1 1.9485147831162815 35.95283144979488 32.301071101453736 0 0 0
567 1 1.8730489197546234 38.12877055790911 30.17830432873558 0 0 0
856 1 3.5998426121207787 35.947834645809095 30.208093938460976 0 0 0
855 1 5.374929282248504 38.03819389929586 30.139714337136475 0 0 0
858 1 5.442204411706007 35.87386386476449 32.3555226562256 0 0 0
605 1 3.6825811251897154 38.120830120969465 32.193437650671655 0 -1 0
893 2 7.096779378832735 38.273748043086414 32.23145548396231 0 -1 0
1144 2 7.162455914861472 35.68060176007334 30.079079721943586 0 0 0
1146 1 8.463484063633839 35.89809277470547 32.46211143912268 0 0 0
277 1 -3.004238028161533 33.46777364433905 27.819082821179048 0 0 0
168 1 -2.997193408872611 22.081813013652255 25.72056960726867 0 0 0
208 1 -3.060501851031814 26.705472312138525 30.102480510318973 0 0 0
280 1 -3.056256911540013 35.82247936211052 30.135918499950673 0 0 0
205 1 -2.9613584579275343 24.353694018636357 27.824166603038435 0 0 0
281 1 -2.963007943880241 33.56427626493795 32.47072112241639 0 0 0
244 1 -2.831269655583267 31.331106523930202 29.944810701177538 0 0 0
245 1 -2.902671837653562 28.902697524789023 32.23645297505598 0 0 0
204 1 -3.0078244404599443 26.718764408573566 25.531795569417355 0 0 0
29 1 -3.012571502332719 37.9443513504056 32.45947576087715 0 -1 0
276 1 -3.0067284339514675 35.73691200583651 25.596576604793253 0 0 0
25 1 -2.9493788474297062 38.128768947510196 27.841765138512805 0 -1 0
178 1 -1.2864985538174125 22.23038655426252 36.83882140780109 0 0 0
464 1 0.5107436949007571 22.171290862746933 34.65191197467307 0 0 0
466 1 1.9025575296142287 22.189421073999405 37.02199384331631 0 0 0
752 1 3.7290600883198524 22.140237246183606 34.695196094644544 0 0 0
754 2 5.329372452934709 22.075764842360723 37.05928748004507 0 0 0
1040 1 6.891892176899204 22.079404628044962 34.7642911242812 0 0 0
1042 1 8.84234755102969 22.229009665265902 36.97117399933164 0 0 0
1328 1 10.581455785925222 22.15643748346722 34.74380764882463 0 0 0
1330 1 12.097590737654716 22.177800887648296 37.03372846836568 0 0 0
175 1 -1.3453190078245092 24.413805387639552 34.530908684645325 0 0 0
285 1 -3.0016645422201353 33.60303267385284 37.04006140032422 0 0 0
501 1 0.34873978783906834 24.510836022997406 36.77370844094192 0 0 0
463 1 2.1580583585201314 24.526850031515888 34.52255827282538 0 0 0
789 1 3.652875561590278 24.38144142426344 36.920791075838665 0 0 0
751 1 5.267220994028505 24.472963662155994 34.69541657485402 0 0 0
1077 1 7.164998123894303 24.473556082699837 36.892588777222 0 0 0
1039 1 8.779187071287257 24.407835304681306 34.54204738590204 0 0 0
1327 2 12.015647773991969 24.544046934917223 34.589308919736084 0 0 0
1365 1 10.404740239654537 24.541523770306302 36.89912552255667 0 0 0
214 1 -1.526222357431714 26.621013926007905 36.70590825863174 0 0 0
211 1 -1.3760519603841732 28.986970895035633 34.60434303995504 0 0 0
1439 1 12.127514086823812 38.17709732662826 39.192442181440214 0 0 0
537 1 0.11606095513277959 28.847103542499493 36.98538530786227 0 0 0
500 1 0.3644042042716773 26.681141267742074 34.748112976338476 0 0 0
502 1 2.0263398782424904 26.869677787428692 36.975233072992296 0 0 0
499 1 1.9192064467608212 29.03104641685525 34.746099911881515 0 0 0
788 1 3.611713767938504 26.81120459582236 34.62087466479338 0 0 0
825 1 3.779863948357689 29.06866324679194 36.96471083780794 0 0 0
790 1 5.411777341872473 26.606346295843977 36.98771494134073 0 0 0
787 1 5.346877814528098 29.066467763253318 34.70468519294431 0 0 0
1076 1 6.954001451844397 26.682162148994873 34.71603376133844 0 0 0
1078 2 8.702725478533669 26.75312154208679 36.92360586194104 0 0 0
1075 1 8.705497708142754 29.113696339639805 34.652387079624816 0 0 0
1113 1 7.086916370343553 29.000029623753754 36.97292299325588 0 0 0
1364 1 10.190493275478811 26.7254202888769 34.68300540188072 0 0 0
1366 1 11.978474940390928 26.669124673659997 36.878033613372125 0 0 0
1363 1 11.766847381401007 28.946078119889684 34.57043949878138 0 0 0
1401 1 10.295970922195202 29.057537494254653 37.022864489136154 0 0 0
250 1 -1.4459180330770949 31.44354386158033 37.06046923571864 0 0 0
536 1 0.15285003675479114 31.23741453779121 34.613933635420835 0 0 0
538 1 1.840012274050804 31.248651051512375 36.88132818960416 0 0 0
824 1 3.7064449026718824 31.333400820977456 34.822319601998586 0 0 0
826 2 5.358192916909766 31.383630382547697 37.08744961298453 0 0 0
1112 1 6.831586262718827 31.24063213575821 34.63607594341302 0 0 0
1114 1 8.625538470413339 31.37901542905278 36.81856796710008 0 0 0
1400 1 10.240175092429904 31.4046889063354 34.59767352980457 0 0 0
1402 1 11.815766483086168 31.391202747187346 36.9578210207098 0 0 0
247 1 -1.4236763296504478 33.57225690150064 34.67353073097844 0 0 0
573 1 0.1227085408326829 33.63749222923755 36.93824976826983 0 0 0
1440 1 10.409523823484811 35.9654770331672 39.10067923996678 0 0 0
535 1 1.8201162214235582 33.46507575150508 34.70586780272315 0 0 0
861 1 3.4827659296265105 33.41074538171234 36.93153523663206 0 0 0
823 1 5.356343192674381 33.47705834762402 34.65218364490883 0 0 0
1149 1 6.950832072361988 33.72235337869775 36.90059379592415 0 0 0
1111 1 8.483733218465911 33.687595747071526 34.6194154783757 0 0 0
1437 1 10.264882730716899 33.69589194186528 36.77245060501342 0 0 0
1399 1 12.01361812863044 33.5911615217608 34.59167021235561 0 0 0
283 1 -1.3838108785291 38.03707879451225 34.67696944780688 0 0 0
286 2 -1.4064926277791645 36.022098022265915 36.74170589446538 0 0 0
572 1 0.343898482798656 35.89152685400756 34.540182963710905 0 0 0
321 1 0.4873222104469046 38.098421840413984 36.855877867399755 0 -1 0
571 1 2.1076127845925807 38.1267795895627 34.44652530724406 0 0 0
574 1 1.9229681853190401 35.77292306040921 36.82903711562723 0 0 0
609 1 3.7470308228546347 38.10918314466403 36.8694409376441 0 -1 0
860 1 3.62472291340476 35.76738049081968 34.53615867996831 0 0 0
859 1 5.314150196514599 38.06368799751167 34.4055146305937 0 0 0
862 1 5.087592679529462 35.73529803673684 36.90851861778734 0 0 0
1148 2 6.985722556075255 35.88128095067059 34.8382288270472 0 0 0
1147 1 8.777988666215677 38.01871615589952 34.534018178266905 0 0 0
1150 1 8.692120438547121 35.946519413571096 36.95948516059269 0 0 0
897 1 6.911689300349498 37.99116911902125 36.967327386466266 0 -1 0
1436 1 10.413117773956767 35.74310539766609 34.60021563112366 0 0 0
1435 1 12.017882471949225 38.04063885101326 34.514822539543104 0 0 0
1438 1 12.15517204903733 35.881894385935574 36.764666907928245 0 0 0
1185 1 10.316109412132416 38.128769741902296 36.935503359036204 0 -1 0
468 2 0.2333988012592383 22.165084994996906 39.18479511073909 0 0 0
756 1 3.4286096354569677 22.22355898716432 39.31375323329432 0 0 0
1044 1 7.24776972183517 22.136484828779967 39.28560236496844 0 0 0
1332 2 10.518679601199835 22.063098705820632 39.29475910463985 0 0 0
1405 1 10.214236554930956 33.580043296136765 41.35469723944543 0 0 -1
179 1 -1.4540215184929504 24.477405128329675 39.17963533948469 0 0 0
467 1 1.9487475203891966 24.35997131198239 39.20537841933427 0 0 0
755 1 5.378551941792778 24.39282071426704 39.14155131285632 0 0 0
1043 1 8.794213070458834 24.434596276131607 39.250700529190425 0 0 0
542 1 1.9102494416396327 35.88518677893063 41.42909623156369 0 0 -1
1331 1 12.010280863987742 24.448893109200334 39.14720457258446 0 0 0
865 1 6.84302982128196 38.12877263248074 41.36104845379657 0 -1 -1
215 1 -1.4205775714688487 28.922517244248972 39.21653318430499 0 0 0
504 1 0.3191370673859639 26.828121825419615 39.14094739371984 0 0 0
503 1 1.9761944345157039 29.025685430045826 39.01757481741659 0 0 0
792 1 3.719798726972498 26.738624774134507 39.14350188009429 0 0 0
791 1 5.335853940332611 29.01992605757657 39.105093596948166 0 0 0
1080 1 6.8717898261997705 26.650110554931175 39.20023681443658 0 0 0
1079 1 8.725589031702192 29.025784489804238 39.192342870606794 0 0 0
1368 1 10.379533018419824 26.74051304550864 39.263966221307086 0 0 0
1367 1 12.114603634015516 28.975415309797256 39.150194431795654 0 0 0
249 2 -3.034179697485762 29.10884313852629 36.851021098939924 0 0 0
1117 1 7.139017265970188 33.86361375516195 41.36251744674003 0 0 -1
794 1 5.508488650816601 31.392243425767873 41.140234893548296 0 0 -1
540 1 0.1349733703272964 31.292082844486146 39.08759232951978 0 0 0
828 1 3.6362090631261674 31.24383484606297 39.10044796434765 0 0 0
1116 2 7.044834511737432 31.26105094325724 39.025563733767854 0 0 0
1152 2 7.035331612474709 35.95748946880033 39.17389098517887 0 0 0
1404 1 10.0335525800907 31.341145916034034 39.239964286709196 0 0 0
251 2 -1.3702948889668147 33.47415647707531 39.28186406838471 0 0 0
539 1 1.8461222437885807 33.55189606462612 39.01028535066753 0 0 0
827 1 5.3840310604862855 33.59665884870685 39.11141926266883 0 0 0
1118 1 8.849026306522703 35.976456144505065 41.35716714734981 0 0 -1
1115 1 8.645064410619252 33.75833748741954 39.06987878756644 0 0 0
1403 1 11.840741010497748 33.521531080436205 39.13143283460646 0 0 0
176 1 -3.026791037268509 22.28175549819349 34.59139690646724 0 0 0
248 1 -2.905928818960787 31.227796642671976 34.81170499609996 0 0 0
287 1 -1.3344275527852174 38.19940080249368 39.11393960954385 0 0 0
1151 1 8.82455980302952 38.15453958951637 39.2188242313986 0 0 0
864 1 3.64805145634376 35.55630826553666 39.109777491216505 0 0 0
575 1 2.170094157058929 38.07280742193866 39.23231321486368 0 0 0
576 1 0.2596434417991227 35.96337173461503 39.10071692305104 0 0 0
863 1 5.19995570783322 37.95065151751048 39.16423392485608 0 0 0
1370 1 12.021231972528057 31.237666191553718 41.25496390768262 0 0 -1
288 1 -2.8259327801201124 35.853926347937886 39.290937547840684 0 0 0
182 1 -1.4334077899778959 26.649965901013974 41.37328941809464 0 0 -1
506 1 2.006389906014604 31.307022351769 41.368512561128284 0 0 -1
829 1 3.670618496789781 33.595469885526484 41.36277421106445 0 0 -1
252 1 -3.039700895046707 31.304577747033623 39.22715809568102 0 0 0
1369 1 10.562838255239011 28.88469669676248 41.4133509619258 0 0 -1
830 1 5.314170629476174 35.86183764775871 41.39376719495435 0 0 -1
757 1 3.7085248348092197 24.40696303838581 41.32676714071742 0 0 -1
1 1 -2.873119808356319 38.15042253481412 41.34806932703958 0 -1 -1
1081 1 6.988441956574518 29.196309755752555 41.276817622343714 0 0 -1
212 2 -3.059790055934293 26.53324722671671 34.473335819754325 0 0 0
33 1 -3.0528311815165594 38.27144996139516 36.941214789424805 0 -1 0
470 1 2.0554414606822284 26.770661059266054 41.426738534442705 0 0 -1
793 1 3.618297546981519 29.099686008345447 41.43112205711302 0 0 -1
1444 2 13.807324279888007 4.181625101339969 3.053044532375581 0 0 0
1732 1 17.017376535007582 4.253085189750676 3.0938602937303434 0 0 0
2089 1 20.59408010608903 10.894390073015142 0.8130574639575574 0 0 0
2020 1 20.479758550958106 4.11375888737604 2.956750345007796 0 0 0
2308 1 23.84658151797009 4.057274804886871 3.006865463038179 0 0 0
2596 1 27.2958881277078 4.099357355564731 3.31316042323633 0 0 0
1443 1 15.599067963661252 6.413847243590348 3.1679055409764993 0 0 0
1731 1 18.866569329799347 6.300727072871079 3.0334836499706954 0 0 0
2019 1 22.228346770906427 6.2879103591345915 3.0502156659255513 0 0 0
1442 1 15.479005380377089 4.115883695879435 0.8552266238822536 0 0 0
2307 1 25.63638837333873 6.377046360295932 3.193850221362087 0 0 0
1549 2 13.883022994837283 15.372296261327097 0.7990139768304974 0 0 0
1480 2 13.822577490002281 8.465845640117852 2.9613935994825287 0 0 0
1479 1 15.416215864071226 10.846910805666385 2.9712286871406155 0 0 0
1768 1 17.178752551093126 8.749260810742829 3.132074036378817 0 0 0
1767 1 18.921601732276947 10.862062033594459 2.9078040143558277 0 0 0
2056 1 20.5833029573868 8.538848395298324 3.063641761862548 0 0 0
2055 1 22.197392900413767 10.84711085573432 3.1146516175309946 0 0 0
2419 1 25.465293233741562 20.0854777007205 7.501551926813047 0 0 0
2344 1 23.938787280418527 8.573363323694497 3.161300943853288 0 0 0
2741 1 27.17780847189915 20.003919313386227 5.355244606367454 0 0 0
2632 1 27.32910433022745 8.699158434280848 3.0745523825703365 0 0 0
2343 1 25.570118584025433 10.78271765678376 3.0039449811891004 0 0 0
2054 1 22.126221849073126 8.636941012691796 0.7642657780624549 0 0 0
2306 2 25.655701073095187 4.208968811661229 0.8472278027174132 0 0 0
1516 1 13.819125093061643 13.219183971823224 2.8389159907243022 0 0 0
1804 1 17.258549986240883 13.205910515306572 2.970256195936093 0 0 0
2131 1 22.154658888899768 19.989509343339467 7.544727900049834 0 0 0
2092 2 20.56461107320996 13.071977038413099 3.0154509568618364 0 0 0
2380 1 23.891252904911735 13.053238916439637 3.0778173152142743 0 0 0
2053 1 20.447739289476534 6.268920753897368 0.7482631587487371 0 0 0
2668 1 27.202502859771915 13.274583511437397 3.0211946856994123 0 0 0
2132 1 20.703788091421558 17.53547218416503 7.542515085374826 0 0 0
1515 1 15.675018637715922 15.430406568620661 3.0518199405588162 0 0 0
1803 1 18.84111227141585 15.459124113027979 3.1757840039150134 0 0 0
2130 1 22.118475297756913 17.82026995236834 5.127046238347184 0 0 0
2091 1 22.197867996579472 15.361253420816245 3.0417665388550463 0 0 0
2165 1 20.324325269821397 19.946892869879793 5.259074542461087 0 0 0
2379 1 25.36425194061725 15.506843839690692 2.9788921925226064 0 0 0
2708 1 27.100650409106947 17.74797612585234 7.418500627231562 0 0 0
1552 1 13.807401543773757 17.44873434466332 2.9650122455345618 0 0 0
1551 1 15.536641943564643 19.920387352503244 3.162383205255969 0 0 0
1840 1 17.360509014303716 17.75415229214473 3.0550725768994322 0 0 0
1839 1 18.901877591732386 20.022789987808217 2.7896369624584723 0 0 0
2453 1 23.895452425214344 19.879228077527845 5.186007055798801 0 0 0
2128 1 20.48013480670877 17.667628662159547 2.9754771799345976 0 0 0
2420 2 23.735369452664976 17.69512947111749 7.406800505862008 0 0 0
2127 1 21.990928265296112 20.057770305142164 2.9830787563290455 0 0 0
2416 1 23.84322939770391 17.81043838945536 2.844149954903479 0 0 0
2342 2 25.651448930819146 8.550795293675677 0.9133964881700416 0 0 0
2704 1 27.277773740235645 17.620825478756345 3.046404783473793 0 0 0
2415 1 25.608165337515846 19.926534848273345 2.939444456535929 0 0 0
2418 1 25.466627901808884 17.652907608595974 5.15848818022046 0 0 0
1446 2 15.380253632814782 4.274590360786939 5.339276734341742 0 0 0
1448 1 13.575508640967524 4.205534744101692 7.534444155812141 0 0 0
1736 1 17.09125650894275 4.139218894759624 7.577307591283609 0 0 0
1734 1 18.779182604650476 4.090917594941587 5.197581560762949 0 0 0
2024 1 20.525297872164817 4.031305159029417 7.6389165457996 0 0 0
2022 1 22.199675808618874 4.022739079529274 5.314401150007306 0 0 0
2312 1 23.758204456452944 4.112526322065392 7.600703590639049 0 0 0
2310 1 25.364303867845123 4.204593190383848 5.220747648693719 0 0 0
2600 1 27.255932359305724 4.213195274004001 7.529110235981641 0 0 0
1447 1 15.583393626547387 6.398567422014809 7.426854976465425 0 0 0
1481 1 13.644368392864113 6.447119273587303 5.282262309410274 0 0 0
1735 1 18.867228298989016 6.5032789213140205 7.4515545011817865 0 0 0
1769 1 17.198392019112973 6.512399578138384 5.365270725496851 0 0 0
2057 1 20.588401411844558 6.310298250844586 5.199866075348998 0 0 0
2023 1 22.15992832792428 6.414199481054176 7.550865091507118 0 0 0
2345 1 23.801546524587554 6.449093983557582 5.335592304774686 0 0 0
2311 1 25.581071764657903 6.263716385878018 7.609394749382022 0 0 0
2633 2 27.264698357573767 6.223973991267617 5.624096850763 0 0 0
1484 1 13.727068162752524 8.464512867316671 7.467540813159056 0 0 0
1482 1 15.434504012757547 8.761068991527903 5.216945723558772 0 0 0
1483 1 15.503732669481693 10.832499482055251 7.468350351634518 0 0 0
1517 1 13.903420897482558 10.928008148197963 5.253522727861309 0 0 0
1772 1 17.156871778343664 8.665033296518484 7.3983571350695465 0 0 0
1771 1 18.816494997564895 11.023745177128411 7.535553788730638 0 0 0
1805 1 17.183778758293 10.998305060057474 5.194189692938437 0 0 0
1770 1 18.912410080317343 8.786352257109098 5.288914078298509 0 0 0
2060 1 20.540079584309026 8.758566641445952 7.717463372499888 0 0 0
2093 1 20.596177424606605 11.001706288471398 5.407403112705818 0 0 0
2058 1 22.19422028797263 8.76250098073088 5.3466265652476554 0 0 0
2059 2 22.201776275435197 10.971158792036261 7.585202862350094 0 0 0
2348 1 23.89979085461167 8.445273002855117 7.502435272124632 0 0 0
2381 1 23.999885759415285 10.90844892286069 5.309455231621557 0 0 0
2636 1 27.328732388406273 8.587947184435984 7.6145321019470025 0 0 0
2346 1 25.696480066743852 8.610904160373757 5.320200593640858 0 0 0
2347 1 25.54652803418195 10.966008224328984 7.65996362248555 0 0 0
2669 1 27.292331163349505 10.873978240689096 5.255602371269703 0 0 0
1518 1 15.37519513351793 13.186843468159518 5.222510804012682 0 0 0
1520 1 13.89428380912993 13.087739421076067 7.54445375948435 0 0 0
1806 1 18.840423642861868 13.287165404417655 5.253717909166074 0 0 0
1808 1 17.112167009374716 13.197973403009609 7.440942622638517 0 0 0
2096 1 20.48268135618796 13.121805258141682 7.5771156862937055 0 0 0
2094 1 22.2334942261849 13.172764973391063 5.249832801148086 0 0 0
2384 1 23.84677109325647 13.13723861263979 7.594394823151923 0 0 0
2672 2 27.277744325928005 13.266352021000865 7.447255819170456 0 0 0
2382 1 25.58296319102486 13.1425007415328 5.242268699413991 0 0 0
1519 1 15.493138823969602 15.421787881661198 7.586918668788149 0 0 0
1553 2 13.767160244352922 15.322364691621512 5.180433010870792 0 0 0
1807 1 18.876214482962155 15.418304921116869 7.656161412131185 0 0 0
1841 1 17.08303899065259 15.482456128523525 5.3949281221065775 0 0 0
2129 2 20.665693545003847 15.390454101952416 5.345090261071589 0 0 0
2095 1 22.164271532723482 15.270961791483622 7.5741549999952325 0 0 0
2417 1 23.737787912257353 15.594378094686551 5.284040224593253 0 0 0
2705 1 27.22457854051649 15.491829452182056 5.23881011445174 0 0 0
2383 1 25.406684255111756 15.333558589979683 7.445378800891877 0 0 0
1555 1 15.548307514286428 19.94778206863973 7.5629904172966285 0 0 0
1556 1 13.892185582564288 17.632931830492723 7.653793894541821 0 0 0
1554 1 15.419988249074056 17.62460248804036 5.2761438109161185 0 0 0
1589 1 13.689403542359837 19.836474428738875 5.290610403880399 0 0 0
1877 2 17.21515832427274 20.054489974440564 5.213827530941263 0 0 0
1844 1 17.15776280587081 17.625908472139095 7.481985859269456 0 0 0
1842 1 18.890606310220093 17.730332671691173 5.312852855355711 0 0 0
1843 1 18.832462407960406 19.90227336796424 7.402580529156906 0 0 0
1802 1 18.998630608972768 13.241227571541978 0.7448927824060534 0 0 0
2090 1 22.28773319086946 13.132839131440662 0.8625780550199302 0 0 0
2665 1 27.3007845233796 10.95833737188831 0.8505230482249925 0 0 0
1837 1 17.263935645412207 15.481772277208275 0.8514215988597772 0 0 0
1765 1 17.192707027414517 6.393176127619063 0.8462402007192689 0 0 0
1766 1 18.680114872374663 8.60277707595706 0.7290181682969574 0 0 0
2629 1 27.420234755816104 6.329973119562204 0.9155613243219687 0 0 0
2341 1 23.79251653634804 6.450222780661476 0.9290460331510254 0 0 0
1585 1 13.862864061733148 19.91450702081301 0.8280212094247189 0 0 0
2737 1 27.22200325958245 19.96840632017026 0.7297900237489676 0 0 0
2125 1 20.527627613034422 15.336121860226571 0.8357613765175806 0 0 0
1477 1 13.908197789960475 6.444230680720657 0.73415183827975 0 0 0
2449 2 23.85272354417285 19.9355454358422 0.8764078808595308 0 0 0
1478 1 15.583510856713684 8.69946489951327 0.7406982954571805 0 0 0
1513 2 13.829612508184656 10.913975523310372 0.8099980896511455 0 0 0
2377 1 23.92738154521373 10.812284048715732 0.8295957782027816 0 0 0
2414 1 25.653135361604466 17.6898855081228 0.768972016639708 0 0 0
2701 1 27.076531473937653 15.427469824025849 0.7363077755245655 0 0 0
2378 1 25.39015045138008 13.165054249371114 0.7282835156164964 0 0 0
1450 1 15.517210289197465 4.187329869365884 9.878720970271566 0 0 0
1452 1 13.657478682236917 4.168766704943385 11.990519066471556 0 0 0
1740 2 17.206026992456888 4.1393470023246675 12.210381372992899 0 0 0
1738 1 18.703667830490332 4.087363092095732 10.005977552432173 0 0 0
2028 1 20.594361579813008 4.110505277123583 12.167365234129338 0 0 0
2026 1 22.235988231849937 3.8810551240206843 9.894268415024563 0 0 0
2316 1 24.043901199287358 3.9820720065954722 12.025774355153978 0 0 0
2314 1 25.556047036047442 3.939614885544377 9.796887272003707 0 0 0
2604 1 27.157808603309668 4.130545589268905 12.088869486548374 0 0 0
1451 1 15.529137775661724 6.2601372926975705 12.129096538042658 0 0 0
1485 1 13.74854552690935 6.314414898381245 9.722343139975285 0 0 0
1739 1 19.018819961118307 6.354327874862486 12.189138252962985 0 0 0
1773 1 17.22134923066584 6.310465079375367 9.888377536558322 0 0 0
2061 1 20.519436171860026 6.453986081367072 9.798628474255732 0 0 0
2027 1 22.22924353499337 6.320220332792254 12.01079495336087 0 0 0
2349 1 23.794168669331064 6.1446232142772 9.806884685871132 0 0 0
2315 1 25.575660309926377 6.3670938268641395 12.026876088047239 0 0 0
2637 1 27.329073414811226 6.297537819487388 9.886924431020436 0 0 0
1488 1 13.947400764205266 8.561517345181674 12.168853345370458 0 0 0
1486 1 15.485046955432608 8.53993510101066 9.627067167421966 0 0 0
1487 1 15.463308517102021 10.840381539309366 12.192307996006924 0 0 0
1521 1 13.793786823914985 10.810701716251613 9.780033811352842 0 0 0
1776 1 17.2384917532671 8.570848511624252 12.011444435190942 0 0 0
1774 1 18.825309467721166 8.738207451471954 9.827785182326949 0 0 0
1809 1 17.108245188207658 10.914895715956916 9.700415682354787 0 0 0
1775 1 18.882153449810147 10.677407092269869 12.02051260727213 0 0 0
2064 1 20.65171672381063 8.577936496874948 11.969913381331743 0 0 0
2097 1 20.453671956484555 10.980925982787847 9.911588471860483 0 0 0
2063 1 22.218279716496586 10.864106481137867 12.080362256310584 0 0 0
2062 1 22.338864825672935 8.628059877851609 9.777915119475697 0 0 0
2352 2 23.834741573982257 8.624849346706593 12.12152334640638 0 0 0
2385 1 23.882816164498472 10.876937863917888 10.03040161707812 0 0 0
2640 1 27.34569835695707 8.511149351381144 12.249189489937555 0 0 0
2350 1 25.668002931466546 8.60521232796097 9.793931849226038 0 0 0
2351 1 25.64974412314501 10.790509484976504 12.294335598505446 0 0 0
2673 1 27.29467526601302 10.774871555133496 9.827130886187366 0 0 0
1522 2 15.350938305020872 13.164986615020682 9.898270204767355 0 0 0
1524 1 13.904686457360999 13.125011974154027 12.24654235527477 0 0 0
1810 1 18.736632901297885 13.131694232166966 9.800599078244455 0 0 0
1812 1 17.107284540376334 13.191262891246462 11.967270628396912 0 0 0
2100 2 20.564261348339425 13.009881682740021 12.012311360023412 0 0 0
2098 1 22.279080518626113 12.986598348268991 9.881836208024328 0 0 0
2388 1 24.079115191169482 13.011042572556615 12.077678781237818 0 0 0
2386 1 25.596297751838524 13.063053343821027 9.789378175903504 0 0 0
2676 1 27.373972769588903 12.947607771056635 12.267998011476907 0 0 0
1523 1 15.487726066879048 15.392043996978595 12.253122576883513 0 0 0
1557 1 13.780550582145356 15.455372609985497 9.804793069054165 0 0 0
1811 1 18.893710929819534 15.332070697716972 12.189938694112872 0 0 0
1845 1 17.02799600517976 15.334271835460218 9.964851088291315 0 0 0
2133 1 20.62989627420437 15.279819072212922 9.835761488374013 0 0 0
2099 1 22.359185330173162 15.298033643937824 12.026036551828032 0 0 0
2421 1 23.955603197778427 15.39679637706974 9.804762341421105 0 0 0
2387 1 25.766662757049602 15.331080391458254 12.008506776402179 0 0 0
2709 1 27.161915336202426 15.442460627660001 9.481872861323133 0 0 0
1560 2 13.782612119300822 17.732244657432595 12.020590640947177 0 0 0
1558 1 15.629875341351859 17.6463319810738 9.906473351073378 0 0 0
1559 1 15.670548617260284 19.8996849954029 11.984772892347468 0 0 0
1593 1 13.888235835133301 19.845896464454395 9.790273593713428 0 0 0
1848 1 17.267733334265348 17.638109102807086 12.11482057488371 0 0 0
1881 1 17.261172137302122 19.928746316899584 9.675755284785742 0 0 0
1846 2 18.926012536506324 17.579210752438186 9.846624332971961 0 0 0
1847 1 18.827440128813382 19.925845531228404 11.979685313508005 0 0 0
2136 1 20.55609717319501 17.58498269117853 12.029498976200742 0 0 0
2169 1 20.419954641938336 19.95549695122512 9.707923426551604 0 0 0
2134 1 22.196706790886264 17.623720527331283 9.806679651686487 0 0 0
2135 1 22.154748997838222 19.819982471912997 11.81624702136171 0 0 0
2424 1 23.948516446250157 17.43823579044013 11.941247419120808 0 0 0
2457 1 23.90589300990017 19.899280976460833 9.715603770146688 0 0 0
2712 1 27.297256443233934 17.671658092056347 11.999581958477041 0 0 0
2423 1 25.56194655472476 19.945054361082512 12.023765517462403 0 0 0
2422 1 25.58243973248307 17.610652263198276 9.600054142529984 0 0 0
2745 1 27.145414953377333 19.88142276954561 9.862303210403892 0 0 0
1454 1 15.234760906371346 4.132629450583722 14.273901208481544 0 0 0
1456 1 13.758609272348448 3.9405565209210387 16.49170261746071 0 0 0
1744 2 17.123289673402635 4.311210883724641 16.477938171415566 0 0 0
1742 1 18.91892127507376 4.067726690461381 14.396618138479978 0 0 0
2032 1 20.69425937758613 4.016561056177542 16.546808823661372 0 0 0
2030 2 22.271710587148238 3.9733235660545065 14.33692270305413 0 0 0
2320 1 23.960210370947788 3.9088326820463637 16.484580926850366 0 0 0
2318 1 25.560349535025885 4.093489831624671 14.359264729233045 0 0 0
2608 1 27.21061925493174 4.103354105555636 16.61894344506547 0 0 0
1455 1 15.295674421182444 6.299419665326748 16.40915819876863 0 0 0
1489 2 13.654713953593166 6.443819792413408 14.145114761919643 0 0 0
1743 2 19.0123806169591 6.337458666711063 16.601213955124027 0 0 0
1777 1 17.407016605532093 6.227036082975299 14.29557636596763 0 0 0
2065 1 20.708937686172828 6.357208173514293 14.327538275764939 0 0 0
2031 1 22.368416619458838 6.2098794117490685 16.44964968305586 0 0 0
2353 1 23.908106251659845 6.285777983016775 14.23117628696446 0 0 0
2319 2 25.480886547004964 6.387577133926705 16.57009676884314 0 0 0
2641 1 27.26158055078789 6.219170342954496 14.293840540821177 0 0 0
1492 1 13.86068960210224 8.694552581634186 16.446012863248882 0 0 0
1490 1 15.678290648005092 8.437111598462348 14.310886873330567 0 0 0
1491 1 15.693610789309542 11.064069614482435 16.706425383331883 0 0 0
1525 2 13.928295007686597 10.79178237597859 14.37223360361039 0 0 0
1780 1 17.241103560678802 8.51291167008223 16.558043435979386 0 0 0
1778 1 19.024588976453956 8.502809151800607 14.412413017966342 0 0 0
1779 1 18.811770380383688 10.754581468069366 16.66333469655647 0 0 0
1813 1 17.211233032632745 10.76630153426816 14.311411738493653 0 0 0
2068 1 20.700731495101568 8.549543694273062 16.667347168277068 0 0 0
2101 1 20.532695683784656 10.813372549516673 14.413601702451974 0 0 0
2067 1 22.195196726697556 10.887103463154034 16.665569773621392 0 0 0
2356 1 23.827253897169875 8.57557887177478 16.578690281580172 0 0 0
2066 1 22.09007933637752 8.573138232126428 14.32294303530088 0 0 0
2389 1 23.82582613602449 10.827681968113076 14.48901463704153 0 0 0
2644 1 27.320605656719927 8.469087621442888 16.4007525359913 0 0 0
2354 1 25.516772968150388 8.554904567598692 14.349919102412972 0 0 0
2355 1 25.783827851511045 10.790947270278524 16.68490271035433 0 0 0
2677 2 27.412233555736428 10.79711846036864 14.472240094749159 0 0 0
1526 1 15.559753570300636 13.179910857364488 14.403902794394188 0 0 0
1528 1 13.712226587403386 13.005932044285224 16.55937559455994 0 0 0
1816 1 17.453217843873578 13.279975755139338 16.57123695724202 0 0 0
1814 1 18.971030711586494 13.06241035637799 14.205841099791066 0 0 0
2104 2 20.52242816341677 13.07841365472881 16.586620561747324 0 0 0
2102 1 22.1961794243072 13.095099229298965 14.357933369134866 0 0 0
2392 1 24.115825308664476 13.031599600961595 16.626824637971986 0 0 0
2390 1 25.7184730944163 12.903267010717308 14.533496877286987 0 0 0
2680 1 27.37575191521019 13.047464588106719 16.83753095228913 0 0 0
1527 1 15.470428815225091 15.228401876764686 16.62359693044467 0 0 0
1561 1 13.685669464884619 15.342810449073172 14.320035149305538 0 0 0
1849 1 17.15254284797029 15.420836642308188 14.432443920097572 0 0 0
1815 1 19.05271158438271 15.42695731680462 16.65563811777283 0 0 0
2137 2 20.598924854294037 15.379298470046148 14.272014832277613 0 0 0
2103 1 22.32568907954856 15.293866328442958 16.626325539063032 0 0 0
2425 1 23.888974280081207 15.340807523325116 14.285635286537243 0 0 0
2391 1 25.62254699724517 15.297817792042466 16.492478688521118 0 0 0
2713 1 27.14934370732366 15.333943505628069 14.23213001169634 0 0 0
1597 1 13.846272653199488 19.929383608697513 14.146149351478497 0 0 0
1564 1 13.957484673455166 17.59505528614701 16.50009888455541 0 0 0
1563 1 15.520196515303287 19.910559341084884 16.52247996641982 0 0 0
1562 1 15.403983306272742 17.679380301436357 14.285118372855768 0 0 0
1852 2 17.098360054553083 17.5825136100907 16.517267391067843 0 0 0
1850 1 18.9472563440368 17.545428627320554 14.27956582626079 0 0 0
1851 1 18.973864737927276 19.758994453381725 16.64009933605714 0 0 0
1885 2 17.16996450896948 19.73615551582809 14.346584968939872 0 0 0
2140 1 20.669321229508615 17.557057234689076 16.681775076853903 0 0 0
2173 1 20.58350881276649 19.810777773759483 14.207258768373613 0 0 0
2138 1 22.28740777046148 17.671658231071092 14.284464948638194 0 0 0
2139 1 22.169112328215373 19.99783500062876 16.48870919430756 0 0 0
2428 1 23.948932582523362 17.583657391318127 16.446781147680152 0 0 0
2461 1 23.803929498182377 19.939569767822622 14.21123116555477 0 0 0
2749 1 27.302869523753685 19.87360389301117 14.329175566944533 0 0 0
2716 1 27.176693762031135 17.607676313002678 16.525460485937064 0 0 0
2427 2 25.57623765728573 19.95776851151962 16.52943461608917 0 0 0
2426 1 25.451321350096865 17.6041952467493 14.096732726819326 0 0 0
1458 1 15.513816897028505 4.235789387021467 18.722678134624985 0 0 0
1746 1 18.814668555185538 4.1248332804591215 18.778080549796044 0 0 0
1748 1 17.176841175294893 3.955523074281427 20.946788641989066 0 0 0
2036 2 20.570025504467672 4.036272317428407 20.852409426794228 0 0 0
2034 1 22.360498312302237 4.0502706231582835 18.827006500212676 0 0 0
2324 1 23.918769345209423 4.029623192527597 21.14817668904375 0 0 0
2322 1 25.44420054028287 4.0263245864726205 18.86474036931781 0 0 0
1493 1 13.835001710963247 6.415578007754756 18.848043213113932 0 0 0
1781 1 17.190404143291325 6.424163445332623 18.63588678742509 0 0 0
2069 1 20.684447667425108 6.320766546077382 18.742445383939792 0 0 0
2357 1 23.926169318436582 6.363224463166031 18.817705609066884 0 0 0
2645 1 27.372756695401772 6.233230054103157 18.8871521533954 0 0 0
2323 1 25.5878573738094 6.371827782000584 21.088016281226555 0 0 0
1496 2 13.796872860870995 8.606681842555775 21.06262983929409 0 0 0
1494 1 15.542159234047467 8.758066513721378 18.875519262332066 0 0 0
1529 1 13.746062429824558 10.762190714286906 18.81779903072092 0 0 0
1495 1 15.58464833242807 10.741594223305041 21.05087025792375 0 0 0
1817 1 17.276735656057255 10.865378022643798 18.85800316253941 0 0 0
1782 1 18.951826008936653 8.501908728811348 18.843262354577455 0 0 0
2105 1 20.377064334349228 10.952566515086248 19.00463531041164 0 0 0
2071 1 22.350972964791335 10.861673057047257 21.09844539170999 0 0 0
2070 1 22.199508635940113 8.669218208227486 19.004978539016623 0 0 0
2393 1 24.043945584620555 10.802010580614274 18.897858767554446 0 0 0
2360 1 23.9301945727319 8.551246626557674 21.081120604066303 0 0 0
2358 1 25.702860593469826 8.617320727062271 18.702988189684984 0 0 0
2681 1 27.37194179604127 10.939262644107757 18.961495468511025 0 0 0
2648 1 27.393667043523592 8.603238455800128 20.9984966146694 0 0 0
2359 1 25.566441971721304 10.72395512834388 21.02461424559217 0 0 0
1530 2 15.538056799713605 13.014270718817533 18.829950299353087 0 0 0
1818 1 18.85355909733935 13.263650078665345 18.896789671693913 0 0 0
1820 1 17.070649660750764 13.027490064924512 21.046096144505594 0 0 0
2106 1 22.33676501357588 13.05669724210885 18.6986136448783 0 0 0
2108 1 20.605952882453916 13.227953797778651 21.10116804142411 0 0 0
2396 1 23.861932948725183 13.118708123927345 21.1048462906628 0 0 0
2394 1 25.577302075131506 13.056885525874936 19.000540002688084 0 0 0
2684 1 27.203539943772295 13.102666311053683 21.176622884515332 0 0 0
1565 1 13.923078675334942 15.322398246563141 18.93927996610127 0 0 0
1853 1 16.99197848130969 15.371276508632612 18.84512262170624 0 0 0
1819 1 18.829129778523736 15.359334881669527 21.069154909782167 0 0 0
2141 2 20.621813078125808 15.457326486301012 18.88669757876687 0 0 0
2429 1 23.843320810849576 15.509941360157907 18.90674735124239 0 0 0
2717 1 27.17140087389749 15.40220364540832 18.864556130854034 0 0 0
1566 1 15.442284760924718 17.598913638046547 18.86586603981048 0 0 0
1601 1 13.77875226998395 19.985202817295544 18.73941937509331 0 0 0
1854 1 18.802775112611897 17.56082611692387 18.7950151504457 0 0 0
1889 1 17.052019256660373 19.786213452780338 18.816969676728334 0 0 0
1855 1 18.95493097357424 19.846287124103448 20.974300439375703 0 0 0
2177 2 20.66811028644441 19.727953685460765 18.761248108573085 0 0 0
2144 1 20.644379054014834 17.635387960713544 21.139737544572476 0 0 0
2142 1 22.45864634119588 17.703801194537 18.808618222934925 0 0 0
2143 1 22.225321265984945 20.080317438569097 21.008420840113153 0 0 0
2465 1 24.11256029315149 20.054078628698846 18.814607731600997 0 0 0
2432 1 23.899947415153182 17.767367214965375 21.384015902188477 0 0 0
2430 1 25.658810187854026 17.65601641158539 18.89372186603421 0 0 0
2753 1 27.242574090219165 19.924064161237418 18.770325327213925 0 0 0
2720 1 27.236717180250594 17.544981267414045 21.13844611867002 0 0 0
1460 1 13.731117155975891 3.9827984331695996 21.015176968905596 0 0 0
1462 1 15.545045525409087 3.9103786835169743 23.16197625477235 0 0 0
1750 1 18.850180228257635 3.9611756534074702 23.148385880203566 0 0 0
2038 1 22.11325789074856 4.172833183268544 23.35366217565611 0 0 0
2612 1 27.07625062973355 4.080124074352122 21.062653021658214 0 0 0
2326 1 25.73733780280105 4.00885059688266 23.367844639734496 0 0 0
1459 1 15.482037959686178 6.3725282715836045 21.071842063089743 0 0 0
1497 1 13.85254511008484 6.257794473312843 23.40348710748568 0 0 0
1785 1 17.191318312678792 6.403329314284669 23.245789512229972 0 0 0
1747 1 18.921891700611805 6.28109941029243 21.070798595741806 0 0 0
2073 2 20.589023070658733 6.495334378326294 23.339245221768678 0 0 0
2035 1 22.269124063621433 6.271331833290889 21.078605093445617 0 0 0
2361 1 23.945546574375687 6.470261436254889 23.474771409379223 0 0 0
2649 1 27.38383189151831 6.2957224966078575 23.428792279918913 0 0 0
1498 1 15.522100224773379 8.630465209008712 23.223279229947526 0 0 0
1533 2 14.038334134869462 11.073955388218067 23.329495855711745 0 0 0
1783 2 18.882424009322577 10.949424685753389 21.323752726724955 0 0 0
1784 1 17.24848264667429 8.491164996188397 21.00463072893673 0 0 0
1821 1 17.075100584052045 10.86886914945817 23.469666676466137 0 0 0
1786 1 18.85383052273228 8.697168450713697 23.374003571293976 0 0 0
2072 1 20.544071905861042 8.700623869452865 21.196746218546764 0 0 0
2109 1 20.7528277449822 10.830405071879765 23.386650756461833 0 0 0
2074 1 22.40509981094885 8.653259636680994 23.43032838298183 0 0 0
2397 1 24.084681743757404 10.833751870449133 23.298319670917127 0 0 0
2362 1 25.758189770710764 8.54244325045305 23.26077628638764 0 0 0
2685 1 27.324953194715807 10.94007995924974 23.29250808732681 0 0 0
1532 1 13.954111164709097 13.011591677812856 21.23466240015786 0 0 0
1534 1 15.819684886336479 13.320358920059647 23.477324285500696 0 0 0
1822 1 18.83927024712358 12.968244641737778 23.283324581366173 0 0 0
2110 1 22.37191804259709 13.081931102395355 23.35693307629224 0 0 0
2398 1 25.559372167993082 13.149110882541148 23.502091762772892 0 0 0
1531 2 15.458834490927789 15.346155766731176 21.37511717460183 0 0 0
1569 1 13.606635934151772 15.444080648967104 23.381754306708554 0 0 0
1857 1 17.383379359336388 15.398361667149434 23.424006726060323 0 0 0
2145 1 20.428110456885758 15.217717159852445 23.334689429312306 0 0 0
2107 1 22.259677152624697 15.3615800009211 21.2401132119339 0 0 0
2433 1 24.046914830738757 15.458433087126378 23.463831357898123 0 0 0
2395 1 25.613895427380996 15.375876924686978 21.14962018298705 0 0 0
2721 1 27.279580538983836 15.456299461721054 23.30824173306114 0 0 0
1567 1 15.363801652502882 19.83700238777329 21.100694383019924 0 0 0
1568 1 13.794356655733282 17.704615755656732 21.09903559683926 0 0 0
1570 1 15.344546373782254 17.561197118305795 23.350480164680903 0 0 0
1605 1 13.669177515088823 19.987849724366843 23.39414894410513 0 0 0
1856 1 17.13746927726394 17.61750458923781 21.20178613183001 0 0 0
1893 2 17.270361593160914 19.824339136568696 23.20286741360848 0 0 0
1858 1 18.936918531175824 17.65124247877936 23.264659046995806 0 0 0
2181 1 20.557796890804987 19.750843712844866 23.25416551363873 0 0 0
2146 2 22.18966449837946 17.495471077042147 23.472163299315035 0 0 0
2469 1 23.912902862043584 19.907138997907655 23.58383398709305 0 0 0
2431 1 25.595831845816292 19.944893610434768 21.207782065122267 0 0 0
2757 1 27.20697393988269 20.106056703534335 23.471991148558747 0 0 0
2434 1 25.68416685809655 17.825016445786282 23.474406781521505 0 0 0
1464 1 13.897695778432716 4.000762817002709 25.558703669595968 0 0 0
1466 1 15.445015149664545 4.06690892623431 27.80402485058586 0 0 0
1752 1 17.12452014679832 3.8250740833408745 25.539568069330286 0 0 0
1754 1 18.987446029940344 4.092871641294077 27.86264248027039 0 0 0
2040 1 20.572966121312646 4.030707525348101 25.59416776129646 0 0 0
2042 1 22.22925178770736 4.09661797482579 27.87526737605552 0 0 0
2328 1 23.945141378081225 4.054790282369036 25.448847830156783 0 0 0
2330 1 25.486368596292067 4.162293942826123 27.96658832517421 0 0 0
2616 1 27.384739164090874 4.072423286669969 25.765532929865742 0 0 0
1463 1 15.589266368435975 6.250806671413252 25.54449300510352 0 0 0
1501 1 13.92222514494869 6.449669709225265 27.7192860713285 0 0 0
1789 1 17.169049748818946 6.242886142017927 28.00833414188938 0 0 0
1751 1 18.826433088313305 6.310340793998099 25.837802815206125 0 0 0
2077 1 20.650495998774616 6.354848847315911 27.947930062287085 0 0 0
2039 1 22.29379098511496 6.445832046775826 25.673514673809546 0 0 0
2365 1 23.977241075419762 6.365589908064839 27.872902089066876 0 0 0
2327 1 25.725878060050395 6.278292214690654 25.54102646630409 0 0 0
2653 1 27.35716351714273 6.210767334031163 27.882521016511856 0 0 0
1500 2 14.025841836148725 8.54472411304359 25.73828750655856 0 0 0
1502 1 15.662677645118773 8.601486878276162 28.031257902938844 0 0 0
1499 1 15.476783039520491 10.881990607061217 25.793061231942207 0 0 0
1537 1 13.866078642672825 10.842491805784581 28.057063847936277 0 0 0
1788 1 17.16250827636928 8.665710167491092 25.605792556224607 0 0 0
1790 2 18.93494909091857 8.578360693514817 27.88502726591833 0 0 0
1825 1 17.28028480295934 10.911973288733796 27.965260637444995 0 0 0
1787 1 19.03663207053355 10.697914278861033 25.57404101708345 0 0 0
2076 1 20.58606992512119 8.451587504155665 25.454273678043474 0 0 0
2113 1 20.331489378482743 10.958578027122217 27.912128844180305 0 0 0
2075 2 22.199096170497143 10.871088673273231 25.68407159208346 0 0 0
2078 1 22.157529156615656 8.66169765758168 27.88279627435774 0 0 0
2364 1 24.016031422444957 8.461951420417769 25.676704765542443 0 0 0
2401 1 24.050612747242397 10.83998617294551 27.724918257398812 0 0 0
2652 1 27.41274394931613 8.37018589738631 25.666084243904173 0 0 0
2366 1 25.72337686882859 8.515721678970447 27.909034025964843 0 0 0
2363 1 25.703272924113687 10.830505238372165 25.55285499008648 0 0 0
2689 1 27.29327228046093 10.95527526375912 27.91012571590721 0 0 0
1536 1 13.778916785416886 13.246856166835245 25.706854666684436 0 0 0
1538 2 15.595432541548963 13.168354517823522 27.896162227915173 0 0 0
1824 1 17.322665133590014 13.320274265755703 25.69107645815909 0 0 0
1826 1 18.86201783802367 13.257325807464868 27.961593138577772 0 0 0
2112 1 20.497913676902208 13.15483870443993 25.63182815206175 0 0 0
2114 1 22.223011895961427 13.109956147153971 27.900337991380407 0 0 0
2400 1 23.965053474775623 13.19758628216923 25.591463804090147 0 0 0
2402 1 25.579172078278038 13.183193420472806 27.974154184040724 0 0 0
2688 1 27.245909600240346 13.202477739058011 25.75578681837734 0 0 0
1535 1 15.613173547844259 15.39342209541953 25.673216623521935 0 0 0
1573 1 13.896178896694448 15.363216700117247 27.89368775199275 0 0 0
1861 1 17.155269565718065 15.45630171183539 28.111081476597626 0 0 0
1823 2 18.98982127101868 15.38820292317524 25.73915798921608 0 0 0
2149 1 20.763231893099885 15.306189147440117 27.918833221250015 0 0 0
2111 1 22.181694259339718 15.362972569009461 25.49074329160358 0 0 0
2437 1 23.95862255799421 15.380433535514756 27.86594263748804 0 0 0
2399 2 25.672239085599937 15.555962491187614 25.643761877060864 0 0 0
2725 1 27.254053756787474 15.454859301652405 27.93410723593901 0 0 0
1572 1 13.85758971013697 17.548942478091412 25.60838876918367 0 0 0
1571 1 15.592287440216289 19.88060421966893 25.63829669948481 0 0 0
1574 1 15.662998584690857 17.73295330315662 27.879229992037644 0 0 0
1609 1 13.84821186263125 19.912382732159422 27.823466262522324 0 0 0
1860 1 17.25690196717645 17.688747661842307 25.472568649811507 0 0 0
1897 1 17.263366156058577 19.95589731387655 27.885840619429782 0 0 0
1862 1 18.80539592395166 17.533517449018106 27.910711166546633 0 0 0
1859 1 18.963991114112133 19.927083803763754 25.53754511168615 0 0 0
2148 1 20.47903991955739 17.61755291614555 25.689723407611734 0 0 0
2185 1 20.463246709673804 19.95716809681027 27.87840584791432 0 0 0
2150 2 22.164406277498838 17.67695437218048 28.007753401528863 0 0 0
2436 1 23.71393718536709 17.659371528619864 25.737538118889695 0 0 0
2147 1 22.306963496219506 19.928532612217058 25.755317368141096 0 0 0
2473 1 23.831313987667915 19.901329609430697 27.964739868813982 0 0 0
2724 1 27.39192430571338 17.7240489583117 25.65355028181041 0 0 0
2435 2 25.50981578329853 19.97022057895193 25.752871175002177 0 0 0
2438 1 25.593123199950305 17.744590301871163 27.838489527808253 0 0 0
2761 1 27.40465780604925 20.02801581690549 27.796839189227946 0 0 0
1468 1 13.809409123561512 4.0181254037969385 30.162207134450824 0 0 0
1470 1 15.513127033041908 3.9602277161114197 32.45378013613161 0 0 0
1756 1 17.214964121609547 4.075783464116942 30.109009517587843 0 0 0
1758 1 18.82536910664318 3.908772046843173 32.45543683740189 0 0 0
2044 1 20.607830052457384 3.874672232756195 30.09265601633353 0 0 0
2046 2 22.153533454986157 4.122591671650196 32.371418378903115 0 0 0
2332 1 23.870901256407283 4.03826142120687 30.130009652645303 0 0 0
2334 1 25.549252748720516 4.153176060610785 32.37144274362352 0 0 0
2620 2 27.22904551716632 4.185422635110916 30.12245802869859 0 0 0
1467 1 15.475574561673344 6.307398146279953 30.079646676403 0 0 0
1505 1 13.831938678666422 6.30717827399743 32.41814265724314 0 0 0
1793 1 17.223170873005056 6.278109296666518 32.56208451799775 0 0 0
1755 2 19.03875647918405 6.134609772907941 30.250027640440802 0 0 0
2081 1 20.54205672372375 6.268089273819383 32.5617996042899 0 0 0
2043 1 22.17535006424368 6.205960044633354 30.261761412336917 0 0 0
2369 2 23.757143315310266 6.312041640154249 32.455664452696965 0 0 0
2331 1 25.452032323693683 6.289620316264233 30.167848080944704 0 0 0
2657 1 27.36937050002863 6.243405068108896 32.405994294050714 0 0 0
1504 1 13.74642569341017 8.615950429368425 30.185141342968407 0 0 0
1506 1 15.506246705522347 8.595567828448527 32.396669775995335 0 0 0
1503 2 15.653012852978431 10.737503466144359 30.19186296225793 0 0 0
1541 1 13.904426275535737 10.790934288650684 32.44349363005721 0 0 0
1792 1 17.45507131544657 8.436425073114796 30.234676903028202 0 0 0
1794 1 18.887933216684978 8.549172305862395 32.45973668685091 0 0 0
1791 1 18.86050137463593 10.865484765645753 30.170291115281444 0 0 0
1829 1 17.096141745800473 10.857688166793634 32.4906930980899 0 0 0
2080 1 20.54782493070209 8.526275273416761 30.045355010006602 0 0 0
2117 1 20.64066388548384 10.859039901973507 32.3012321466153 0 0 0
2082 1 22.017835754837318 8.581870773510811 32.327182730303974 0 0 0
2079 2 22.291299621537423 10.84742572228472 29.967303288534627 0 0 0
2368 1 23.719078852728792 8.540917505762419 30.10388200960765 0 0 0
2405 1 23.963269724194788 10.859473294131476 32.360963070378006 0 0 0
2656 1 27.405183051349113 8.51460736204439 30.190013390787765 0 0 0
2370 1 25.67311488170667 8.486360918131474 32.34849346156051 0 0 0
2367 1 25.33256827893848 10.639412431610124 30.077347061345964 0 0 0
2693 1 27.07904654033963 11.013042201344819 32.14506520572735 0 0 0
1540 1 13.999261234596297 12.985012442242894 30.237427178348582 0 0 0
1542 2 15.511651858875869 13.185411149423219 32.57420466586791 0 0 0
1828 1 17.106415847903104 13.078970160971528 30.20456900557165 0 0 0
1830 1 18.9314379921651 13.083760069034584 32.45698531092232 0 0 0
2116 1 20.65267594555507 12.993888403027158 30.263380320233445 0 0 0
2118 2 22.299657291147327 13.214623798833163 32.500217771331506 0 0 0
2404 1 23.81725703892778 13.128650747159957 30.15615132364859 0 0 0
2406 1 25.415077435469346 13.15562083123964 32.49029397754151 0 0 0
2692 2 27.26856855915116 13.037256447305326 30.181237104008954 0 0 0
1539 1 15.518188909089474 15.353567342978955 30.210179208787384 0 0 0
1577 1 13.70645059678186 15.404862125022342 32.31479371073057 0 0 0
1827 2 18.850047941694648 15.260988709420493 30.13556496298405 0 0 0
1865 1 17.196301929506603 15.366212858846975 32.473320267880865 0 0 0
2153 1 20.523360052194477 15.445479317263404 32.39432680178227 0 0 0
2115 1 22.22368799168763 15.461529295420775 30.10980678756284 0 0 0
2441 1 23.810992808837405 15.451535727979053 32.27140924009734 0 0 0
2729 1 27.46186442346935 15.350525421639725 32.455182118269406 0 0 0
2403 1 25.6989363622481 15.318960311966368 30.139810135320356 0 0 0
1576 1 13.99058176940423 17.62719698247107 30.124936953274137 0 0 0
1575 1 15.563984569112765 20.105899444952723 30.065336767259932 0 0 0
1578 1 15.47211058404934 17.60997643238872 32.38248165589886 0 0 0
1613 1 13.837518010554408 20.022377099016946 32.38588370431785 0 0 0
1864 1 17.159898828560905 17.591012766184797 30.198534554032637 0 0 0
1866 1 18.839039303606874 17.641192244893894 32.35038403152898 0 0 0
1863 1 18.75963531834293 19.81276576849927 30.132015584071713 0 0 0
1901 2 17.094047956960342 19.899878605838477 32.29287045412485 0 0 0
2152 1 20.3908367261059 17.52597898633946 30.152226603778615 0 0 0
2189 1 20.26689267174394 19.99146632021621 32.38207049543527 0 0 0
2151 1 22.207816931651 19.96520770817805 30.169927161423406 0 0 0
2440 1 23.984312875969458 17.52032079090531 30.141344037580534 0 0 0
2154 1 22.08226189340078 17.765669908383146 32.42667677645413 0 0 0
2477 1 23.932135644088703 19.901320278243116 32.47205523904685 0 0 0
2765 1 27.348567535823594 19.819388308215842 32.298348012186125 0 0 0
2439 2 25.582031888922735 19.880450770273082 30.030221660139087 0 0 0
2442 1 25.68086148636367 17.508937518975785 32.31322145763208 0 0 0
2728 1 27.35402010964242 17.727864466986787 30.10161227693439 0 0 0
1472 1 13.839334212801553 4.080746805423078 34.544571503199094 0 0 0
1474 1 15.419151932911017 4.145121904969914 36.93913467666063 0 0 0
1760 2 17.137205233297838 4.194144743677785 34.75755472006226 0 0 0
1762 1 18.869326076176346 4.118910701678725 37.00963289374796 0 0 0
2048 1 20.393477752403314 4.034073435391054 34.58662019204786 0 0 0
2050 1 22.162990914683984 4.041739636504111 36.87393190512495 0 0 0
2336 1 23.869690185402877 4.036730897870845 34.63466975115048 0 0 0
2338 1 25.608847046634523 4.042677804895288 36.987774037054194 0 0 0
2624 1 27.27875376967115 3.887391996835074 34.70338856152783 0 0 0
1471 1 15.537451440020352 6.372167951180898 34.79294165600558 0 0 0
1509 1 13.779374336475605 6.47752411595237 36.992636415441865 0 0 0
1797 2 17.20730844435276 6.336813360396084 36.90825137125347 0 0 0
1759 1 18.880626787412105 6.427286888638488 34.662960222565886 0 0 0
2085 1 20.49319202061657 6.422971928354947 36.90920335942401 0 0 0
2047 1 22.242933138559565 6.190788986428788 34.75030278965906 0 0 0
2373 1 24.03748636564198 6.251606848259098 37.13416489994461 0 0 0
2335 1 25.405999101707472 6.220445581037374 34.50238474529432 0 0 0
2661 1 27.068061483436253 6.363636691999807 36.98445851909571 0 0 0
1508 1 13.954435578862434 8.685168230643772 34.713520859650444 0 0 0
1510 1 15.571993890469134 8.749338560499904 36.94241425400709 0 0 0
1507 1 15.54513196244125 11.012780003081676 34.71556221408309 0 0 0
1545 1 13.685753501468884 10.91855020549915 36.89585276282993 0 0 0
1796 1 17.07454011934939 8.586218458710867 34.74241942897851 0 0 0
1833 1 17.326801888465464 11.016520631349412 37.083420435282406 0 0 0
1795 1 18.82221702393188 10.838192264011921 34.70013456334655 0 0 0
1798 1 18.797314642275918 8.669746200698848 36.81357070986179 0 0 0
2084 2 20.561762641343027 8.62719744529636 34.67812950088944 0 0 0
2121 2 20.72612128021899 10.940813446320458 36.932410859558075 0 0 0
2083 1 22.35649083218769 10.750985028671698 34.50267841940122 0 0 0
2086 1 22.21896112546452 8.551518831808224 36.970144135554165 0 0 0
2372 1 23.816646097251947 8.448315415407476 34.5415156469915 0 0 0
2409 1 23.910708507969332 10.837395944971494 36.96998131468942 0 0 0
2660 1 27.08735036133258 8.379090563911834 34.693191864402166 0 0 0
2374 1 25.452682452089718 8.493838535293346 36.86116082667532 0 0 0
2371 2 25.592942122972776 10.768938059784828 34.619304628158886 0 0 0
2697 1 27.086802048196443 10.860714796311093 36.968804973285984 0 0 0
1544 1 13.722833144805275 13.021154914634772 34.66014341906164 0 0 0
1546 1 15.472956334672418 13.201769245261605 37.00120416991797 0 0 0
1832 1 17.311765884201787 13.208345914622525 34.840907222142604 0 0 0
1834 1 19.09763733963654 13.146164078410209 37.12962464127547 0 0 0
2120 1 20.616225785793233 12.975985816899241 34.79940851273268 0 0 0
2122 1 22.212967148354746 13.173553669377911 36.976989253924486 0 0 0
2408 1 23.89277122308974 13.002957492062917 34.792947234207716 0 0 0
2410 1 25.59117788703207 13.203864074687104 36.983614776647045 0 0 0
2696 1 27.28501934572953 13.066470179837902 34.609980310628956 0 0 0
1543 1 15.350675169599196 15.45620007269668 34.57486326462519 0 0 0
1581 2 13.726890616668285 15.47099930007871 36.92915449493901 0 0 0
1831 1 18.962231574416496 15.458697074394538 34.662503339998466 0 0 0
1869 1 17.241093389424258 15.52957023872866 36.904203581264696 0 0 0
2157 1 20.542157396785335 15.608699770466211 36.981588654219294 0 0 0
2119 1 22.18370897361831 15.474324054765171 34.65732084031889 0 0 0
2445 1 23.888371851978782 15.48282132198868 37.02284787274847 0 0 0
2407 2 25.571089404663006 15.338186676395564 34.63279549637666 0 0 0
2733 1 27.441096057298438 15.402031466205857 36.93294211312809 0 0 0
1580 1 13.82444077593803 17.732931641086573 34.777176641589804 0 0 0
1617 2 13.797593481620652 19.8261481740299 36.92481882218543 0 0 0
1579 1 15.477786046823976 19.951821372218742 34.54531451269449 0 0 0
1582 1 15.487078621171296 17.63021353267392 36.902940857301644 0 0 0
1868 1 17.13046193052637 17.736921388842767 34.6005542390337 0 0 0
1905 1 16.9945690009605 20.138564756392334 36.961818977280885 0 0 0
1867 1 18.610360706855822 20.13028977244339 34.55260448698911 0 0 0
1870 1 18.57003380740497 17.800537353563016 36.98962081950255 0 0 0
2156 1 20.43749092260303 17.74861307923687 34.69698604584207 0 0 0
2193 1 20.515073540465707 19.933402816669698 36.84556457425663 0 0 0
2158 1 22.365243460338824 17.718579738343962 36.86736181364397 0 0 0
2155 1 22.076391564194612 20.04145127172919 34.53906133796583 0 0 0
2444 1 24.120504748859 17.742172766743575 34.579495726919674 0 0 0
2481 1 24.028002754951245 20.005967693994123 36.75708163658605 0 0 0
2446 1 25.68586027281057 17.705233789914693 36.98383717393526 0 0 0
2732 1 27.198248175054882 17.46331328321009 34.64915911843981 0 0 0
2443 1 25.922967947358657 19.938148528785618 34.50989365758262 0 0 0
2769 1 27.28126458113637 19.979401389389686 37.22729572671631 0 0 0
1476 1 13.862717748158108 4.178429412770922 39.16836759902415 0 0 0
2413 1 23.839246435587864 15.53650450059399 41.35578124879892 0 0 -1
1764 2 17.043833831510174 4.000917102192762 39.25668516444017 0 0 0
2052 1 20.574530499378234 4.0645929331278 39.18315539846138 0 0 0
2340 1 23.949288757358524 4.157921290316535 39.23448270950921 0 0 0
1584 1 13.900620002454033 17.58821354346019 39.21025394977394 0 0 0
2628 1 27.288264013021394 4.206991557568616 39.28221408320664 0 0 0
1583 1 15.370695142746136 19.898442309201315 39.20199579655403 0 0 0
1475 1 15.648967925349059 6.356946751378613 39.13477799418483 0 0 0
2736 1 27.426375560393787 17.75776009646409 39.16518611830553 0 0 0
1763 1 18.665535479263017 6.301934255500539 39.26425379259442 0 0 0
1801 2 17.268022384758407 11.045613999094405 41.40831114642758 0 0 -1
1838 2 18.9490298665004 17.805735722892145 41.404194033760845 0 0 -1
2051 2 22.186099028579278 6.4062871975759155 39.211018534585335 0 0 0
2339 1 25.6160334445596 6.349789787727128 39.47703793565273 0 0 0
1512 1 13.653674529150265 8.712098846193701 39.020024800616085 0 0 0
1511 1 15.368239656470585 11.052395677823332 39.241239455157 0 0 0
2447 1 25.428764387115585 19.96403090333123 39.213000284159776 0 0 0
1872 1 17.22424525814885 17.735417408828965 39.22136595672572 0 0 0
1800 1 17.274586917777967 8.849660110918162 39.17981717838764 0 0 0
1799 1 19.085340542476416 10.866470919846863 39.16548013387521 0 0 0
2126 1 22.033217656489608 17.593121247044287 41.323242839704946 0 0 -1
2159 1 22.32230493080807 19.927717195379344 39.18803441316872 0 0 0
2088 1 20.352560096578976 8.589828087437894 39.24983908336581 0 0 0
2087 1 22.305367961298963 10.85323613047377 39.2297685168806 0 0 0
2376 1 24.004157708694468 8.60726232133731 39.38776186588093 0 0 0
2160 1 20.654729831973754 17.800326485915036 38.919286646732886 0 0 0
2664 1 27.0978365944117 8.697353962520623 39.292563265870186 0 0 0
2375 1 25.56414270268672 11.010016660611745 39.29126934109223 0 0 0
1548 1 13.826746950580482 13.185212935451895 39.30365667202739 0 0 0
2161 1 20.715434394732466 19.975052193432663 41.3407498761631 0 0 -1
1836 1 17.314278132556378 13.073102355988128 39.25520183601084 0 0 0
2124 1 20.71045988191565 13.255932871578278 39.33368311407513 0 0 0
2412 2 23.78881318339415 13.279881873094373 39.188516284714495 0 0 0
2448 2 23.925232045001735 17.6076930066317 39.22588778333285 0 0 0
2700 1 27.34808835878816 13.172452628495956 39.364670880704125 0 0 0
1547 1 15.542715464122562 15.34326263476086 39.20552403721912 0 0 0
1835 1 18.89814075035551 15.504398254479733 39.30491939402032 0 0 0
1871 1 18.94839364360572 20.028319227249472 39.174328662292766 0 0 0
2123 1 22.184021522611456 15.513748876190027 39.10283885430239 0 0 0
1730 1 18.85068752201504 4.139437446385271 41.369833175668205 0 0 -1
2411 1 25.669723158834834 15.593006362585015 39.19045012437414 0 0 0
1514 1 15.63484664987616 13.184625124466205 41.37144790422264 0 0 -1
1550 1 15.482031364270092 17.768798819089163 41.41520490454829 0 0 -1
1873 1 17.211998815293654 19.999541839174757 41.35119235276049 0 0 -1
2018 1 22.225456819242094 4.167533973383332 41.38818274175201 0 0 -1
1588 1 13.778768185211206 22.144507203942748 3.000206871332899 0 0 0
1876 1 17.132453267810444 22.19469894529148 3.0299859957894895 0 0 0
2164 1 20.4240783190408 22.342535799581015 2.8588060782539606 0 0 0
2452 1 23.79289662322749 22.36590801291224 2.914450978986166 0 0 0
2740 1 27.248214946824 22.149715307653707 2.9260327034796894 0 0 0
2563 1 25.583366021159403 38.021404622476204 7.555578368829342 0 0 0
1587 2 15.493194808553799 24.45321265880687 2.8894407983819215 0 0 0
1875 1 18.690819136771978 24.558808146138524 3.0104401149602102 0 0 0
2163 1 22.19233371581369 24.57672706361786 2.726339158099744 0 0 0
1622 1 15.428931336983084 26.689544090497513 0.8572128306896912 0 0 0
2451 1 25.584294842297567 24.466678733171612 3.0180065453520872 0 0 0
2773 1 27.311122710931627 24.42111560411965 0.8280241550146873 0 0 0
1624 1 13.790342258347092 26.74762033697604 3.0205451269143238 0 0 0
1623 2 15.472586467209698 29.02437989745715 3.132138960154249 0 0 0
1586 1 15.427553248164656 22.243757378890873 0.7581093849035067 0 0 0
2597 1 27.254310082604654 38.124782326163995 5.2560979443078075 0 -1 0
1912 1 17.043596004328553 26.773552133792865 3.1299792070714947 0 0 0
1911 1 18.8858762032184 28.994001556415437 2.915587146736803 0 0 0
2558 1 25.732500129540345 35.87931814097113 0.7217647246557107 0 0 0
2200 1 20.51884494905632 26.893203238865908 2.7784259275783842 0 0 0
2199 2 22.341725383392887 29.010070712844122 2.9115877783946793 0 0 0
2021 1 20.508934603391484 38.02191717999887 5.305975228835927 0 -1 0
1733 1 17.08362885977448 38.185165931457306 5.114511580434382 0 -1 0
2488 1 24.08572909242791 26.843166772915566 2.996264343819246 0 0 0
2776 1 27.343969422387275 26.79832432825248 2.9339625351445853 0 0 0
2487 1 25.637993670280718 29.030525775815157 2.967447150545921 0 0 0
1987 1 18.717100268458687 38.028224028553346 7.480882340593005 0 0 0
2562 1 25.529888474802494 35.7587869757051 5.205904519178302 0 0 0
1660 1 13.77332234491102 31.397510422104 2.9986695620064023 0 0 0
1948 1 17.218236158222066 31.26333567257639 2.7539540596467527 0 0 0
2450 1 25.55478617913408 22.135306234448592 0.7229619231331822 0 0 0
2236 1 20.517639831194156 31.168027885248293 2.8015909261655745 0 0 0
2852 1 27.39678397674478 35.84669915747706 7.502666571985684 0 0 0
2524 1 23.863938016666857 31.271865229138047 3.0020808078035635 0 0 0
2812 1 27.47106849016797 31.262124132695487 2.809520283793784 0 0 0
2275 2 22.236658911143795 37.99111124081321 7.566269383806609 0 0 0
1659 1 15.588110821791894 33.5076397272139 2.8580027053984063 0 0 0
1947 1 18.944844257099643 33.50746243975763 2.8304293067778445 0 0 0
1441 1 13.667763280775507 38.21633634770628 0.7604355592122882 0 -1 0
2235 1 22.110178239912297 33.48710843280337 2.914741200117793 0 0 0
2274 1 22.204639371622577 35.86653366633643 5.25347339390388 0 0 0
2523 1 25.7423986013628 33.45162443089435 2.9862044560748737 0 0 0
1988 2 17.285082821058324 35.71422417413811 7.524491392376166 0 0 0
1696 1 13.891791385283906 35.78282739911998 2.864599033290221 0 0 0
1695 1 15.490138993420548 38.182172166942586 2.738005793305273 0 0 0
1984 1 16.928755109743385 35.75678022146006 2.921184777485813 0 0 0
2564 1 23.709493469308796 35.81763291702795 7.507738342968102 0 0 0
1983 1 18.76350139806245 38.01415674124426 3.0305870449370444 0 0 0
2272 1 20.551555706284507 35.8041562963391 3.0308826196864103 0 0 0
1986 1 18.747283759720084 35.86015373049541 5.201094100022677 0 0 0
2560 1 23.919092730297617 35.81685772939996 2.8940330922608064 0 0 0
2271 1 22.126325632455018 38.11042291656717 3.016042316220748 0 0 0
1699 1 15.53071245433625 38.20520160615573 7.635825693181522 0 0 0
2309 1 23.862180800195958 38.05325446255504 5.2511402336773365 0 -1 0
2559 1 25.64287401182479 38.29527924880628 2.972829570493283 0 0 0
2848 1 27.261069349264396 35.801397274311384 3.186693150962303 0 0 0
2276 1 20.483691098810684 35.77276754011957 7.410922054893222 0 0 0
1590 1 15.4160760880741 22.21485407785327 5.275787221982208 0 0 0
1592 1 13.861632950762033 22.120165305680594 7.547455906060751 0 0 0
1880 1 17.2165294861359 22.233286465251087 7.429255266374765 0 0 0
1878 1 18.92616973074306 22.377954320319947 5.130229868650254 0 0 0
2168 1 20.481157238732653 22.30446071912299 7.537657428698023 0 0 0
2166 1 22.04810601110113 22.129195457525615 5.186940210588843 0 0 0
2456 1 23.91182064444578 22.25510426881091 7.494247865889283 0 0 0
2454 1 25.234478149779086 22.385450290418927 5.195069294103552 0 0 0
2744 1 27.138567087384878 22.312885523675735 7.450813395250127 0 0 0
1591 1 15.335145718517886 24.40027202233456 7.523175966690866 0 0 0
1625 1 13.911215996589398 24.45539755932007 5.35936500974052 0 0 0
1913 1 17.117999100642876 24.527767176053572 5.274566819314891 0 0 0
1879 1 19.02923026226538 24.50210165202902 7.5397578724746195 0 0 0
2201 1 20.63667058772019 24.544829924856387 4.991275458895669 0 0 0
2167 1 22.097741353631687 24.648889129716917 7.4585718504568135 0 0 0
2489 2 23.688905266982587 24.624767910232357 5.002436163736286 0 0 0
2455 2 25.542147916975033 24.61664570770115 7.364505253071413 0 0 0
2777 1 27.37275811357783 24.434931094455653 5.1614090927411755 0 0 0
1628 2 13.770144774061222 26.82163342335896 7.480601774001849 0 0 0
1626 1 15.460409100574946 26.920366595574567 5.254443654091421 0 0 0
1627 1 15.488037858612813 29.06475017791868 7.572596462080308 0 0 0
1661 1 13.800555197437692 28.938290978989677 5.240882771878169 0 0 0
1916 1 17.23772074417163 26.566138897714875 7.435850413829256 0 0 0
1914 1 18.92045735458716 26.709960462370663 5.257819505577674 0 0 0
1915 1 18.558893094218014 28.996881771935357 7.472491767454319 0 0 0
1949 1 17.220725035670867 29.04632964140929 5.088136375582513 0 0 0
2204 2 20.51017601379339 26.957658315521357 7.459778432292301 0 0 0
2237 1 20.324530316125692 29.132840446049503 5.149466525250422 0 0 0
2202 1 22.101819471880507 26.90115613875945 5.0840951121366595 0 0 0
2492 1 23.798553437569304 26.720803094362193 7.374864778571852 0 0 0
2203 1 22.35897092877087 29.02109759199999 7.342851851125758 0 0 0
2525 1 24.040088392207597 29.13083526621409 5.143509100835801 0 0 0
2780 1 27.400818775936962 26.793425649310066 7.422342086122711 0 0 0
2490 1 25.695005993448774 26.735117008110702 5.21165354063937 0 0 0
2491 1 25.65046414088662 28.904797411046303 7.452019177367092 0 0 0
2813 1 27.407214443493963 28.976927980668776 5.158042909013768 0 0 0
1664 2 13.704414197694415 31.016681086913138 7.391832166692892 0 0 0
1662 1 15.406602907517314 31.150545945343517 5.164041751669518 0 0 0
1952 1 17.056825971329502 31.3238114361619 7.415027459440539 0 0 0
1950 1 18.75870710661526 31.271682888028298 5.093697629804126 0 0 0
2240 2 20.48451516199937 31.00091387211885 7.389021201247743 0 0 0
2238 1 22.25124095976891 31.22836727032518 5.1345228649133805 0 0 0
2528 1 23.8912480031225 31.344641916613607 7.405576378245746 0 0 0
2816 1 27.29994106379837 31.26431199037781 7.466070267646609 0 0 0
2526 1 25.661290919965847 31.327553339333626 5.201989859711088 0 0 0
1697 1 13.719953245754496 33.577643928325614 5.157128819634011 0 0 0
1663 1 15.331232720707249 33.53845366678834 7.516007178412007 0 0 0
1985 1 17.216327661031023 33.57397496230624 5.3328073512252745 0 0 0
1951 1 18.906446248105965 33.44846568420185 7.611629612701314 0 0 0
2273 2 20.449239949200933 33.51252986990383 5.128296998856077 0 0 0
2239 1 21.934408023064936 33.41206914378536 7.329626038832844 0 0 0
2561 1 23.890047532233947 33.56582725857646 5.197249973190908 0 0 0
2527 1 25.596910288074582 33.41603157904491 7.420218642801155 0 0 0
2849 1 27.447920821200547 33.601462637094116 5.310422033496006 0 0 0
1698 1 15.519721905881767 35.776684504344345 5.205653398328745 0 0 0
1445 1 13.959676180149472 38.142491962980856 5.36833411305518 0 -1 0
1700 1 13.792284030006162 35.7193547445833 7.345937621211778 0 0 0
2593 1 27.35675278571237 38.168457613861314 0.7787939052059785 0 -1 0
2557 1 23.944511539874803 33.57264652441144 0.7242997807278265 0 0 0
2305 1 23.888565819643016 38.122075481392024 0.7239683927878673 0 -1 0
2162 1 22.15528291112681 22.35714242729166 0.7244768492875124 0 0 0
2522 1 25.51976822548433 31.23779478452094 0.7577422397022957 0 0 0
1594 1 15.504674435889456 22.252471575518012 9.794479713218168 0 0 0
1596 1 13.9535061787474 22.21152346024086 12.114819208558309 0 0 0
1884 1 17.10494777029686 22.284028023032647 12.031839793006858 0 0 0
1882 1 18.826857749818917 22.380557104244534 9.753822830948213 0 0 0
2172 1 20.45860190242921 22.174141867809425 12.110886986724937 0 0 0
2170 1 22.15956021562408 22.303905513884004 9.806713683117135 0 0 0
2460 1 23.83493825972305 22.187174140019717 12.042137116736733 0 0 0
2458 1 25.42450085734403 22.235562666989512 9.796443618308126 0 0 0
2748 1 27.246189123068202 22.257736194434173 11.90837031900928 0 0 0
1595 1 15.451729396309982 24.464338814663876 11.989738767220832 0 0 0
1629 1 13.734731045429026 24.562741033400386 9.746810261166853 0 0 0
1883 1 18.79890334966066 24.597155882514745 11.988648685085264 0 0 0
1917 2 17.140476100222635 24.547427705003425 9.635412183542643 0 0 0
2205 1 20.489639872179954 24.560854986518137 9.793574221240846 0 0 0
2171 1 22.158589526477407 24.433380835821293 12.160157228580863 0 0 0
2493 1 23.858902733611504 24.538048617264796 9.671160999291889 0 0 0
2459 1 25.538382878669697 24.486342933685048 11.979731407453425 0 0 0
2781 1 27.188299158143895 24.491420743128426 9.703956465106078 0 0 0
1632 1 13.783867547739625 26.66984716074534 12.05060596244002 0 0 0
1630 1 15.553377026173177 26.71607732205029 9.634476819237186 0 0 0
1631 1 15.348482694426941 28.972932582759352 11.849990862015979 0 0 0
1665 1 13.615960439021165 28.936033777358606 9.704949116452703 0 0 0
1920 1 17.09367168690395 26.89401643064535 12.027836728674336 0 0 0
1953 2 17.155770271376646 29.117592465209114 9.77927224712519 0 0 0
1919 1 18.822307716905318 29.137905979804724 11.98406969600248 0 0 0
1918 1 18.919879298335147 26.840479498209856 9.807549362481291 0 0 0
2208 1 20.481769927789635 26.81633166114799 11.945650358273623 0 0 0
2241 1 20.467141166340756 29.10380140895201 9.580797993705414 0 0 0
2496 1 23.869081070400668 26.728928233126684 11.923506018671196 0 0 0
2206 1 22.1352284025851 26.796327015829014 9.74396225520492 0 0 0
2207 1 22.19414945989866 29.083636193113463 11.93537958736179 0 0 0
2529 1 23.837274840833285 29.144691824305085 9.572478114058743 0 0 0
2784 2 27.15073950872984 26.64569257422652 12.06301632075233 0 0 0
2494 1 25.615233820720125 26.712290260515985 9.642367571173432 0 0 0
2495 1 25.514107756612812 28.987361375805314 11.958880536433574 0 0 0
2817 2 27.17826752416229 29.05474317064992 9.691036786380522 0 0 0
1668 1 13.816757785710646 31.220958794270075 12.130678625285547 0 0 0
1666 1 15.253077058032911 31.275116117297102 9.679672330905673 0 0 0
1956 1 17.074033763896768 31.26254787359442 11.895528298214867 0 0 0
1954 1 18.76941053059627 31.28207546068037 9.663724913745925 0 0 0
2244 1 20.572915296209096 31.5201650211223 11.81491025527102 0 0 0
2242 1 22.216124425715222 31.301185569547997 9.614628876890519 0 0 0
2532 1 23.82828101849812 31.381867955329867 11.885508521662064 0 0 0
2530 1 25.643354116543968 31.4578193228749 9.678713051458198 0 0 0
2820 1 27.1266574016576 31.175391157843194 12.010953776274828 0 0 0
1701 2 13.772018401799151 33.712602698885554 9.915970184194826 0 0 0
1667 1 15.39307225861295 33.356875111526136 12.141194466065462 0 0 0
1989 1 16.986636915728685 33.615291058844285 9.723588400202063 0 0 0
1955 1 18.75432427255785 33.575136505585846 11.917326450104158 0 0 0
2277 2 20.558958411320678 33.5999001947726 9.815397703214902 0 0 0
2243 1 22.25035304990589 33.68804327690893 11.942758267524354 0 0 0
2565 1 23.896215118038103 33.64776644641533 9.468374834449715 0 0 0
2531 1 25.622461863862057 33.38979967168706 11.797753324091264 0 0 0
2853 1 27.56082953532393 33.53100331533757 9.796836259090087 0 0 0
1704 1 13.778720860073786 35.75981509442703 12.143692189690093 0 0 0
1449 2 13.78466738779338 38.08258426650179 9.693124938120597 0 -1 0
1703 1 15.31905212811574 38.22298064287691 12.029821238126544 0 0 0
1702 1 15.395097028514606 35.92501743396563 9.667891482082902 0 0 0
1992 1 17.02316317733395 35.756089285082034 11.862134629018486 0 0 0
1737 1 17.067314790195617 37.986440417296684 9.864565321740606 0 -1 0
1991 1 18.723697680400694 38.119938447100274 12.093292954389385 0 0 0
1990 1 18.78482862387739 35.72161622219393 9.761655817987686 0 0 0
2280 1 20.54181697789873 35.772776480243174 11.994289909316937 0 0 0
2025 1 20.322597474256476 38.00625877153569 9.68307750647149 0 -1 0
2279 1 22.161872627389567 37.98594980573323 12.137524109743714 0 0 0
2568 1 23.814976082131405 35.8385953664404 12.062589464771948 0 0 0
2278 1 22.139259446993982 35.90951690344623 9.80948787745893 0 0 0
2313 1 23.888727726657187 38.04938737087247 9.827455925573474 0 -1 0
2856 1 27.384490245391135 35.63902123263311 11.895595074272485 0 0 0
2566 1 25.696873504944172 35.802565560509585 9.715979059854279 0 0 0
2567 2 25.692383339905497 37.877771121753455 12.036333381397188 0 0 0
2601 1 27.35401294124877 38.17458393027107 9.731883068162551 0 -1 0
1598 1 15.621546168158751 22.16935002793991 14.376081004450766 0 0 0
1600 1 13.674108620792868 22.128084399149344 16.51641152172298 0 0 0
1888 1 17.278386171554473 22.133112223535527 16.573279575351222 0 0 0
1886 1 18.8119900650508 22.183158431186765 14.321048176329521 0 0 0
2176 1 20.425595657639395 22.152454243235432 16.618309899194372 0 0 0
2174 1 22.17840431408675 22.151388530226818 14.386832908816505 0 0 0
2464 1 23.969862615217526 22.116050352832456 16.587874872962693 0 0 0
2462 1 25.680719098663566 22.034663179687854 14.36581324708194 0 0 0
2752 1 27.35777882925072 22.298935498458718 16.452395137880753 0 0 0
1599 1 15.618890687590017 24.279085533511957 16.600456478550164 0 0 0
1633 1 13.865325197200871 24.34106870458561 14.384630500588578 0 0 0
1887 2 18.825322387744134 24.570974256941344 16.65460471243174 0 0 0
1921 1 17.197398481077876 24.354849499896424 14.234574483711853 0 0 0
2209 1 20.51306493672353 24.449935507807194 14.468397998493296 0 0 0
2175 1 22.279772442630666 24.50980646155352 16.470439809043285 0 0 0
2497 1 23.936536389592167 24.380708611006316 14.339781745349804 0 0 0
2463 1 25.527173721076 24.465403152646722 16.539401475903084 0 0 0
2785 1 27.090136207078867 24.535079873834015 14.23393062099843 0 0 0
1636 1 14.041583907412281 26.592103631480242 16.587934131660397 0 0 0
1669 1 13.70863563008188 28.99495114175442 14.301922842661753 0 0 0
1634 1 15.549420336840306 26.613850957524033 14.23826027306779 0 0 0
1635 1 15.397310637298219 29.109855660408417 16.526992223449007 0 0 0
1924 1 17.102766445797343 26.707593222677108 16.525807073357914 0 0 0
1922 1 18.940737479701465 26.647958566120028 14.278585924043444 0 0 0
1957 1 17.221541737737123 29.044031184217545 14.266737794145605 0 0 0
1923 1 18.922396134517225 29.03351703684824 16.47769843374064 0 0 0
2212 1 20.552704409372527 26.68102592790351 16.420566608985894 0 0 0
2245 1 20.50631441025292 28.923988998927335 14.233757623201173 0 0 0
2210 1 22.238501964173537 26.724552498842044 14.215757734475662 0 0 0
2500 1 23.878701285635525 26.740815350443 16.45318607950268 0 0 0
2211 1 22.12215517852894 28.941159823517083 16.589003279859497 0 0 0
2533 1 23.66664362587249 29.049730276299492 14.299689537498583 0 0 0
2788 1 27.14950610191445 26.798590571590157 16.572705360025076 0 0 0
2498 1 25.432860214698643 26.862380835361396 14.30367313352174 0 0 0
2499 2 25.48633921542248 29.036922814918782 16.325585106610546 0 0 0
2821 1 27.17186290417053 28.934400781585133 14.129292947986299 0 0 0
1672 1 13.851571285470698 31.28885829156295 16.479617753790922 0 0 0
1670 1 15.477350701036464 31.305744568866512 14.27634619110031 0 0 0
1960 1 17.37366187288584 31.37740598332066 16.535586302988456 0 0 0
1958 1 18.933928825171936 31.41627131185673 14.169548279537887 0 0 0
2248 1 20.489411192548463 31.29798931938589 16.514554282505408 0 0 0
2246 1 22.10903610871475 31.440948827576605 14.191484780294754 0 0 0
2536 1 23.6888456157032 31.203658255102443 16.417811516803468 0 0 0
2534 1 25.3567632523444 31.183913452184402 14.090625046848684 0 0 0
2824 1 27.29482001931158 31.140983818234506 16.28701369644325 0 0 0
1705 1 13.66261514900306 33.4984078019594 14.3086055480692 0 0 0
1671 1 15.441894337772453 33.53773904800393 16.50916768211283 0 0 0
1993 1 17.205091153925096 33.589460944128646 14.203199664810375 0 0 0
1959 1 18.658809469720765 33.604838138410884 16.42836382367757 0 0 0
2281 1 20.569029753386918 33.61755503384896 14.175816405175963 0 0 0
2247 1 22.178444992920024 33.5360903749416 16.536285031548672 0 0 0
2569 1 23.929293646685736 33.58248908116916 14.24272316127106 0 0 0
2535 1 25.687268226334876 33.508296012110506 16.36125395446616 0 0 0
2857 1 27.079782661976083 33.3984290566887 14.017941620114147 0 0 0
1453 2 13.676798667472667 38.18643599759298 14.271732500950954 0 -1 0
1708 1 13.77856349009668 35.88532706188388 16.40252246130322 0 0 0
1706 1 15.473734418737873 35.83089428766759 14.315630067840862 0 0 0
1707 1 15.529210226710877 38.13595732467576 16.487131020215124 0 0 0
1996 1 17.159336126846906 35.86135304470519 16.553873302804078 0 0 0
1741 1 17.16182944646278 38.284813152695584 14.280977031970394 0 -1 0
1995 1 18.79010973500813 38.098868742604964 16.503767665941417 0 0 0
1994 1 18.772273455692037 35.82593962022873 14.299909308322476 0 0 0
2284 1 20.445631947350858 35.82315759187236 16.565574760239073 0 0 0
2029 1 20.522731663671077 37.9634863522219 14.3109243421596 0 -1 0
2282 2 22.11359921141485 35.84379401092701 14.240144298366529 0 0 0
2283 1 22.28773256225896 37.968699878392975 16.440096877566283 0 0 0
2572 1 23.908155266773516 35.75005799663838 16.543356275603628 0 0 0
2317 1 23.98842679089761 38.05052644231345 14.326106215300262 0 -1 0
2860 2 27.274113226696574 35.784424128678616 16.43178678167218 0 0 0
2570 1 25.639557070123974 35.82713391807997 14.154505423218144 0 0 0
2605 1 27.405666800435114 38.132243547511976 14.360779418039344 0 -1 0
2571 1 25.603382702334805 37.99274164660859 16.51401408665062 0 0 0
1602 2 15.44239681939278 22.172600842162076 18.656367577703296 0 0 0
1890 1 18.871767560815396 22.041524511922255 18.862330550640262 0 0 0
2178 1 22.141216445262106 22.07823336274299 18.76438427886801 0 0 0
2468 1 23.926121712948497 22.26123414611532 21.030842233383343 0 0 0
2466 1 25.773156358621605 22.21737059681092 18.727039190207837 0 0 0
1637 1 13.899178352009852 24.546917619529445 18.70830123997902 0 0 0
1925 1 17.17719251470515 24.212497715373548 18.889137092344598 0 0 0
2213 1 20.580931307138076 24.265590679022395 18.810926005808177 0 0 0
2179 1 22.27628790614219 24.388981787405427 20.987450501972045 0 0 0
2501 1 23.897813710916395 24.369746811075895 18.644591976726094 0 0 0
2789 1 27.275613833211505 24.561734613871995 18.69063663867823 0 0 0
1638 2 15.49999137224988 26.727795094350583 18.950760566745032 0 0 0
1673 1 13.852974492237252 29.023245466335762 18.779814122191958 0 0 0
1926 1 19.037782038384364 26.64015116790954 18.735180681236674 0 0 0
1961 1 17.208564755240417 28.898778240351632 18.64333424265297 0 0 0
2249 1 20.630784778136775 28.866025402112644 18.856297815483522 0 0 0
2214 1 22.2271815489619 26.710098782087716 18.71006960318419 0 0 0
2537 1 23.82432453430466 28.98294203499667 18.645706743378426 0 0 0
2504 1 23.856229718321842 26.7416509561681 20.951970357113225 0 0 0
2502 1 25.54146006305552 26.72261981902022 18.80134193365354 0 0 0
2825 1 27.11143075727879 28.91191780702395 18.823301724894378 0 0 0
2503 1 25.535276505207623 28.88486063770115 21.114501136373832 0 0 0
2792 1 27.36711867713691 26.72105681157141 20.855208344290602 0 0 0
1674 1 15.684148156594713 31.29960116818173 18.74112533568432 0 0 0
1962 1 18.89780649088202 31.24234265917917 18.92474853389143 0 0 0
2250 1 22.12858150492071 31.299332922125178 18.945519754065934 0 0 0
2538 1 25.581961991451212 30.993338374041194 18.51821876056494 0 0 0
1709 2 13.85017445768851 33.64064681995755 18.837607144582332 0 0 0
1997 1 17.12460970971565 33.62927596451412 18.748871237877804 0 0 0
2285 1 20.372108561163063 33.52745693452172 18.75555920237999 0 0 0
2573 1 24.031470327314544 33.53953830404089 18.685360917932144 0 0 0
2251 1 22.028073258788446 33.3816474837627 20.873118022886135 0 0 0
2861 1 27.27111924536716 33.51420135417481 18.6870856310252 0 0 0
1457 1 13.75195396730232 38.10992524688285 18.816635303404023 0 -1 0
1710 2 15.34389668283897 35.78985279494019 18.714092091878506 0 0 0
1711 1 15.481777046075162 37.921768393328975 21.049786165817235 0 0 0
1712 1 13.77930026325187 35.694687065084835 21.04908454860363 0 0 0
1745 1 17.048883784771107 38.115253273423455 18.74573694814957 0 -1 0
1998 1 18.783316842888304 35.82666450483421 18.806012599520546 0 0 0
1999 1 18.931581718594867 37.970716761580114 21.028621529927804 0 0 0
2033 1 20.394136344478703 38.337750329934735 18.64933612722788 0 -1 0
2288 1 20.588520030325217 35.87564479301646 20.934994998064347 0 0 0
2287 1 22.166187828974437 37.99564307675354 20.954432677726107 0 0 0
2321 1 23.825126231912275 37.950597693843456 18.783005884405558 0 -1 0
2286 1 22.084892600231782 35.716663089239326 18.708515734955434 0 0 0
2576 1 23.791970293857673 35.60124938446843 20.981979149783907 0 0 0
2574 1 25.5704141911426 35.77827561727657 18.84340179785676 0 0 0
2864 2 27.234832925739063 35.841225073655096 21.081732007264787 0 0 0
2609 1 27.120113088719524 38.113067005131995 19.021808559316824 0 -1 0
1604 1 13.908872507951234 22.075626473612157 21.164676633900946 0 0 0
1606 1 15.71078421366072 22.127683506407216 23.38321237122083 0 0 0
1892 1 17.07408639312582 21.99192720256354 20.977858843578964 0 0 0
1894 1 18.81882145473059 22.093668368922064 23.29308274146531 0 0 0
2180 1 20.57089062444913 22.029336503716653 21.186750491955753 0 0 0
2182 1 22.300858304028935 22.152148696668643 23.272300481684766 0 0 0
2756 1 27.33365354475556 22.053484487559295 21.062955716144316 0 0 0
2470 1 25.55764646309264 22.359278026971708 23.36792725925788 0 0 0
1603 1 15.45459321564115 24.32387302680522 21.0512291942785 0 0 0
1641 1 13.936407345782214 24.577621125778165 23.34419156177288 0 0 0
1891 1 18.859828153437793 24.32740446507063 21.073316562454657 0 0 0
1929 1 17.270076883848667 24.43197373586932 23.474780544295918 0 0 0
2217 1 20.789690742493264 24.49028977233727 23.15984430588328 0 0 0
2505 1 23.78456863786515 24.49003532547323 23.350273084583755 0 0 0
2467 1 25.521508207184134 24.478251383566324 20.974506866012526 0 0 0
2793 1 27.348757080124766 24.447734338782077 23.20519996396407 0 0 0
1640 1 13.664957191457916 26.654900058165854 21.10737624197904 0 0 0
1639 1 15.532506472328503 28.810341238130956 21.02018157520176 0 0 0
1642 1 15.64497418109881 26.775752076208075 23.328756839556963 0 0 0
1677 1 13.729909227676625 28.9248918830592 23.169604018889057 0 0 0
1928 1 17.291848277888114 26.572268737796435 20.92309842692987 0 0 0
1927 1 18.674081573528476 28.90072085085828 20.99106534977316 0 0 0
1965 1 17.253708497153365 28.86322664664048 23.38107281274867 0 0 0
1930 1 18.851845486412735 26.51434705495642 23.29347665804099 0 0 0
2216 1 20.589214208087682 26.71852335691588 20.99511712984342 0 0 0
2253 1 20.425221415074205 29.00477706125034 23.29094849058879 0 0 0
2215 2 22.16643181081617 28.964318347093652 21.141765473397378 0 0 0
2218 1 22.1937495709901 26.82556976142596 23.290290340918727 0 0 0
2541 1 24.074288579168357 29.119545053602668 23.358261357761602 0 0 0
2506 1 25.68126973842418 26.61065007425486 23.25531034531378 0 0 0
2829 1 27.44124808397014 29.14826742147082 23.142133118703068 0 0 0
1676 2 13.876975231717747 31.300175921013665 21.176445381035716 0 0 0
1678 1 15.536697281646365 31.092452559769225 23.43902477832564 0 0 0
1964 1 17.086186602185 31.219887915421555 21.276380883874694 0 0 0
1966 1 18.74407486949884 31.26904504763641 23.415983581963545 0 0 0
2252 1 20.19939739213344 31.24801882826108 21.196802072498375 0 0 0
2540 1 24.004660490937734 31.272513159303415 20.998096678613173 0 0 0
2254 2 22.257422120119898 31.168783407824854 23.216532931931695 0 0 0
2828 2 27.14196413544278 31.16893975540691 20.909890053885885 0 0 0
2542 1 25.67061152234012 31.38045474785454 23.192952079400527 0 0 0
1675 1 15.473397281171593 33.560830416144874 21.03202814285821 0 0 0
1713 1 13.787616983503305 33.341610896100406 23.345865491073972 0 0 0
1963 1 18.897666869165455 33.64045788229326 21.12531793613373 0 0 0
2001 1 17.15957018015537 33.408549325554986 23.255781951206266 0 0 0
2289 1 20.56169328081614 33.5067792071207 23.25260897576389 0 0 0
2577 1 23.84069237723327 33.42257216044485 23.346969779089548 0 0 0
2539 1 25.652361876807785 33.536014612207396 21.06317925938382 0 0 0
2865 2 27.27594656917401 33.66687309334952 23.353807326767523 0 0 0
1714 1 15.648983440326617 35.720059834506856 23.38043352849408 0 0 0
1461 2 13.835893515481203 37.955603869388064 23.290311481970367 0 -1 0
2000 1 17.043553303001868 35.74210896601797 20.90968305718496 0 0 0
1749 1 17.346513481214163 38.01643933504132 23.331862111985064 0 -1 0
2002 2 18.888610123930683 35.73135547308233 23.21274449547831 0 0 0
2037 1 20.53759982334763 38.110342204621645 23.252633613774236 0 -1 0
2290 1 22.226557314909964 35.769427143621854 23.243022644652452 0 0 0
2325 2 23.854691926808595 38.21965676995838 23.2068626748416 0 -1 0
2575 1 25.47316072209476 37.95047076102467 21.002327135545414 0 0 0
2613 1 27.220186634872192 37.9236237960525 23.15548196687671 0 -1 0
2578 1 25.45545869646629 35.70847183488634 23.312348853477847 0 0 0
1608 1 13.779043700201019 22.12333857278901 25.74566464784925 0 0 0
1610 2 15.571137487412106 22.142836301674055 27.79178114113147 0 0 0
1896 1 17.32956841931963 22.2811322206377 25.607394362746355 0 0 0
1898 1 19.068255445877497 22.358647636500887 27.961972004801193 0 0 0
2184 1 20.621617876059922 22.149911615859505 25.673198871605198 0 0 0
2186 1 22.273964824340617 22.162462866289214 27.929745723558366 0 0 0
2472 1 23.88725001251643 22.184396882123092 25.652400222288747 0 0 0
2474 1 25.557272867178103 22.22123879038635 27.77568017319808 0 0 0
2760 1 27.223026025789913 22.206708081652504 25.60248448604908 0 0 0
1607 1 15.360405484709144 24.45269439655028 25.75985623633283 0 0 0
1645 1 13.79138752940969 24.497238315648183 28.044450684377708 0 0 0
1933 1 17.240603350896368 24.401940367560194 27.812625736439955 0 0 0
1895 2 19.049131820704375 24.438123777789055 25.564372490345022 0 0 0
2221 1 20.55142861646258 24.539799076074424 28.02738897221368 0 0 0
2183 1 22.22571725999259 24.594926310311994 25.68442895787305 0 0 0
2509 1 24.039910119964947 24.60872479453042 27.899054243536117 0 0 0
2471 1 25.63742376132098 24.505507930382272 25.51345393067498 0 0 0
2797 2 27.29396781666139 24.54417388350109 27.93332459221267 0 0 0
1644 2 13.858689683827453 26.73082896306496 25.55371598474092 0 0 0
1646 1 15.519658207718848 26.736530958254782 27.93290267284491 0 0 0
1643 1 15.473339697074511 28.90259108690441 25.580040514630664 0 0 0
1681 2 13.8249469193326 28.88533190555092 27.834396183549536 0 0 0
1932 1 17.1997752369342 26.570284507583395 25.674250613870974 0 0 0
1969 1 16.94692616049331 29.032439332013777 27.95852363439589 0 0 0
1934 1 18.8634656873612 26.883278097476442 27.871455247688267 0 0 0
1931 1 18.783078391703864 29.068932900703803 25.63976440318485 0 0 0
2220 1 20.54894992402409 26.723137744591142 25.511117276989932 0 0 0
2257 1 20.558788529204815 29.021308410264023 27.75924061160195 0 0 0
2508 1 23.841567286879954 26.85007973344398 25.579445130345512 0 0 0
2219 1 22.257665690351818 29.09383046203773 25.44405136289322 0 0 0
2222 1 22.188013204966474 26.743202158662587 27.896802459253355 0 0 0
2545 2 23.93268071372472 29.029685238144374 27.747349026781457 0 0 0
2796 1 27.390894061188327 26.80373695012655 25.509076701769192 0 0 0
2510 1 25.576524158145897 26.808030107172396 27.751359778434818 0 0 0
2507 1 25.750647265826615 29.196341043083386 25.57565926511126 0 0 0
2833 1 27.321138990211498 29.0628338508541 27.7297205154875 0 0 0
1680 1 13.668538811372986 31.178460242120163 25.51168242626764 0 0 0
1682 1 15.192086558678355 31.3308764771966 27.754018550242304 0 0 0
1968 1 17.13149975827397 31.34502524739808 25.783389260941846 0 0 0
1970 1 18.803855392400564 31.259292721523696 27.94563685051713 0 0 0
2256 1 20.481448229359046 31.25222054732457 25.53600949682654 0 0 0
2258 1 22.271989579190436 31.17992766349673 27.910764854471857 0 0 0
2544 1 24.01707410071861 31.32270543697847 25.52965517952036 0 0 0
2546 2 25.40780858575453 31.238619242971904 27.843773838351236 0 0 0
2832 1 27.274757784675824 31.380172799557272 25.517186371932674 0 0 0
1679 1 15.45308756899188 33.53346448023182 25.637346721316565 0 0 0
1717 1 13.681789866068083 33.655350952193906 27.80753893944538 0 0 0
2005 1 17.037511083678204 33.48265544390405 27.891895395711604 0 0 0
1967 1 18.893262140017377 33.5578118492473 25.52763741893981 0 0 0
2293 1 20.45602095175825 33.62795826819004 27.84698154027467 0 0 0
2255 1 22.148342903581597 33.477520237665814 25.483534709592202 0 0 0
2581 1 23.824616995391857 33.59029419732143 27.801995550626707 0 0 0
2543 1 25.548988069159837 33.56330924303796 25.509135102032943 0 0 0
2869 1 27.232036951633898 33.655217591836234 27.75689676924234 0 0 0
1716 1 13.829735749294375 35.873796797182735 25.590788511148705 0 0 0
1715 1 15.49506819357902 38.02204000241147 25.68829534109422 0 0 0
1718 1 15.454711041299259 35.84655559940442 27.816362593089906 0 0 0
1465 1 13.596450890783892 38.096673754535495 27.692105821440403 0 -1 0
2004 1 17.274558806637422 35.8215454032547 25.54765158190408 0 0 0
1753 1 17.23896636782536 37.971520552243035 27.882686812215297 0 -1 0
2006 1 18.929049829936048 35.726285863049114 27.815870699892862 0 0 0
2003 1 18.95810942329298 38.17346747911095 25.622685252281 0 0 0
2292 1 20.521703495778986 35.79375407723148 25.625883522811257 0 0 0
2041 2 20.54042531145234 38.082025091183475 27.89792898319159 0 -1 0
2294 1 22.17301008509105 35.720812400014175 27.815575820428172 0 0 0
2580 2 23.894021581170808 35.839205590452416 25.59519480819589 0 0 0
2291 1 22.222655188270853 38.100138388750544 25.51274646714873 0 0 0
2329 1 23.893181634421992 38.05274790048912 27.671785285634197 0 -1 0
2868 1 27.14486160084943 35.880529040393974 25.489249383483713 0 0 0
2582 1 25.58957798782324 35.83083615444271 27.786887058281202 0 0 0
2579 1 25.536258807497425 38.06974639969116 25.44322524653551 0 0 0
2617 1 27.173067164503223 38.10271443943441 27.970566259786874 0 -1 0
1612 1 13.78839303725102 22.232189989094053 30.049509832590083 0 0 0
1614 1 15.548050481198299 22.387043082441156 32.2951721190655 0 0 0
1900 1 17.181986667880853 22.105472594952094 30.026502516271385 0 0 0
1902 1 18.737302603851383 22.289981071513157 32.44716207513404 0 0 0
2188 2 20.53194350045513 22.25472493786171 30.31080072708664 0 0 0
2190 1 22.068885638458134 22.26207362552882 32.46001228273966 0 0 0
2476 1 24.045300486572767 22.10920969487643 30.280806898809537 0 0 0
2478 1 25.868954775770867 22.13708964997654 32.432572728901214 0 0 0
2764 1 27.131092114849775 22.183632923468494 30.148880909676365 0 0 0
1649 1 13.704592197259757 24.52919456858453 32.26047482614101 0 0 0
1611 1 15.664686334420644 24.455665160887573 30.135240295459365 0 0 0
1937 1 17.1924563875434 24.543759572872524 32.39557455359299 0 0 0
1899 1 18.821408557037035 24.4985503613153 30.059433973098162 0 0 0
2225 1 20.43370211960022 24.393320339307763 32.44017240389738 0 0 0
2187 1 22.249330998186807 24.376036775295486 30.348171948440093 0 0 0
2513 1 23.9152810196845 24.41465890115163 32.448551166283934 0 0 0
2475 1 25.50406174554109 24.527234588634986 30.23807163643299 0 0 0
2801 1 27.22973401767111 24.612953702324603 32.31595601515046 0 0 0
1648 1 13.8461079379551 26.579043295038897 30.137398255564285 0 0 0
1650 1 15.386351725554096 26.75905841504748 32.55447497329398 0 0 0
1647 1 15.281691896042517 28.905919234300228 30.30107821681138 0 0 0
1685 2 13.683479170388 29.07178139218151 32.56380073626089 0 0 0
1936 1 17.11726679186179 26.806106556150986 30.14431033412446 0 0 0
1973 1 17.136871830711815 29.025869843349906 32.4484375935683 0 0 0
1938 1 19.00547078323777 26.773263830066917 32.449707110754446 0 0 0
1935 2 18.82488288157678 29.1442053644206 30.14018266477394 0 0 0
2224 1 20.444414635740234 26.842686216699107 30.041053492446615 0 0 0
2261 1 20.642990675086402 29.12901221882145 32.33051470668704 0 0 0
2226 1 22.191287059383715 26.60345874643229 32.34137152978603 0 0 0
2223 1 22.175695705112023 28.93343987223229 29.983341290656917 0 0 0
2512 1 23.872916552282405 26.798579959696724 29.995853429413096 0 0 0
2549 1 23.90603764172105 28.932852893193903 32.27132820699619 0 0 0
2800 1 27.186056801764085 26.670972834984873 29.967756020607084 0 0 0
2514 1 25.49762914126208 26.68724572494001 32.45328130173017 0 0 0
2511 1 25.437583170307736 29.11913125662485 29.98299390856449 0 0 0
2837 1 27.204115996228108 28.90473590223904 32.25811548357946 0 0 0
1684 1 13.593450040062308 31.198491259730833 30.167513238093168 0 0 0
1686 1 15.332371577860197 31.34826163114197 32.49237782379535 0 0 0
1972 1 16.919338771785984 31.1203537600109 30.121051407554706 0 0 0
1974 2 18.800341421687225 31.248674551886094 32.33641500326085 0 0 0
2260 1 20.608989826032946 31.298305148722445 29.999681894819297 0 0 0
2262 1 22.155586590488046 31.380269227975575 32.53406952827886 0 0 0
2548 1 23.857712978006134 31.42245500628983 30.077353352735468 0 0 0
2836 1 27.210850553312508 31.27533600611708 30.005336062939616 0 0 0
2550 1 25.57515817306349 31.148214729212494 32.45647343855104 0 0 0
1721 1 13.756711114744096 33.50516236286313 32.42704062866891 0 0 0
1683 1 15.623186842708897 33.4598572643318 30.14294407475846 0 0 0
2009 1 17.134692440276712 33.48946326977297 32.43672876915095 0 0 0
1971 1 18.76729539163659 33.49292766751338 30.060355488270957 0 0 0
2297 1 20.411968601996236 33.53334637609453 32.50441975240379 0 0 0
2259 1 22.083560564803445 33.49134551736627 30.018270584229317 0 0 0
2585 1 24.151567402641497 33.43864737744478 32.30067480823239 0 0 0
2547 1 25.75058319765531 33.59235849953222 30.072441801224652 0 0 0
2873 2 27.15715709377651 33.508585383050956 32.41106388276039 0 0 0
1469 2 13.920322179929027 38.10325203947149 32.38868273089894 0 -1 0
1720 1 13.840873938018945 35.61743274350491 30.141961248308554 0 0 0
1719 1 15.430177998382607 37.9038054900931 30.04150966784848 0 0 0
1722 1 15.483150064134446 35.78091846364942 32.36541269508676 0 0 0
2008 2 17.209150486835387 35.729946320606324 30.125110625069233 0 0 0
2007 1 18.958010526165815 38.009791867313986 30.10841954915243 0 0 0
1757 1 17.142298614202893 37.91250789773047 32.27534834830253 0 -1 0
2010 1 18.7559226771393 35.73614551628002 32.51767774303532 0 0 0
2296 1 20.509612938255604 35.7691700534215 30.057892828957584 0 0 0
2045 1 20.670606314267538 37.90577938290084 32.4279815794922 0 -1 0
2295 1 22.367460884829033 37.89064612413025 30.06833093176119 0 0 0
2298 1 22.283273969006732 35.66140873174003 32.31477245062561 0 0 0
2584 2 23.93295549332622 35.507511149675956 30.040347661124812 0 0 0
2333 1 23.99231319500588 38.07215760412634 32.469801956337676 0 -1 0
2586 1 25.51273156325676 35.72621763727474 32.33268384489025 0 0 0
2621 1 27.096396211042393 38.01959431997532 32.43952205445639 0 -1 0
2872 1 27.115027882740954 35.80004797599206 30.170016944165766 0 0 0
2583 1 25.53157474292856 38.1593054750042 30.100758726689122 0 0 0
1616 1 13.7818996519782 22.155183483402187 34.540514357262865 0 0 0
1618 1 15.263014126950292 22.233263833948804 36.90911245695813 0 0 0
1904 1 17.123318448896256 22.308800404450132 34.764935225817496 0 0 0
1906 2 18.842273798297423 22.312855738406686 36.99441810324522 0 0 0
2192 1 20.38397787880595 22.30803408758594 34.67367427601583 0 0 0
2194 1 22.167181100336734 22.199970631800014 36.66533108450105 0 0 0
2480 1 24.02599232593877 22.07441005117153 34.57843424452609 0 0 0
2482 1 25.66097662184332 22.18965071717611 36.89151393614813 0 0 0
2768 1 27.475153192516366 22.282060530361367 34.71517874241198 0 0 0
1653 1 13.72590143977266 24.390510940418785 36.82649100135545 0 0 0
1615 1 15.354251961377898 24.519053678537357 34.69169252763284 0 0 0
1941 1 17.117681820786434 24.511628465820447 36.829082548352574 0 0 0
1903 1 18.793103400899682 24.483659810756418 34.919560926473366 0 0 0
2229 1 20.719659664386995 24.47831683693025 36.8406968560118 0 0 0
2191 2 22.25229572385089 24.276501807226058 34.5806801580525 0 0 0
2517 1 23.814105289699878 24.3885000052028 36.89644186644293 0 0 0
2479 1 25.708051545615074 24.45539585395728 34.639962117335045 0 0 0
2805 2 27.344006148785436 24.532378706853372 36.701348353282356 0 0 0
1652 1 13.65988579099162 26.8343546406413 34.74335337424236 0 0 0
1654 1 15.434176103075153 26.754862407079237 36.86938277309119 0 0 0
1651 1 15.364457087410472 29.111229002672932 34.67909752930656 0 0 0
1689 1 13.498878644738319 29.14309904964978 36.86559910853531 0 0 0
1940 2 17.114397614951233 26.861735542496298 34.62903935282894 0 0 0
1977 1 17.263942047437077 29.02568246708779 36.81931855659664 0 0 0
1939 1 18.888323177028376 28.976951505759622 34.593872957931524 0 0 0
1942 1 18.80974163733354 26.74680397445933 36.76168900553087 0 0 0
2228 1 20.706059502540242 26.71258577321089 34.75683445395849 0 0 0
2265 1 20.53763168767304 28.95323782392423 36.94314189055156 0 0 0
2230 2 22.44410581563043 26.802382460502457 37.02235942935546 0 0 0
2516 1 23.83953134100188 26.640342791598282 34.6843815442098 0 0 0
2227 1 22.382297542185047 28.914606109765284 34.71428894287001 0 0 0
2553 1 23.974996037677222 29.049667128130952 36.87831480497903 0 0 0
2804 1 27.457930946148252 26.656098209725293 34.64398579840693 0 0 0
2518 1 25.507223396027815 26.65986925811521 36.78542685085415 0 0 0
2515 2 25.55341097488773 28.887786006968877 34.45627416092397 0 0 0
2841 1 27.016842951266167 29.099791474629264 36.7570593801742 0 0 0
1688 1 13.45645738536641 31.097071427651468 34.72528583225409 0 0 0
1690 2 15.341177286260425 31.13243075128257 36.72235793060369 0 0 0
1976 1 17.165474278787567 31.273810612835806 34.571379947540095 0 0 0
1978 1 18.797597060787766 31.327030752721917 36.90690553979 0 0 0
2264 1 20.4189471627746 31.390605989078935 34.636579082689906 0 0 0
2266 1 22.21591107758026 31.314403315406853 36.694023899149045 0 0 0
2552 1 23.96823171510744 31.13109209735362 34.54361528534014 0 0 0
2554 2 25.565108300472065 31.351776097517526 36.95413105449036 0 0 0
2840 1 27.359451641067555 31.11835807381146 34.58331678093725 0 0 0
1725 1 13.755931191592133 33.50029835047994 37.007961838302805 0 0 0
1687 1 15.329418035543835 33.42638364702398 34.6528350182911 0 0 0
2013 1 16.91386470762251 33.56643014637109 36.926768096411394 0 0 0
1975 1 18.7041625579908 33.54325132640126 34.684892081904195 0 0 0
2301 1 20.517870835289454 33.49371311430912 36.81597547391573 0 0 0
2263 2 22.288583393618527 33.4806496572747 34.55997289737242 0 0 0
2589 1 23.964413781330205 33.64838837704686 36.934131582291045 0 0 0
2551 1 25.596827245868365 33.30765719122674 34.759972510868636 0 0 0
2877 1 27.3277624487515 33.605333258147155 36.94121910419685 0 0 0
1473 1 13.742095603791356 38.170607294443194 36.74115250575667 0 -1 0
1724 1 13.857715124371541 35.886140402343166 34.679299132264475 0 0 0
1726 2 15.231877844384059 35.87734583689898 37.06935385030596 0 0 0
1723 1 15.587112164251469 38.15838229011223 34.65737774753538 0 0 0
2012 1 16.963111845620187 35.74551053503174 34.77423802027597 0 0 0
1761 1 17.201877337043744 38.12721056907412 36.90498909854671 0 -1 0
2011 1 18.703151562878613 37.9030655368739 34.58454464871248 0 0 0
2014 2 18.81895998248196 35.661217529972795 36.848359002452014 0 0 0
2300 1 20.73589699208987 35.767628668748465 34.75243622098806 0 0 0
2049 1 20.507528938120167 38.07901914815219 36.982700701351106 0 -1 0
2302 1 22.280059599570958 35.6487442832333 37.02226196006772 0 0 0
2588 1 24.032238962063072 35.670544824685535 34.59861805513579 0 0 0
2299 1 22.358025582514163 37.94141629274232 34.728725278235345 0 0 0
2337 1 23.82276155134977 38.049862082468145 37.081532629636826 0 -1 0
2876 1 27.208066818629312 35.65537586398701 34.578392654811026 0 0 0
2587 1 25.590115118825462 38.00787888375614 34.76286069812535 0 0 0
2590 1 25.668708672203724 35.80020431350971 36.77582978000942 0 0 0
2625 1 27.309768428197273 38.22692120548001 36.971424244517536 0 -1 0
1620 1 13.62587108281826 22.13508674913162 39.29712059999038 0 0 0
2233 1 20.717965398090936 29.006979352481597 41.35708150315199 0 0 -1
1908 1 17.00968677978657 22.194135928139158 39.15759136324469 0 0 0
2591 1 25.659244139861347 38.07760947997874 39.32479483018736 0 0 0
2196 1 20.76279945454642 22.330623350196028 38.97675527256581 0 0 0
2484 1 23.908313320700824 22.228863347326975 39.15011655686874 0 0 0
2880 1 27.2542167325336 35.81438707758526 39.27779235163692 0 0 0
2772 2 27.245431232530393 22.135067387377546 39.26924016209823 0 0 0
1619 1 15.365248612385404 24.48586925652231 39.149960673853485 0 0 0
1981 1 17.232438035992114 33.50119815817562 41.333644231255505 0 0 -1
1907 1 18.727387073180573 24.32332430568369 39.022940798468596 0 0 0
2197 1 20.414455561171508 24.75806862607056 41.32110712141241 0 0 -1
2270 1 22.13125718595283 35.829230801956044 41.348181038358874 0 0 -1
2195 1 22.307919428325633 24.60713017763369 39.19977936231889 0 0 0
2483 1 25.56203461567924 24.399795760670465 39.10329970325276 0 0 0
2592 1 23.984895236611177 35.854434852576496 39.25457721908421 0 0 0
1656 1 13.669969054816207 26.74531234918348 39.06755691461659 0 0 0
1655 1 15.51122335488488 28.884479307314994 39.092115649793115 0 0 0
1944 1 17.06560310015518 26.63379511392303 39.158242867381375 0 0 0
1943 1 18.805676519832677 28.934104551954906 39.20564657243638 0 0 0
2303 2 22.173734660928055 37.92267984880623 39.195012232551235 0 0 0
2232 1 20.41403151662259 26.597614650668454 39.07519671520109 0 0 0
2231 1 22.18789687570345 28.834307490145193 39.04351751739844 0 0 0
2520 1 24.03932646575576 26.811789077545104 39.17553252912887 0 0 0
2808 1 27.150697393611786 26.777817723517114 39.09063219695766 0 0 0
2519 1 25.594239987632008 29.029741425597464 38.973920592099645 0 0 0
1982 1 18.74964437754312 35.782966786992645 41.307065053416935 0 0 -1
1692 1 13.86323140869504 31.23002787959065 39.03426869040592 0 0 0
1980 1 16.96443332671297 31.374572636165613 39.05865729140264 0 0 0
2268 1 20.61880266434219 31.145774072256252 39.003451631692485 0 0 0
2556 1 23.773227048374398 31.177477579915085 39.03415419061058 0 0 0
2844 1 27.331315029302406 31.24066203333007 39.093996641558874 0 0 0
2015 1 18.792507413099088 38.088422349300046 39.12224311637509 0 0 0
1691 1 15.342137415858549 33.68714656051497 39.31386451329648 0 0 0
1979 2 18.894501714350493 33.424642163078204 39.10046148314302 0 0 0
2304 1 20.446063372431688 35.69294873325432 39.152801281342605 0 0 0
2267 1 22.195570920260234 33.58683815906048 39.166845396461724 0 0 0
2555 1 25.60274104966306 33.50488726668479 39.18136383908373 0 0 0
2016 1 17.16449666695201 35.774372470810384 39.11659300594903 0 0 0
1727 1 15.362781504539207 37.943308676393016 38.98882745735723 0 0 0
1728 1 13.435357591524593 35.85444912744183 39.20362540169417 0 0 0
1874 2 18.839312383054892 22.232012559506288 41.269487398749206 0 0 -1
1694 2 15.3925267071266 35.7212933909648 41.26329986617796 0 0 -1
2198 1 22.331367753881864 26.693718373229213 41.3837701652231 0 0 -1
2017 1 20.485347833358862 38.04552647005922 41.40442146807875 0 -1 -1
2809 1 27.4174760071932 29.011064367666183 41.25228890242457 0 0 -1
1909 1 17.147645617415257 24.47390003924813 41.34376003722174 0 0 -1
2269 1 20.508267047464553 33.479738349311674 41.35073167706325 0 0 -1
1729 1 16.972715612075746 38.04257177021355 41.24887266514784 0 -1 -1
1946 1 18.894493599357787 31.05776141258171 41.229747044624006 0 0 -1
2234 1 22.342046844914407 31.229497302146164 41.32298801164889 0 0 -1
2845 1 27.08733739328227 33.54531040181034 41.299976191774505 0 0 -1
2485 2 23.949270049266758 24.467550965416937 41.38029310300783 0 0 -1
1621 1 13.72785071063866 24.565044799719306 41.366453338313306 0 0 -1
1658 2 15.396120686837566 31.47585069770724 41.35420085413371 0 0 -1
1693 1 13.693786289455637 33.581909799431415 41.41930674947576 0 0 -1
1910 2 18.63393315221426 26.83308099478018 41.371018442150145 0 0 -1
1657 1 13.84137324760352 29.030336881197318 41.42554800889155 0 0 -1
1945 1 17.011142250130636 29.214655129449202 41.339611606753486 0 0 -1
2486 1 25.61288347329274 26.57786452855777 41.39977789533264 0 0 -1
2521 1 23.85531459771767 28.92792031021404 41.398034804223954 0 0 -1
2884 1 30.753476386474034 4.094088081498826 3.0566444512846256 0 0 0
3782 1 42.44325027688568 8.549265835650193 0.725667198038996 0 0 0
3172 1 33.96250859108853 4.216311776559789 3.0315316266340115 0 0 0
3460 1 37.289986271847326 4.145145349630793 3.0018602985016694 0 0 0
3748 1 40.66060735171313 4.1447496511364905 2.69526016373472 0 0 0
3859 1 42.308793203354014 19.7361856073183 7.542889838474362 0 0 0
2595 1 28.975442753720714 6.3269930070865685 3.179471709150692 0 0 0
40 1 43.95705711578486 8.597902197056637 3.1652245127366276 -1 0 0
2883 1 32.39799101326204 6.4201339455158095 2.858524319755798 0 0 0
3818 1 42.38896615141952 13.041692997442587 0.7596584355970688 0 0 0
3171 2 35.65719727355685 6.484692621176245 3.033465597910093 0 0 0
3459 1 39.05659547725952 6.388414324031102 2.892422504908593 0 0 0
77 1 43.96577386258351 10.837955765964235 5.405139255483343 -1 0 0
3747 1 42.51104730009411 6.332208797037867 2.921033450519704 0 0 0
2920 1 30.582449800685062 8.496338353374306 2.867373526195311 0 0 0
2631 2 28.981694875436048 10.964693345923585 2.984197018818974 0 0 0
80 1 44.0640440308611 13.195767785124252 7.616211061802041 -1 0 0
2919 1 32.14737112766641 10.798216179160598 3.0213066257397605 0 0 0
3208 1 33.978163863263966 8.765277810029698 2.9106799765964095 0 0 0
8 1 44.037138566708336 4.042201444695303 7.410578183909133 -1 0 0
3207 1 35.73954890338777 10.791586538248533 2.9343691757752457 0 0 0
3496 1 37.43827420502045 8.592259408522546 3.006689480275562 0 0 0
44 1 44.105786690988566 8.545828745242982 7.620057754387565 -1 0 0
3784 1 40.71354152254875 8.496018200223169 3.0364266212808473 0 0 0
3495 2 39.19805479417902 10.814175682552314 2.8850281723275804 0 0 0
2594 1 28.995307447738142 4.148223433335102 0.8222742687540878 0 0 0
41 1 44.06701016554715 6.385526451708473 5.307391037247917 -1 0 0
3783 1 42.35293244954362 10.732407551656419 3.18198772416452 0 0 0
113 1 44.03282525512918 15.476409564755127 5.472026306556412 -1 0 0
2956 1 30.703291596176463 13.231834014491884 3.034151936477183 0 0 0
149 1 43.95226863542157 19.884472643738576 5.265664279428033 -1 0 0
3570 2 38.92430009749035 17.70471339049783 5.2574159265832545 0 0 0
3244 1 33.99946198346598 13.019466972174872 2.976154492878957 0 0 0
3532 1 37.41363202298535 13.025632147953786 3.131447966072599 0 0 0
3853 1 40.64838015454823 15.274732076022042 0.896695699542495 0 0 0
3820 1 40.733218885163396 12.997716874471834 3.0663411829604454 0 0 0
3893 1 40.688168904089984 19.940742108611953 5.287951596259727 0 0 0
2667 2 28.905834370092517 15.382109465593041 2.887113441725694 0 0 0
112 1 43.96144094575548 17.625360465146734 3.0290146224713714 -1 0 0
2955 1 32.42651985147752 15.399202215773757 3.142653617816186 0 0 0
3243 1 35.77269597882691 15.267406645407814 2.920626616983577 0 0 0
3572 1 37.419105867190645 17.64242328251814 7.588531643632686 0 0 0
3531 1 39.11550093964709 15.316636178499463 3.096500961205481 0 0 0
3819 2 42.38340942923611 15.354034606559976 3.1588745746203157 0 0 0
3858 1 42.312694397490425 17.680117906732058 5.223100705388235 0 0 0
3530 1 39.077273302577126 13.009018371342048 0.8098040096412085 0 0 0
3205 1 34.03995775320185 6.451369012987234 0.7285740390413803 0 0 0
2992 1 30.40811284077423 17.68849107452848 3.077516277586387 0 0 0
2703 1 28.84185276948824 20.034587053643342 3.0774584673791248 0 0 0
3280 1 34.072865102400655 17.572649543799386 3.0972064867823956 0 0 0
2991 1 32.40256577324236 19.790143981165297 2.8781601941945336 0 0 0
3605 1 37.353720224827065 20.002423030899408 5.164211905141928 0 0 0
3283 1 35.62966808600749 19.959564462043843 7.657292630247691 0 0 0
3279 1 35.71972041160953 19.904669738453293 3.006341146937251 0 0 0
3568 1 37.44688795394451 17.502610582762863 3.0147763393394897 0 0 0
3282 1 35.90501747564578 17.72386229227375 5.217273659939271 0 0 0
3567 1 39.02617240253539 20.003611826205823 2.8143703165540392 0 0 0
3856 1 40.65443053503708 17.68631214658857 2.980092868937923 0 0 0
3855 1 42.25543491472258 19.968609626622705 2.7767387076623793 0 0 0
2598 1 29.131684494726237 4.1654790908408375 5.36929718996109 0 0 0
2888 1 30.671279259325615 4.05696691927516 7.648872590477153 0 0 0
2886 1 32.22856806419085 4.145771160126695 5.322755503118221 0 0 0
3176 1 34.10382870478634 4.102493743551088 7.517587425049181 0 0 0
3174 1 35.68498546238453 4.177846474271795 5.206573287788019 0 0 0
3464 1 37.48348745955589 4.069930968947132 7.277257733668512 0 0 0
3462 1 39.2212870907791 4.092154910847598 5.116384004901311 0 0 0
3752 1 40.586295595569105 4.045110070155018 7.473795829109028 0 0 0
3860 1 40.63172063795398 17.621128457544224 7.431774947440386 0 0 0
3750 2 42.30471999571873 4.135441043792097 5.203133209457243 0 0 0
2599 1 29.140978748114264 6.368754330547954 7.791883595375927 0 0 0
2921 1 30.61956067147834 6.470742339327577 5.2433837576494025 0 0 0
2887 1 32.256005829289585 6.404455294004084 7.448098172401358 0 0 0
3209 1 33.88290045628687 6.3592326190442305 5.270491156177335 0 0 0
3175 1 35.65917965266169 6.346804674392305 7.345928107887049 0 0 0
3497 1 37.406627603028 6.375988056020819 5.235718327150158 0 0 0
3463 2 38.879989531171745 6.353911060356833 7.481504676039148 0 0 0
3785 1 40.63144294167534 6.384416167894708 5.210457275457376 0 0 0
3751 1 42.29866795364804 6.422363446491462 7.461381073000737 0 0 0
2924 1 30.557285384655692 8.716272299066489 7.48932192608579 0 0 0
2634 1 28.8725071571745 8.595357463080642 5.27353288640003 0 0 0
2635 1 28.845623047173277 10.980033200657902 7.507610883593572 0 0 0
2957 1 30.727430732880705 10.898570639215837 5.364420480207736 0 0 0
3212 1 34.08029139066272 8.685643903454274 7.477709017937259 0 0 0
2923 1 32.34763137262529 11.07026441777819 7.604203297781143 0 0 0
2922 1 32.357986444785105 8.660517728321746 5.256778598878489 0 0 0
3245 2 33.94907047925844 10.894146182463405 5.2109328812866424 0 0 0
3210 2 35.5858861501098 8.695939395630525 5.244188117100668 0 0 0
3211 1 35.556852048462666 10.965630179234514 7.458451574666084 0 0 0
3500 1 37.23687713899934 8.70166081075962 7.544397763752622 0 0 0
3533 1 37.49766464873824 10.83161671760451 5.29758774817844 0 0 0
3498 1 39.00995818271032 8.675370934559265 5.210454833999952 0 0 0
3499 1 39.07475959878278 10.93841728998181 7.588934539782626 0 0 0
3788 1 40.474932471433895 8.630893845866606 7.511864840512738 0 0 0
3821 1 40.691128010508976 10.87486969032583 5.3107895799222895 0 0 0
3025 1 30.662370098769053 19.861316594387347 0.8286915362927826 0 0 0
3786 2 42.3092205853683 8.533982305074147 5.387054018386119 0 0 0
3787 1 42.43600104917406 10.72691094955598 7.67298465341732 0 0 0
2670 1 28.94081160739338 13.118496351960008 5.173998059041507 0 0 0
2960 1 30.385334319150644 13.307282133286511 7.445020302351642 0 0 0
2958 1 32.39221382443224 13.236755699530843 5.285917628375526 0 0 0
3248 1 34.09092868486824 13.15630980281633 7.524886886179386 0 0 0
3246 1 35.72151489990267 13.104738870765967 5.3178359570201135 0 0 0
3536 1 37.32873873320199 13.058621617037273 7.722755508867356 0 0 0
3534 1 39.03411753326478 13.102096943324483 5.247914947950719 0 0 0
2994 1 32.3174983686136 17.63739657093946 5.28721876489715 0 0 0
3824 2 40.62956248329542 13.083493179627771 7.475996336235875 0 0 0
3822 1 42.48431080368118 13.11078208620428 5.220323981342262 0 0 0
2993 1 30.552987455182667 15.467357295749858 5.22101402704545 0 0 0
2671 1 29.037923673125334 15.557249483812713 7.394485691606717 0 0 0
2959 2 32.273200105692155 15.452615435232506 7.435766625874944 0 0 0
3281 1 34.18000569433242 15.428160514263364 5.420994083808805 0 0 0
3247 1 35.73176060624864 15.449059522679137 7.666153036670636 0 0 0
3569 1 37.359506737917044 15.330114739151668 5.401972882513097 0 0 0
3535 1 39.08622478453953 15.388673698986498 7.540013715086661 0 0 0
3857 1 40.56743263585053 15.400813870265335 5.339784119222741 0 0 0
3571 1 38.96388720485614 19.966342132716772 7.436623086085482 0 0 0
3823 1 42.43474201349755 15.384428578641662 7.578355586566292 0 0 0
2706 2 28.819085151627235 17.725155153015706 5.369009251783156 0 0 0
3029 1 30.624709583024732 20.028334247503825 5.244915316570625 0 0 0
2707 1 28.824019234861098 20.020533491478467 7.510245951617053 0 0 0
2996 1 30.636746473029646 17.828209606586675 7.423509070438013 0 0 0
2995 1 32.51387654272717 19.962994990932575 7.478812244906651 0 0 0
3317 1 34.088451424107504 19.963518281511895 5.138802415126135 0 0 0
3284 1 34.00006061659323 17.58322109628064 7.598014723142424 0 0 0
2917 2 30.590942714071055 6.528478975406755 0.7224432547748914 0 0 0
3565 1 37.42887426765558 15.383640271518498 0.7482967396380653 0 0 0
3854 1 42.25378641732139 17.48991341001037 0.889356760543953 0 0 0
3493 1 37.21880809265425 6.383520847046818 0.7410722154082444 0 0 0
2990 2 32.34601440749957 17.817224705467538 0.8449451973745604 0 0 0
2989 1 30.718370358890375 15.525501243478082 0.8512342970610822 0 0 0
2882 1 32.39313765963685 4.069367418315773 0.7631595628492791 0 0 0
2953 1 30.509113184214115 10.97416293851743 0.8079391347063987 0 0 0
3242 1 35.54999342530907 13.191059708864278 0.8214442670912978 0 0 0
3277 1 33.87252568898563 15.518899708673356 0.7472272332198098 0 0 0
3529 1 37.46632858332481 10.863809935534393 0.7787280674546889 0 0 0
3170 1 35.689681092225804 4.039801831891499 0.7647139330458828 0 0 0
2954 1 32.30829903853602 13.188687144022348 0.7878085137375166 0 0 0
2630 1 28.793112684969664 8.769092304998392 0.8482745311679452 0 0 0
3313 1 34.244341956678255 19.960557981038995 0.772410532229955 0 0 0
73 1 44.043624960493965 10.77111880938281 0.7402502529982513 -1 0 0
2602 2 29.00465125558371 4.110534717743871 9.870449962729486 0 0 0
2892 1 30.695116416739054 3.950027288235546 12.119517848805385 0 0 0
2890 1 32.347603370812365 4.027307652438935 9.787878007681195 0 0 0
3180 1 33.9967040387427 3.8887024959157808 12.079425117120389 0 0 0
3178 1 35.815715675689 4.067326431823858 9.728854057670066 0 0 0
3468 1 37.24722424369355 3.995416405089907 12.154200922071135 0 0 0
3466 1 38.80764679033384 4.069051151513691 9.691475409466806 0 0 0
3756 1 40.67523274305619 4.141860077907373 11.883536626131809 0 0 0
3754 1 42.303859620333895 4.0016818748551435 9.59750681751222 0 0 0
3866 1 42.32408452179517 17.732412723815788 14.377604541536297 0 0 0
2603 1 29.034902391338825 6.167096922575876 12.141893391984949 0 0 0
2925 1 30.754067373693488 6.300788061048171 9.919569554227962 0 0 0
2891 1 32.38673050049994 6.388679000231139 12.089011008835854 0 0 0
3213 1 34.206950195526204 6.354898489519365 9.671688255343863 0 0 0
3179 1 35.54076479095167 6.198708701819609 12.246088315141145 0 0 0
3501 1 37.29251502518559 6.361639327513231 9.92810301736141 0 0 0
3467 1 38.89135368564126 6.276543792519748 12.127740543095456 0 0 0
3789 1 40.67953343021845 6.38441734070896 9.72577698268171 0 0 0
3755 1 42.24849613688811 6.235947086969371 12.10769405303015 0 0 0
3291 1 35.837466855580765 19.83208214671732 16.51291564164415 0 0 0
2928 1 30.68447777081648 8.653687435970348 11.990061192328245 0 0 0
2638 2 28.957483468932274 8.54596713877433 9.85643018465586 0 0 0
2639 1 28.82463637473788 10.792775625886454 12.010800796320687 0 0 0
2961 1 30.556699526103337 10.864090877744523 9.746752036055524 0 0 0
3216 1 33.94184772740916 8.596224601190169 11.857288550491184 0 0 0
2926 1 32.294591609643724 8.562387956411495 9.707554112751122 0 0 0
2927 1 32.365403018207736 10.809092306077948 12.070206122709601 0 0 0
3249 1 33.94296328876331 10.697974573248866 9.749308872872279 0 0 0
3504 1 37.19627563463438 8.677852344629915 12.069562703380857 0 0 0
3214 1 35.73487533622306 8.7131948357932 9.708168379318153 0 0 0
3215 1 35.61933440012669 11.203562366454312 12.176952195977229 0 0 0
3537 1 37.253322370686284 10.942216006350568 9.909098489382712 0 0 0
3502 1 38.94665107144831 8.647652297728499 9.916380015366137 0 0 0
3503 1 38.83669557903901 10.867825186089886 12.135765003769489 0 0 0
3792 1 40.67152184512795 8.66903658775593 12.273514209403794 0 0 0
3825 1 40.80205445778767 10.69569783249314 9.94439512496106 0 0 0
3790 1 42.34021801137735 8.509582309762315 9.769554660594137 0 0 0
3791 1 42.42028203754378 10.877004621565995 12.161648730666572 0 0 0
3867 1 42.564599071473424 19.889881048431473 16.612114780313863 0 0 0
81 1 43.98188666566243 10.784774379519286 9.936805169002083 -1 0 0
2674 1 28.84084175813193 13.201499793140021 9.765575142109126 0 0 0
2964 1 30.57519651842142 12.963894433060034 12.00126437585279 0 0 0
2962 1 32.28769411222502 13.059806642282064 9.737199752704413 0 0 0
3252 1 33.9368222991934 13.326243496760291 11.980818920436414 0 0 0
3250 1 35.563527787820654 13.106412875969433 9.870761418546563 0 0 0
3540 1 37.34459253002344 13.314041556434457 12.002071639248042 0 0 0
3538 1 39.05675543268117 13.201309040296307 9.757687777481147 0 0 0
3828 1 40.628250338334546 13.165787693921311 12.149902753692569 0 0 0
3826 1 42.288008560100245 13.177426108704626 9.881898311234703 0 0 0
3578 1 38.93075699614095 17.78503111636736 14.298425872909068 0 0 0
2675 2 28.902673061131487 15.320585696379158 12.024735109507398 0 0 0
2997 1 30.71980643471705 15.449362448215101 9.772889938502216 0 0 0
2963 1 31.969250216339894 15.33070810294044 12.17290308730103 0 0 0
3285 1 33.83576711068565 15.41094799726356 9.812360232008224 0 0 0
3251 1 35.71131410567307 15.455758980787 11.975212589368624 0 0 0
3573 2 37.492204580007446 15.411044731754606 9.875609105512677 0 0 0
3539 1 39.14636870328514 15.516981830698521 12.149584902143328 0 0 0
3861 1 40.81860341019819 15.466571583738586 9.82299210146572 0 0 0
3827 2 42.33804608689017 15.313832375960859 12.27807118971816 0 0 0
3033 1 30.770012650189877 20.125520114852236 9.56404752088746 0 0 0
3000 1 30.43200992752297 17.572303966052473 12.102786604799626 0 0 0
2710 2 28.94058536477941 17.740575279926396 9.663852013311903 0 0 0
2711 1 28.988218941550343 19.966199139500898 12.05535097021417 0 0 0
3321 2 33.95517166824727 20.023142996573842 9.813072867189605 0 0 0
3288 2 33.89946719164709 17.48051325357926 12.066214680904714 0 0 0
2998 1 32.20095538943187 17.734871900768532 9.803176273550024 0 0 0
2999 1 32.20474724499147 19.72128921580091 12.00366841882904 0 0 0
3576 1 37.3233369091503 17.697566633221655 11.95686503571529 0 0 0
3286 1 35.58468808180955 17.730317388774864 9.862960407869501 0 0 0
3287 1 35.55628012668578 19.938158976128115 12.123939983921108 0 0 0
3609 1 37.34488343506305 20.0455508143906 9.870811431530822 0 0 0
3574 1 39.03710463234875 17.58067131290577 9.714165472952244 0 0 0
3575 1 39.20708523409901 19.8733049708673 12.09215294862204 0 0 0
3897 1 40.699055569041 20.01828271289687 9.72971242807322 0 0 0
3864 1 40.89167623737174 17.692900084754925 12.011719789500557 0 0 0
3862 2 42.35094875627736 17.710934417047838 9.659356022967083 0 0 0
3863 1 42.516503181870306 19.975451876270167 11.98124358706734 0 0 0
117 1 44.0323294822546 15.367317493264203 9.915954259934805 -1 0 0
2606 1 28.978703631075234 4.1464569842455345 14.425185462296307 0 0 0
2896 1 30.469398893769785 3.879802640851555 16.674554850473463 0 0 0
2894 1 32.321239270714536 3.7310410934000497 14.425477590364327 0 0 0
3184 1 33.84314605031942 3.9075162205217433 16.53551952094847 0 0 0
3182 1 35.64646073963724 4.029993778716085 14.391766532776096 0 0 0
3472 1 37.40368082577658 4.056058969218278 16.493390550057164 0 0 0
3470 2 39.16534722384507 4.105229111288443 14.167449983113094 0 0 0
3760 1 40.603442021434155 4.062793436182858 16.446895263003167 0 0 0
3758 1 42.331693582413 3.954229880339839 14.255004669651083 0 0 0
3579 1 38.93149150231514 19.905158451274197 16.587987712502155 0 0 0
2607 1 28.989286957275368 6.341498655350376 16.614474871258246 0 0 0
2929 1 30.80288205655269 6.214106880132048 14.34335796394528 0 0 0
2895 1 32.24048878777394 6.15872340474498 16.663471625758653 0 0 0
3217 2 33.79195448357539 6.228408705697989 14.416213033843828 0 0 0
3183 1 35.562403235852294 6.231858169757578 16.561626642856794 0 0 0
3505 1 37.350393346926786 6.284610965773955 14.46504740854062 0 0 0
3471 2 38.95004637238698 6.368659971454148 16.689569781711725 0 0 0
3793 1 40.563846046904985 6.416053435430819 14.32663234200917 0 0 0
3759 1 42.41846166538158 6.409341016369824 16.4891450213054 0 0 0
3901 1 40.78939411663155 20.013582598634898 14.473283483378088 0 0 0
2932 2 30.708782234959507 8.544663086267981 16.536496119205296 0 0 0
2642 1 29.042072376482295 8.456914241703776 14.195138602664754 0 0 0
2643 1 29.07021399290076 10.722473585148174 16.56050152176975 0 0 0
2965 1 30.722787722675264 10.891682262617387 14.35265273130475 0 0 0
3220 1 33.81162614153092 8.64638483641129 16.657096713678186 0 0 0
2930 1 32.37787665569141 8.67783355498415 14.193424334758395 0 0 0
2931 1 32.21583317616731 10.82964568727935 16.582577306484765 0 0 0
3253 1 33.900674504806204 10.817899551414717 14.38500197108315 0 0 0
3508 1 37.359731999028085 8.640451574126217 16.6520481739796 0 0 0
3218 1 35.46209119701056 8.46286921398173 14.440964295630863 0 0 0
3219 1 35.60618151727962 10.779191468019025 16.69080573271708 0 0 0
3541 1 37.172626845843894 10.78324203806626 14.447910047548225 0 0 0
3796 1 40.626187228046994 8.600257508857444 16.645240778141 0 0 0
3506 1 38.82769321037453 8.564059355549855 14.409152382162617 0 0 0
3507 1 38.872687659543615 10.865258463547057 16.75048754898061 0 0 0
3829 1 40.4851149950018 10.844438037951583 14.365364655079738 0 0 0
3290 1 35.65997522148891 17.614896543167113 14.3281548098926 0 0 0
3794 1 42.44573154451482 8.82187371984605 14.41164779633949 0 0 0
3795 1 42.35635818516919 10.845761543551596 16.6224747461343 0 0 0
3868 1 40.65597005222025 17.655672421085647 16.61603979945228 0 0 0
2678 1 29.099392997069437 13.12535306983879 14.326433146998024 0 0 0
2968 1 30.714197675194818 13.190592667914533 16.60035376958646 0 0 0
2966 2 32.35011791156384 13.264443627721514 14.38934925287429 0 0 0
3256 1 33.948876477990844 12.975518475033116 16.801935370218136 0 0 0
3254 1 35.45406983994034 13.1056268143413 14.298539572773233 0 0 0
3544 1 37.13196666993557 13.020332068659467 16.562942385013326 0 0 0
3542 1 38.95030829108722 13.140981873269466 14.41211151333773 0 0 0
3832 1 40.694015251123375 13.064739819875543 16.710103023422114 0 0 0
3830 1 42.31618628943832 13.102823706647921 14.344382596151839 0 0 0
3580 1 37.25161668758884 17.507554857079235 16.546484447768385 0 0 0
2679 1 28.876575177132935 15.260391220051575 16.594779585815765 0 0 0
3001 1 30.71270539854976 15.445004278552403 14.420730595697963 0 0 0
2967 1 32.54475704547853 15.263007333636622 16.60471414916311 0 0 0
3289 1 34.03233030365536 15.468084658582638 14.267810117775975 0 0 0
3255 2 35.61139787478584 15.370624336679484 16.58157410563127 0 0 0
3577 1 37.33517708834388 15.405071289944726 14.371677176037393 0 0 0
3543 1 38.93432096816214 15.26338655116866 16.667211000327335 0 0 0
3865 1 40.77750405963701 15.43683442506786 14.54884033492504 0 0 0
3831 1 42.325535201408265 15.329995373740235 16.60330293712174 0 0 0
3613 1 37.27808046366739 20.031071346255537 14.135871056688805 0 0 0
3004 1 30.797193386398405 17.39718363358958 16.487123092657846 0 0 0
3037 1 30.641989216686618 19.88907278197072 14.347704419474997 0 0 0
2715 1 28.96476462559795 19.92513673972951 16.55698632856278 0 0 0
2714 1 28.81878351491167 17.688882161696114 14.23457579047112 0 0 0
3292 1 33.99798996449622 17.766270054449365 16.59664377744958 0 0 0
3325 1 34.003088982367885 20.028996923004186 14.319514436195483 0 0 0
3002 1 32.37792717818987 17.763612558048603 14.287968899818292 0 0 0
3003 2 31.987481907063547 19.894626767154264 16.68293501668122 0 0 0
120 1 44.06942066711387 17.741407415995656 12.124832133325116 -1 0 0
88 1 44.00984553411024 13.068752007003086 16.573849484110127 -1 0 0
52 1 44.05441722628185 8.6002695070515 16.58511396572455 -1 0 0
12 1 44.008321625263015 4.024116702581887 11.950198238922662 -1 0 0
153 1 44.108950522698656 19.894732218717596 9.878581140738389 -1 0 0
121 1 43.98538785599624 15.357210364372278 14.407959599570638 -1 0 0
45 1 43.87879026034803 6.285541310405952 9.782424754578027 -1 0 0
49 1 44.10532135141917 6.286063749694703 14.168390365041052 -1 0 0
84 1 44.0661665557188 13.083405501341808 12.123224866076036 -1 0 0
48 2 44.07255600267498 8.4559541689616 11.970694319580183 -1 0 0
16 1 44.06143383946664 4.034959160194221 16.416371104997843 -1 0 0
2610 2 28.842537891697905 3.9896797852081605 18.906226359172567 0 0 0
2898 1 32.295596206480454 4.085855180593769 18.912755173104063 0 0 0
3186 2 35.66546793048816 3.88281494916715 18.83162736171407 0 0 0
3474 1 39.062941606131716 4.274643692527617 18.724246805725716 0 0 0
3762 1 42.31110968773306 4.1167902074880915 18.789841321609053 0 0 0
161 1 44.04764418313251 19.777005457865762 18.983639713944985 -1 0 0
2933 1 30.42681103516346 6.376534936438553 18.863777612256214 0 0 0
2611 1 28.93620624185369 6.166565064949982 21.177985619736514 0 0 0
3221 1 34.10546670034374 6.418256799145282 18.739324028119277 0 0 0
3509 1 37.15257373167151 6.2620854647153195 18.749367702577505 0 0 0
3187 1 35.54136382364802 6.382000253478574 20.984669311712622 0 0 0
3797 1 40.76103813758724 6.368161668368998 18.843597662031677 0 0 0
3763 1 42.35130078253603 6.330312556787792 21.0547340888671 0 0 0
3909 1 40.8068717238623 20.025942526104057 23.354314763535 0 0 0
2646 1 28.986551117395948 8.631396354756498 18.713608994279067 0 0 0
2969 1 30.65617064539085 10.876972665576622 18.83018056354455 0 0 0
2936 1 30.63938875310317 8.49405782106453 21.14392434314224 0 0 0
2934 1 32.40507070675241 8.588153833426421 18.870342524244354 0 0 0
3257 1 33.821099347787566 10.88532609623161 18.975314787570024 0 0 0
2935 1 32.23724206205645 10.756521545339899 21.230569854442855 0 0 0
3222 2 35.69442509298375 8.697098956600819 18.840032300359322 0 0 0
3545 2 37.345879423646494 10.900252721180198 19.07360625262693 0 0 0
3223 1 35.518979928457554 10.886233639920087 21.193797225927675 0 0 0
3510 1 38.97088211577788 8.65688107149305 18.913469573565187 0 0 0
3833 1 40.596727945248944 10.86853110525967 18.914945175636728 0 0 0
3800 1 40.67714355641249 8.595928346857846 21.174646115852 0 0 0
3511 1 39.061744825605686 10.89445348706783 21.21344778419342 0 0 0
3798 1 42.30363696054506 8.593347509850162 18.846642267243972 0 0 0
3871 2 42.28479836597524 19.95478679351066 21.125372729647967 0 0 0
2682 1 29.09776056524587 13.223136354913866 18.936111298532477 0 0 0
2970 2 32.17132254749161 13.114413219970656 18.842547141060262 0 0 0
3260 1 33.83404499192287 12.943643041863298 21.115196025874603 0 0 0
3258 1 35.676230098548075 13.140135071583572 18.936790826700843 0 0 0
3546 1 38.90371321688322 13.150081783018406 18.84643865812355 0 0 0
3836 1 40.59815147946379 13.180952341116564 21.120682747624233 0 0 0
3834 1 42.23911556697822 13.05771181968547 18.948638881785076 0 0 0
3874 1 42.42573717635158 17.685940042649705 23.228070063703154 0 0 0
3005 1 30.70166178514856 15.462465539100481 18.800562740187186 0 0 0
2683 1 29.01177706612355 15.362842020176187 21.078542358687777 0 0 0
3293 1 33.99088324197838 15.316286979327863 18.874638204665334 0 0 0
2971 1 32.282513312414906 15.296930628691523 21.031157653043273 0 0 0
3581 1 37.25717551184706 15.353828927592684 18.948350695353525 0 0 0
3259 1 35.55262841014112 15.38322398428226 21.142114360283383 0 0 0
3869 1 40.60175543593355 15.371066679268395 18.81465012840965 0 0 0
3547 1 39.119204016860174 15.473253137624335 21.059217831124663 0 0 0
3835 1 42.45648297368364 15.284435259757094 21.07933813841932 0 0 0
3041 2 30.622691982436727 19.939501985730278 18.81720104447684 0 0 0
2718 1 29.0700284114426 17.62961655495039 18.814929378171925 0 0 0
3008 1 30.7019835163035 17.677056686037844 21.142039525057523 0 0 0
3006 1 32.3904132594979 17.625615082122966 18.82306423669131 0 0 0
3329 1 33.94466038264248 19.908231521867574 18.63750437335186 0 0 0
3007 1 32.44498639749953 19.97334993756262 21.017773350689 0 0 0
3294 1 35.68418923053329 17.588699708964167 18.709683420130986 0 0 0
3617 2 37.355918575769394 19.87923238283354 18.940381772252888 0 0 0
3295 1 35.55237464754344 19.999753057107775 20.98855082297604 0 0 0
3584 1 37.29613645814773 17.78360439613939 21.18801360840504 0 0 0
3582 1 38.89236239935061 17.585819954106185 18.789515512109826 0 0 0
3905 1 40.755103195446814 19.867602027555765 18.802625062686747 0 0 0
3583 1 39.30426842074246 19.79217642513211 21.087611366600665 0 0 0
3870 2 42.457620057734 17.494550134338482 18.79597412832525 0 0 0
3586 1 39.15619847323092 17.579706064489287 23.271851500519055 0 0 0
2900 1 30.656105089554785 4.007376386246753 21.059200757170338 0 0 0
2614 1 28.880251034588387 3.927014286433156 23.37752948927343 0 0 0
3188 1 34.13366731570594 4.21587791281528 21.004386847216836 0 0 0
2902 1 32.527454772202844 4.011289108208299 23.310088653876676 0 0 0
3476 1 37.3263727496876 4.146737474239111 21.029419413485133 0 0 0
3190 1 35.74119689050773 4.2107981669313865 23.267953517344115 0 0 0
3764 1 40.72683859188915 4.032034839687894 21.025516797428338 0 0 0
3478 1 38.958556441875345 4.206267339547338 23.334640536321526 0 0 0
3766 1 42.37540085303886 4.077018954681688 23.213103920009445 0 0 0
2937 1 30.510452920900953 6.253482382483505 23.34616426218809 0 0 0
2899 2 32.32192186593373 6.349525887679365 20.8900967364575 0 0 0
3225 1 33.89810600634378 6.366558525646319 23.368766933077357 0 0 0
3513 2 37.38756778676029 6.469717444862289 23.266725579365914 0 0 0
3475 1 39.01338140720099 6.306749006765391 21.087123618928235 0 0 0
3801 1 40.8159098592164 6.296253668414107 23.512505175347098 0 0 0
2647 1 28.90803906349077 10.95485998242221 21.14450260569028 0 0 0
2650 2 28.93730552305371 8.493595384349945 23.351807038671758 0 0 0
2973 1 30.601552004484773 10.860111144051789 23.432667108394096 0 0 0
3224 1 33.983472537047284 8.665657568348859 21.02275314740434 0 0 0
2938 1 32.26869122381006 8.54741539223107 23.40717163079201 0 0 0
3261 1 33.959398390860336 10.874868540744773 23.47235033357412 0 0 0
3512 1 37.282916287936 8.587656285906537 21.210099432500964 0 0 0
3226 1 35.572161239903416 8.660008763202022 23.370932431234234 0 0 0
3549 2 37.34427464409335 10.831371114290981 23.38729101213016 0 0 0
3514 1 39.023048602336615 8.638126820926974 23.397372886158145 0 0 0
3837 1 40.67533712114664 10.905490130261896 23.532927775051608 0 0 0
3799 1 42.242403717459496 10.910665542612744 21.2785528549853 0 0 0
3802 1 42.45118536467707 8.71514884494659 23.485277398400427 0 0 0
2972 1 30.624968115295395 13.004667671495444 21.18962822065347 0 0 0
2686 1 29.084085351810778 13.182667342600134 23.335439151646217 0 0 0
2974 2 32.19992412239687 13.090928165823334 23.371611172737737 0 0 0
3548 1 37.37141798568986 13.203538042058563 21.24112856708311 0 0 0
3262 1 35.6201926239827 13.25606124465508 23.45131800680102 0 0 0
3550 1 38.99802291279563 13.024775658100719 23.520424235820876 0 0 0
3838 1 42.371784127631884 13.068190106885577 23.315235409514592 0 0 0
3009 1 30.73150520895897 15.491304072163436 23.339566007304608 0 0 0
3297 1 33.80670102994123 15.306337762996861 23.237645158759822 0 0 0
3585 1 37.44652435141525 15.379679230953922 23.34533930120003 0 0 0
3873 1 40.66189654297171 15.331111974279029 23.386273387104286 0 0 0
2719 1 28.928097372458286 19.87930273733791 21.179741132885237 0 0 0
2722 1 29.02422468848279 17.816691382575673 23.47246528363119 0 0 0
3045 2 30.72290956757471 19.937530493764157 23.327287407390564 0 0 0
3296 2 34.08758771243436 17.6599621053634 21.0169386834001 0 0 0
3333 1 33.96314412046502 20.057124051253226 23.33365865984227 0 0 0
3010 1 32.40326259139406 17.704131018265354 23.32107281757836 0 0 0
3298 1 35.518117447659215 17.63861258543896 23.271728468135905 0 0 0
3621 2 37.466121007270885 19.927005017484614 23.1674157846651 0 0 0
3872 1 40.85262474162037 17.62126382844386 21.013432190022325 0 0 0
165 1 44.08893289989291 19.941143331952578 23.471431226101497 -1 0 0
129 1 43.98756767403497 15.399370753403238 23.50044321646441 -1 0 0
53 1 43.95147337415052 6.380967560380524 18.8753723991075 -1 0 0
128 1 43.961153738644114 17.62884689089728 21.100044402955724 -1 0 0
89 1 43.846080483201625 10.811203842313967 18.9496181911675 -1 0 0
56 1 44.01691331514617 8.566212595338062 21.054673946973434 -1 0 0
20 2 43.992538993094215 4.001746050784313 20.90563657315407 -1 0 0
57 1 44.04425980143084 6.422747873306302 23.561877264460243 -1 0 0
2618 1 28.979167049327557 4.019424112334064 27.853342017708353 0 0 0
2904 1 30.911772019077503 3.9037688214601847 25.65236700410944 0 0 0
2906 1 32.342938683336605 4.084080842648207 27.974797460367434 0 0 0
3192 2 34.1039196854843 4.079326827549396 25.646114106596396 0 0 0
3194 1 35.89070347729513 4.198936702461571 27.742566368303795 0 0 0
3480 1 37.35718314248775 4.05525744920778 25.483189425964937 0 0 0
3482 1 38.983887509490756 4.197463942741954 27.775396292652886 0 0 0
3768 1 40.62506605351165 4.158205562464622 25.48406838879282 0 0 0
3770 1 42.396407625055375 4.181549989595049 27.652447968839628 0 0 0
3594 1 38.851370200026395 17.602558717460106 32.46315194313419 0 0 0
2615 2 29.13887411418918 6.183965370955634 25.672695573088173 0 0 0
2941 1 30.562412247892922 6.29155204502202 27.944770487710624 0 0 0
2903 1 32.14706708777437 6.2878167039696296 25.629766371101105 0 0 0
3229 1 33.95930118319497 6.584536271386269 27.857941755040365 0 0 0
3191 1 35.67871867893039 6.415866359315549 25.606419161195245 0 0 0
3517 1 37.426521515785815 6.384063583446352 28.035426025050135 0 0 0
3479 1 39.03793377348514 6.347096090312863 25.64500766565834 0 0 0
3805 1 40.72416953815335 6.367371273829706 27.933155294060082 0 0 0
3767 1 42.40793951844195 6.572242466736441 25.802656877640132 0 0 0
2940 1 30.52902627832551 8.522684325020077 25.7040507668992 0 0 0
2654 2 28.97041862923072 8.650438625079225 27.93536670649068 0 0 0
2651 1 28.85888740627317 10.78560263619329 25.61322523703615 0 0 0
2977 1 30.65806061732105 10.904555174760949 27.79707235826452 0 0 0
3228 1 34.0327165413028 8.665084879165079 25.62911446687453 0 0 0
2942 1 32.137670680692636 8.546080124268855 27.90197221815512 0 0 0
2939 1 32.266308643805 10.721370511064476 25.547926945051657 0 0 0
3265 1 33.97799169060436 10.748048135406204 27.760683956215136 0 0 0
3230 1 35.81052815698087 8.604895358098883 27.916979667398298 0 0 0
3227 1 35.700533745552704 10.833778628882479 25.644941593196844 0 0 0
3516 1 37.26445813685354 8.51831400730396 25.583217419677787 0 0 0
3553 1 37.251625605469954 10.898706675419072 28.00634660572022 0 0 0
3518 1 38.93327116631617 8.666238023312808 27.836680604446077 0 0 0
3515 1 38.77022294436594 11.053519502097908 25.71936184004398 0 0 0
3804 1 40.80379799099448 8.788322487471062 25.634470848926632 0 0 0
3841 1 40.55796740058844 10.890015887496522 27.877496101219542 0 0 0
3806 1 42.477340646327654 8.725953738251679 27.794898717020992 0 0 0
3803 1 42.56336930074567 10.854457469684666 25.611664002793095 0 0 0
3879 1 42.44673848493207 19.874004071698867 30.151904997232975 0 0 0
2690 1 29.05987953954739 13.212012107523572 27.955757179806895 0 0 0
2976 1 30.78444384982634 13.13772137933283 25.679175691199298 0 0 0
2978 1 32.55207001922652 13.101484656010413 27.824476639659512 0 0 0
3264 1 34.076285324394895 13.059672610350274 25.64191486598265 0 0 0
3266 2 35.68715835280214 13.088291817994733 28.1305042426854 0 0 0
3552 1 37.19925541136446 13.247485743284242 25.66910933532787 0 0 0
3554 1 38.76282949191756 13.395433959048631 27.93049569116377 0 0 0
3840 2 40.768200022657595 13.029425558800673 25.574866164463938 0 0 0
3842 1 42.33372331612129 13.21927278223847 27.936793626770832 0 0 0
3917 1 40.839239759159895 19.897030648412887 32.53852642242889 0 0 0
2687 1 29.029991970718903 15.413136613930314 25.614401591853245 0 0 0
3013 1 30.787904332718554 15.421164106753336 27.923531755426524 0 0 0
2975 1 32.469949823825694 15.497322821347485 25.659858128190187 0 0 0
3301 1 34.040764495228586 15.315747225458638 28.00693388485242 0 0 0
3263 2 35.593778095275496 15.487582279193523 25.446143828528335 0 0 0
3589 1 37.07127147945269 15.54338785699397 27.814938946849068 0 0 0
3551 1 39.12553879165861 15.364494422351594 25.707518564648012 0 0 0
3877 1 40.76645809903145 15.402680927075956 28.015127777182993 0 0 0
3839 1 42.26539564742776 15.225434912198306 25.73249359907819 0 0 0
3012 1 30.77558644467048 17.583532439205406 25.650123407104147 0 0 0
2723 1 29.048536162471997 19.994473802291516 25.611698505508105 0 0 0
2726 1 28.99562043050058 17.745644688443996 27.89024109702 0 0 0
3049 1 30.78365151206838 19.920688312130014 27.7028595522197 0 0 0
3300 1 34.144295705329284 17.699378400504536 25.738945193316983 0 0 0
3014 1 32.43943663062652 17.69780341652449 28.116171087464565 0 0 0
3011 1 32.28312267761278 20.02569803969841 25.594495636650713 0 0 0
3337 1 33.99025262281532 19.888155403259535 27.789202308831772 0 0 0
3299 1 35.65385018951206 20.053581649739744 25.575353858305625 0 0 0
3302 1 35.641376271479956 17.74349462533451 27.82332641559705 0 0 0
3588 1 37.42885705292013 17.648559633012795 25.49091184961855 0 0 0
3625 1 37.37648411634631 19.865919433033763 27.829565702514714 0 0 0
3913 1 40.625500702457224 19.946446004082446 27.986975193680134 0 0 0
3587 1 39.173024166498394 20.082514809193217 25.651867158670093 0 0 0
3590 1 38.95265267788178 17.539581909878812 27.937149728197895 0 0 0
3876 2 40.68528419306349 17.72949934238129 25.586486202509207 0 0 0
3875 1 42.33744465482205 19.835699711425114 25.727694846761214 0 0 0
3878 1 42.49272605119403 17.70576558331662 27.993768067766574 0 0 0
3882 1 42.70920607067502 17.540500821902988 32.466152396537126 0 0 0
2622 1 29.020414627664593 3.9439943409780938 32.46006137366179 0 0 0
2908 1 30.771582039351912 3.9478814945644283 30.13151172582211 0 0 0
2910 1 32.2392760232421 4.141869180160762 32.46712282753307 0 0 0
3196 1 34.13322799312577 4.1984913726057425 30.047950637184396 0 0 0
3198 1 35.83476796158348 4.045686243968591 32.354120036299754 0 0 0
3484 1 37.235962858265054 4.21295804313619 30.148102139965456 0 0 0
3486 1 39.1508369904257 4.122990028489565 32.29130221058357 0 0 0
3772 2 40.79712459135962 4.081688442253785 30.10548902627823 0 0 0
3774 1 42.52093669407855 4.0856489436956585 32.43503403880797 0 0 0
3880 1 40.64149699012539 17.59570710608206 30.234519278535846 0 0 0
2619 2 28.986777231989237 6.053602616887394 30.185330103669514 0 0 0
2945 1 30.444114103937935 6.321972810214427 32.50300142561299 0 0 0
2907 1 32.29190424003734 6.297544573052664 30.26130150703028 0 0 0
3233 1 34.01240162651566 6.240839228906339 32.35851690898393 0 0 0
3195 1 35.7344648374846 6.536602346372544 30.15734949672709 0 0 0
3521 1 37.39456218185494 6.39397743479727 32.50259353115253 0 0 0
3483 1 39.04321029699434 6.412566609005127 30.384801637992783 0 0 0
3809 1 40.83527962843492 6.414434365571866 32.562118545310234 0 0 0
3771 1 42.51609985698894 6.323929211469947 30.141674030106604 0 0 0
2944 1 30.579558211440684 8.436486457605206 30.186934584957807 0 0 0
2658 2 28.859346270692512 8.721873611558163 32.63851172074029 0 0 0
2655 1 29.03899606178198 10.896902399591367 30.117677328940598 0 0 0
2981 1 30.744813385816684 10.77552561635737 32.471639514958326 0 0 0
2946 1 32.3167450368087 8.495865929872856 32.3305904825488 0 0 0
3232 1 34.03293658190543 8.619774052230772 30.09022234677657 0 0 0
2943 2 32.3682394077334 10.680463917022742 30.021996186239598 0 0 0
3269 1 33.74767874671842 10.905091220916285 32.40416795952791 0 0 0
3234 1 35.56015030276161 8.681463875762294 32.38710631917402 0 0 0
3231 1 35.352195867789966 10.982336429323322 30.06392135862163 0 0 0
3520 2 37.278154428012634 8.739385748499863 30.120163178259567 0 0 0
3557 1 37.24062164701672 10.908061961360747 32.37365006848257 0 0 0
3522 1 39.05479543873215 8.610835212441618 32.41552123071736 0 0 0
3519 1 39.15249332801683 10.797188242082463 30.136112295787864 0 0 0
3845 2 40.7396487215198 10.787021687593612 32.653274180506436 0 0 0
3808 1 40.73672445377465 8.477005523121822 30.09309798302498 0 0 0
3810 1 42.603364134555136 8.718665219171395 32.376023640990624 0 0 0
3807 1 42.23437067171566 10.878682032561713 30.17558842523521 0 0 0
2694 1 29.135524129654705 13.031564440582589 32.23861238985039 0 0 0
2980 1 30.803291516992097 13.065015668172075 30.13226934226761 0 0 0
2982 2 32.296692258259235 13.212763478510341 32.59024237487722 0 0 0
3268 1 33.77507783007983 13.16498141119688 30.29805421832785 0 0 0
3270 1 35.6062897401526 13.297842527783686 32.400489431822166 0 0 0
3556 1 37.421608585089835 12.886854119440331 30.330827683159374 0 0 0
3558 1 39.008663896594726 12.999958980777716 32.493359788627046 0 0 0
3844 1 40.55796546964834 13.243512603664232 30.087438180984037 0 0 0
3846 1 42.17846703338887 13.161353597739414 32.40363482175237 0 0 0
3591 1 39.14322251439407 19.817926114083566 30.208904321052206 0 0 0
2691 1 28.972020620592744 15.313440861409038 30.12415852259814 0 0 0
3017 1 30.684060102073303 15.471605023765427 32.37926991075024 0 0 0
2979 1 32.2858499653457 15.54613097000632 30.210597931490103 0 0 0
3305 1 33.9824678690096 15.43479722463751 32.357436043859465 0 0 0
3267 1 35.900536317007514 15.27347119408365 30.275938832410535 0 0 0
3593 1 37.455108615082594 15.273672985803383 32.7212897269071 0 0 0
3555 2 38.85028237799188 15.288410805135307 30.245957714281225 0 0 0
3881 1 40.58333768904135 15.391237237728506 32.457294366379216 0 0 0
3843 1 42.425694613693395 15.387987468428351 30.27532291572299 0 0 0
2730 1 29.02804717791792 17.672510826613767 32.45949629760145 0 0 0
3053 1 30.5666365175587 19.93679740887784 32.45746280108809 0 0 0
3016 1 30.54186544456983 17.77146259640756 30.090415048102503 0 0 0
2727 1 29.03217987626779 20.12425458343417 30.138795372133053 0 0 0
3341 1 34.24959253482582 19.860545329404847 32.26958648699075 0 0 0
3018 1 32.36695034620033 17.800184690851438 32.37099596381286 0 0 0
3015 1 32.404368276802224 19.86026220451586 30.117467885655927 0 0 0
3304 2 34.087507895918925 17.600779020552363 30.249153397350202 0 0 0
3306 1 35.78008349522886 17.6944564435227 32.642073282738636 0 0 0
3592 1 37.3002345323043 17.754658813209495 30.171732791672564 0 0 0
3303 1 35.72659201777288 20.049424223591114 29.984734393632472 0 0 0
3629 2 37.301351938428105 19.965296976666238 32.25602386548873 0 0 0
132 1 44.0421427528173 17.676213918449264 25.614218153959456 -1 0 0
169 2 44.052885814926256 20.014911865629358 27.845796923837117 -1 0 0
173 1 44.040756864775894 19.845817744283696 32.34775087484101 -1 0 0
100 1 44.068246173812916 13.188448098861567 30.211769107191582 -1 0 0
101 1 43.91578391717695 11.090241163916893 32.53856554730081 -1 0 0
24 1 44.06469139897404 4.083127222745306 25.477681941838334 -1 0 0
133 1 44.004029126841935 15.371641673737656 27.951727411374144 -1 0 0
2626 2 28.94561331643687 4.291203899334995 37.086054560069485 0 0 0
2912 1 30.481045883913957 4.109362364540516 34.682728121952124 0 0 0
2914 1 32.20712285482939 4.172806705266799 36.824243255887524 0 0 0
3200 1 33.936907388937385 4.12867270497579 34.67621558188381 0 0 0
3202 1 35.73637625042883 4.112175527443916 36.81709847766899 0 0 0
3488 2 37.52796452888819 4.042113138617821 34.606176259016266 0 0 0
3490 1 39.095651259004406 4.095700170194843 37.05699294864327 0 0 0
3776 1 40.71314514822829 4.1254891556379 34.649119960229015 0 0 0
3778 1 42.247769123465645 4.238515266330284 37.05163901870122 0 0 0
108 2 44.035958665356134 13.14765324871841 39.325342160348114 -1 0 0
2623 1 29.024628515088047 6.383494235865926 35.02781124342532 0 0 0
2949 1 30.754873149616394 6.438787973403001 37.05742233630076 0 0 0
2911 2 32.362986459397966 6.323295529901436 34.662646678525974 0 0 0
3237 1 33.92119475568748 6.336510822083384 36.81539000789567 0 0 0
3199 1 35.69879879500394 6.508000375054435 34.61100593006988 0 0 0
3525 1 37.484723328113006 6.301748419214142 36.924985250046035 0 0 0
3487 1 39.00391135011817 6.4533784084997095 34.55494960991143 0 0 0
3813 1 40.538092465521196 6.5814856697827375 36.87445823343151 0 0 0
3775 1 42.57709612297932 6.391759964481889 34.6903468735603 0 0 0
3887 1 42.31142674757535 19.93701608948116 39.011429825578034 0 0 0
2948 1 30.78331619271963 8.651239620560144 34.6567640294646 0 0 0
2662 1 28.71607435102179 8.630820356100056 36.93305674676132 0 0 0
2659 1 28.75969309624887 10.764000630726898 34.79688055966426 0 0 0
2985 1 30.52476901848734 10.931085734963846 36.92123715450043 0 0 0
3236 1 33.87394334487695 8.660512040720162 34.64208986026847 0 0 0
2947 1 32.352556283362155 10.923052757462159 34.80147755952444 0 0 0
2950 1 32.345269779522305 8.601866538152825 37.04881827766458 0 0 0
3273 2 33.995648428755025 11.080294122612324 36.96608560939235 0 0 0
3238 1 35.57453503762574 8.595096726900415 36.991945792977006 0 0 0
3235 1 35.56089148823579 10.826409991448427 34.56628156582509 0 0 0
3524 1 37.26839380424057 8.62077856952531 34.58068874984701 0 0 0
3561 1 36.982023306119245 10.923971898683282 36.81853008801535 0 0 0
3526 2 38.89731519936453 8.834511758547269 36.844065403039465 0 0 0
3523 1 38.835768481879406 10.881249300339807 34.59730742744739 0 0 0
3849 2 40.64920441427057 10.816032380877463 36.892144706267985 0 0 0
3812 1 40.78533775553136 8.748766003195863 34.74753487318077 0 0 0
3814 1 42.63111788603686 8.625252454096296 36.90139771511434 0 0 0
3811 1 42.59265279467253 10.842761355125972 34.729270167829554 0 0 0
3599 1 39.146082028661894 20.162050214067207 39.02103360990424 0 0 0
3494 1 38.92670238372445 8.625066242846437 41.41104902878992 0 0 -1
2698 1 28.906513620667386 12.995419498249342 36.90626829036211 0 0 0
2984 1 30.35857514101277 13.025135691940529 34.71566119202643 0 0 0
2986 1 32.167206703272896 13.13005555302789 36.95231956771502 0 0 0
3272 1 33.967413494588776 13.069593139207932 34.75393705869902 0 0 0
3274 1 35.7077228632093 13.313538573196256 36.9242532227768 0 0 0
3560 2 37.216411198589405 13.133401391396927 34.66782194511755 0 0 0
3562 1 38.92055078420381 13.08668186778034 36.99990619554063 0 0 0
3848 1 40.703288271161654 12.901074524711774 34.86325422622794 0 0 0
3850 1 42.45249884235858 13.116751656656417 37.05875178815957 0 0 0
2695 2 29.115557662077663 15.446575309032417 34.617082496689264 0 0 0
3021 1 30.584326734725117 15.414443990223253 37.047715562238736 0 0 0
2983 1 32.19586668659214 15.338342355096843 34.74312064167903 0 0 0
3309 2 33.888060833542795 15.309889514769957 36.95020474660433 0 0 0
3271 1 35.43378659575587 15.412962551505682 34.71035696370974 0 0 0
3597 1 37.52414037548063 15.544267050705477 36.7864706030668 0 0 0
3559 1 39.15142120001293 15.175418106561434 34.77277894738391 0 0 0
3885 1 40.77749578156773 15.374926186586205 36.946781921225806 0 0 0
3847 1 42.27556325420069 15.33805970954325 34.582239816594225 0 0 0
3020 1 30.893982330464297 17.758261004583623 34.773102648617666 0 0 0
2731 1 28.87630074615379 19.853827606024627 34.843227821495205 0 0 0
2734 2 29.063334626051194 17.656677361930356 36.88860203840949 0 0 0
3057 1 30.85248214498869 20.002479530936846 36.97641697496802 0 0 0
3308 1 33.917612791891926 17.61066614867638 34.719868936984696 0 0 0
3022 1 32.34265396687843 17.604038023107016 37.07064918528704 0 0 0
3019 1 32.517878118756606 20.054990294619177 34.55573214320064 0 0 0
3345 1 33.89266088837019 19.878286592218572 36.90732274896315 0 0 0
3633 1 37.355613054749114 19.868649812519504 36.870916344598214 0 0 0
3596 2 37.406119668261915 17.49544060128693 34.84712341430908 0 0 0
3307 1 35.706516871893115 19.873904222618087 34.70808380389076 0 0 0
3310 1 35.60673161549671 17.516113674889603 36.9273185113674 0 0 0
3921 2 40.85924966346849 20.196358268861616 36.64148959229598 0 0 0
3595 1 38.93880497543099 19.960864126938556 34.6105375248777 0 0 0
3598 1 39.20864544099855 17.81585692263308 36.88848680231804 0 0 0
3884 1 40.65087367902597 17.767507778734206 34.55830422194461 0 0 0
3883 2 42.6484226959791 19.894481992272084 34.72231619427522 0 0 0
3886 1 42.23883971351094 17.77030562473518 36.86116042378178 0 0 0
2916 1 30.739925023664973 4.138489399566066 39.22384410362413 0 0 0
3204 1 33.89810581369204 4.032333911041363 39.24425230890098 0 0 0
72 1 44.07765037727399 8.568361791542529 39.27422533721867 -1 0 0
3492 1 37.18191120634077 4.024890599623479 39.131190573671944 0 0 0
3206 1 35.63092829575417 8.741865182941982 41.35476057848555 0 0 -1
3780 1 40.750814121713596 4.013341023496195 39.36990706151694 0 0 0
141 2 43.976597171515124 15.51146103848557 36.91045832223635 -1 0 0
3781 1 40.8322677953425 6.373270518393097 41.406653271977305 0 0 -1
3817 1 40.75365346462523 10.73723209227579 41.206318381349675 0 0 -1
2627 1 28.956662934351783 6.3625380432523295 39.19201143551393 0 0 0
2915 1 32.3992511999299 6.479323379986067 39.29276655946613 0 0 0
3203 1 35.6231763508196 6.392414991983045 39.14977669058017 0 0 0
3746 1 42.53626147900917 4.0508746556979744 41.42985402863832 0 0 -1
3491 2 39.08258578134153 6.290222721407148 39.15519300887068 0 0 0
3779 1 42.30748743857258 6.350940432584208 38.9495118915566 0 0 0
37 1 44.07325869381793 6.399360379500881 41.2434776351305 -1 0 -1
2952 1 30.46167671459291 8.587725771213009 39.25775410255369 0 0 0
2663 1 28.76214397189738 10.79307385039069 39.217156315505264 0 0 0
32 2 44.06063352498494 4.007273452925297 34.77124860325192 -1 0 0
144 1 43.790272126458085 17.644563688561682 39.20087547185206 -1 0 0
3240 1 33.97448174363176 8.861093005861512 39.205198459407015 0 0 0
2951 1 32.14308110549073 10.942991559284987 39.164191748753495 0 0 0
3239 1 35.670576790162 11.058347999518263 39.2713921390869 0 0 0
3528 1 37.31284536581128 8.48780996217294 39.107297834739654 0 0 0
3023 1 32.209626266742845 20.015339025801385 39.352441448710934 0 0 0
3312 1 33.94148726582967 17.72392944394262 39.29833315570896 0 0 0
3527 1 38.93458873728595 10.841913927438977 39.024139068462574 0 0 0
3816 1 40.644901805455184 8.768689091389376 39.0359637667263 0 0 0
3024 1 30.565447400045613 17.64999499657253 39.135853856503545 0 0 0
3815 1 42.58417624586585 10.829888782242186 39.027020085149374 0 0 0
2988 1 30.588198687467305 13.22430340971013 39.14757351618111 0 0 0
3276 1 33.85670949353597 13.20501964190942 39.17151012487852 0 0 0
3564 1 37.279351435941585 13.20208733485127 39.37590297529685 0 0 0
3311 1 35.825195664262594 19.982358402382378 39.11349963137687 0 0 0
3852 1 40.791058536612084 13.0200820376285 39.22794220709147 0 0 0
3888 2 40.80530184974948 17.705747825984524 39.29936791807849 0 0 0
2699 2 28.91673490542002 15.324689586830171 39.285928660494264 0 0 0
2987 1 32.318156495645866 15.484890912369355 39.25214645383524 0 0 0
3600 1 37.37384122015123 17.613835125889423 39.1542450323268 0 0 0
3275 1 35.65827919554593 15.448494523091787 39.234100966927144 0 0 0
36 2 44.08155009790921 4.296547612444872 39.07795226551262 -1 0 0
3563 1 39.204045743648535 15.43454344652602 39.25691532593939 0 0 0
3851 1 42.290243206530334 15.397864624671273 39.386748812755386 0 0 0
2735 1 29.166404434543644 20.07331382488651 39.30471236034397 0 0 0
2918 1 32.252245395307646 8.708041261279423 41.40784937502016 0 0 -1
145 1 43.8973814314284 19.907443826079742 41.26831677605304 -1 0 -1
3601 1 37.54787226820963 20.028117126597202 41.34978357299741 0 0 -1
3458 1 38.81821616380596 4.321999864262291 41.23974266797053 0 0 -1
3889 2 40.65296235905894 19.911314372060236 41.28677524485208 0 0 -1
3278 1 35.916997332606066 17.67653688353795 41.39548758253564 0 0 -1
2702 1 28.843087210585384 17.654781708473372 41.42407763392021 0 0 -1
3241 2 33.92888093315195 10.944855952946934 41.42994864599465 0 0 -1
3566 1 39.01404873216599 17.629924335650536 41.42658270693854 0 0 -1
2666 1 29.007102906000853 13.355715023865464 41.36210272742732 0 0 -1
3028 2 30.669587277966542 21.985184842447804 3.0597706140986665 0 0 0
148 2 44.04436744401922 22.235768519478427 3.0055206079974086 -1 0 0
3316 1 34.04263988187407 22.26711001725875 2.8635079505141223 0 0 0
188 1 43.96165578164006 26.779847667965576 7.334801822805537 -1 0 0
3604 2 37.36474749355151 22.123588363532903 2.8989370094817 0 0 0
3892 1 40.63758869128135 22.26164009973891 2.944425612078357 0 0 0
220 1 43.99607334427114 31.263053992998827 3.0283044277945996 -1 0 0
2739 1 29.166481959819393 24.396974271455345 2.921135874025574 0 0 0
3027 1 32.22681017357933 24.292373184790527 3.089569221669364 0 0 0
257 1 44.09617321558883 33.59481181238684 5.213672670207984 -1 0 0
3315 1 35.74906322523779 24.503464416236227 2.907114855959103 0 0 0
3997 1 40.69735882899045 33.60865333030735 0.7742613200089926 0 0 0
3603 1 39.130505671831855 24.53748093359696 2.9251203501629255 0 0 0
3891 1 42.311975998933896 24.595042094566075 3.1078907763601427 0 0 0
3064 2 30.709381242070066 26.699317360415684 2.8345373583090687 0 0 0
2775 1 29.13285788499511 29.058677065294294 2.891384255257085 0 0 0
3352 1 33.743667101223465 26.665332399963656 2.8303167388543033 0 0 0
3063 1 32.21086374407235 29.002709611593342 2.8070864797995463 0 0 0
3640 1 37.64398215634075 26.841805458219767 2.9892237334889478 0 0 0
3351 1 35.72773404905815 28.76058848746603 2.9204757524253795 0 0 0
3350 2 35.76124791584136 26.616040721806918 0.7998303900792656 0 0 0
3749 1 40.72155350812149 37.979537940531486 5.236664074574672 0 -1 0
3639 1 39.18980394575465 29.10664737506624 2.957655193711989 0 0 0
3928 1 40.75701434103185 26.725245270806976 2.7817078332128164 0 0 0
224 1 44.01918767756518 31.006113348157673 7.578768118088393 -1 0 0
3427 1 35.69161348644538 38.075729252843956 7.3778798128168495 0 0 0
3927 1 42.41152998734382 28.928476544742548 3.069330302578857 0 0 0
3716 1 37.436619332257735 35.81155215253717 7.356552978343479 0 0 0
4003 1 42.3689989420365 38.03589007297903 7.5070159685725795 0 0 0
3100 1 30.65138700514582 31.29159355155864 3.1271833529520108 0 0 0
3388 1 34.00209309785159 31.126514354731224 2.884121221288882 0 0 0
185 1 43.985048144685734 24.49342929147651 5.297641155192776 -1 0 0
3676 1 37.365122555293745 31.106041738630434 2.765050136504271 0 0 0
3426 1 35.69366387617172 35.88403159104884 5.2499568696485115 0 0 0
3964 1 40.898390742850715 31.22578795000683 2.9389004020644345 0 0 0
3715 1 39.1503425209582 37.970453284448304 7.574074039829514 0 0 0
2850 2 29.058432533534344 35.929108776705895 5.257570524056827 0 0 0
184 1 44.078783178369214 26.627753310153505 2.9863620359087277 -1 0 0
2811 1 28.864399179720184 33.62915745024998 2.8955734974133667 0 0 0
2738 1 29.044352548659475 22.21803682377836 0.8248925151880887 0 0 0
3099 1 32.40847040715363 33.5779942769177 2.955207216858328 0 0 0
3387 1 35.68010923997573 33.48887861933714 2.93409889357431 0 0 0
3675 1 39.047030421167015 33.49808027214422 2.9301830335213994 0 0 0
3461 2 37.394848284147606 38.14302508679099 5.113670611461007 0 -1 0
3963 1 42.428110671976555 33.56620737062873 2.893983648942339 0 0 0
3136 1 30.695991863492097 35.783144255654065 3.009129597977037 0 0 0
2847 1 28.93960610983609 38.06579302126762 3.0389768840309768 0 0 0
3138 1 32.40476510567266 35.85295286456138 5.272940492970111 0 0 0
3424 1 34.116894155115325 35.775341032590816 2.988855743041867 0 0 0
3135 1 32.47493187332328 38.081607838473175 2.8481783483417993 0 0 0
3714 1 39.02153365404022 35.94022518411306 5.178899031271541 0 0 0
3712 1 37.2963947398417 35.845939639318985 2.8133796371288673 0 0 0
3423 1 35.65031392785759 38.18750212719755 2.9157964119152977 0 0 0
4004 1 40.80118997420789 35.63387209391754 7.398609333418722 0 0 0
4000 2 40.70043430240477 35.786053878463356 2.9689339918384476 0 0 0
3711 1 39.123611044259924 38.06875108461559 2.917533152118692 0 0 0
3999 1 42.43065684410089 38.142381050311165 2.7947387912747987 0 0 0
3139 1 32.45751596897328 38.106320431404775 7.580505525330315 0 0 0
2742 1 28.911263358704474 22.189241867007897 5.175367879122536 0 0 0
3032 2 30.642771787017246 22.053435672193853 7.3985034297003605 0 0 0
3030 1 32.430643577198566 22.23216982740094 5.247107465896251 0 0 0
3320 1 34.180141351350066 22.276104060825343 7.546046832676846 0 0 0
3318 1 35.7410761191618 22.269226560734147 5.20509436765813 0 0 0
3608 1 37.445430314724554 22.210667955548953 7.45267081981252 0 0 0
3606 1 39.0345355494699 22.167007790464684 5.227889204678426 0 0 0
3896 2 40.75396363934311 22.21288334566541 7.472301466582598 0 0 0
3894 1 42.31065691612654 22.213417334458217 5.277360330360483 0 0 0
3065 1 30.594986489055138 24.488541342714 5.237760371211149 0 0 0
2743 1 28.924345443757048 24.371495069871404 7.422321346834364 0 0 0
3031 1 32.23487757586732 24.419397411493275 7.53863965221627 0 0 0
3353 1 34.02269498588116 24.59358008367875 5.191680887016846 0 0 0
3319 2 35.86446722423048 24.527245569425254 7.2768877941397685 0 0 0
3641 1 37.477942446031236 24.468902181331373 5.07986293716887 0 0 0
3607 1 39.118549365741806 24.414895789676326 7.454460048757414 0 0 0
3929 1 40.752604167882374 24.28784770823852 5.2354847632318515 0 0 0
3895 1 42.385397000070526 24.537064141322332 7.540445348201278 0 0 0
4002 1 42.460344998883286 35.79811994784953 5.1491080084940215 0 0 0
2779 1 29.01634352207438 29.16591060886376 7.489526346638049 0 0 0
3068 2 30.57406017929987 26.717682407278645 7.538795479496923 0 0 0
2778 1 29.13491933692896 26.662695224525383 5.189877643130609 0 0 0
3101 1 30.70517192359805 29.12834500488564 5.231371746898708 0 0 0
3356 1 34.08203902187924 26.76433428924239 7.442016192833368 0 0 0
3067 1 32.31153809665929 28.899926135013885 7.417954156358442 0 0 0
3066 1 32.22501973585449 26.734420904997528 5.260876928170381 0 0 0
3389 1 34.069267118244376 29.010371538497303 5.155672932816538 0 0 0
3644 1 37.54929314858361 26.767982554313107 7.318222401091419 0 0 0
3354 2 35.6533492693348 26.726923767137958 5.025779088514969 0 0 0
3355 1 35.73993034889923 29.0097093676585 7.429688647929727 0 0 0
3677 1 37.32995258261063 29.01349060201926 5.179348687191078 0 0 0
3932 1 40.74117143563673 26.690926061880795 7.441641278049496 0 0 0
3642 1 39.210340052545604 26.64956954206424 5.11889910362408 0 0 0
3643 1 39.19534231423116 29.049878600211656 7.555845735688282 0 0 0
3965 1 40.611681025961495 28.981779350735714 5.177158617343265 0 0 0
3173 1 34.02528421525385 38.05190060984913 5.106520049380354 0 -1 0
3428 1 34.0091409976127 35.69244127500543 7.450841408902052 0 0 0
3930 2 42.37352814557247 26.7419840607484 5.117413862525039 0 0 0
3931 1 42.25366157742419 28.98500285113216 7.443695479732582 0 0 0
2814 1 28.962234227930573 31.27283921689282 5.245412578811824 0 0 0
3104 1 30.63404145741042 31.236040491796338 7.372821702713437 0 0 0
3102 1 32.435152815143745 31.385245203999244 5.260061999684638 0 0 0
3392 1 34.15025513338616 31.25085737433088 7.582655577710945 0 0 0
3390 1 35.57948199375422 31.301376414913538 5.085157803805841 0 0 0
3680 1 37.31713421492998 31.186116151497814 7.442690754388611 0 0 0
3678 1 38.96866165847366 31.2477948010547 5.17636824657046 0 0 0
3968 1 40.665657540090855 31.275150227752032 7.491465953736072 0 0 0
3966 2 42.40063310806473 31.251365852745383 5.3339454614186215 0 0 0
181 1 44.05193527039185 24.35517802117019 0.8506138265067926 -1 0 0
2815 1 29.07561763103488 33.5694121405886 7.547376192044647 0 0 0
3137 1 30.633317096962635 33.65066076145234 5.252417460426292 0 0 0
3425 2 34.04254560325824 33.6782126687872 5.3111482686597595 0 0 0
3103 1 32.23529267924797 33.62368375869937 7.458107721912697 0 0 0
3713 1 37.36154107597662 33.50737896293397 5.177624011921964 0 0 0
3391 1 35.74261708742086 33.481342524230286 7.475490349334773 0 0 0
3679 1 38.948412001768844 33.4616577573873 7.450583559834942 0 0 0
4001 1 40.70229784343711 33.57611647830193 5.23668672644534 0 0 0
3967 1 42.489322460733696 33.27954298605253 7.432399498412427 0 0 0
2885 1 30.77581868076058 38.069901145766565 5.273924454064593 0 -1 0
2851 1 28.988003328874825 38.162116540030695 7.504650877573282 0 0 0
3140 1 30.64742940086917 35.90934965285908 7.506369470589411 0 0 0
5 1 43.940694711372316 38.13409208936992 5.089014055575387 -1 -1 0
3890 1 42.335997620350796 22.16627702232922 0.7213037322758652 0 0 0
221 1 44.09189234690734 29.009524950309423 5.176016442557751 -1 0 0
256 1 44.08424692324363 35.874555466668134 2.872439351771239 -1 0 0
3026 1 32.26326027164679 22.128987817208948 0.7832417286001304 0 0 0
3133 1 30.605188597539872 33.61586883452422 0.7240004861947398 0 0 0
3710 1 39.12326119305077 35.82796260678895 0.7226273859405836 0 0 0
3709 2 37.34604441233834 33.5596830280372 0.740355478194445 0 0 0
3961 2 40.84211526725174 29.013509037283352 0.7447124172033881 0 0 0
3962 1 42.38728693453069 31.40107061115604 0.8020408229511986 0 0 0
2881 1 30.692884961000658 38.096681916275216 0.7373162228459904 0 -1 0
3925 1 40.78388534622282 24.40983827263247 0.7575200423242308 0 0 0
2746 1 29.08283585729334 22.27808420990958 9.763362726021509 0 0 0
3036 1 30.686463080475313 22.108071270940247 12.001995009406501 0 0 0
3034 1 32.42269417843742 22.529358422756058 9.71540773262855 0 0 0
3324 1 33.92951419035195 22.170901834394826 12.032861430081175 0 0 0
3322 1 35.66521743402472 22.26124809938476 9.801236860307762 0 0 0
3612 1 37.482183648880124 22.169164731468385 12.059102965255468 0 0 0
3610 1 39.07414677598585 22.29032430848868 9.769926777613142 0 0 0
3900 1 40.803703568383554 22.193140009944656 11.940473130554459 0 0 0
3898 1 42.416151061241976 22.17487958103121 9.782524977328015 0 0 0
2747 1 28.747821996660914 24.47830296715443 12.024730642323217 0 0 0
3069 1 30.49877868384224 24.432814211199613 9.715942666292001 0 0 0
3035 1 32.31803754939897 24.552754749287807 11.963962029109384 0 0 0
3357 1 34.11360519726086 24.600548952520228 9.752670927608582 0 0 0
3323 1 35.77337294572328 24.46753288634011 12.059098695168235 0 0 0
3645 1 37.35246826822405 24.535994887652524 9.58150201626454 0 0 0
3611 1 39.13132153585459 24.504823834752518 11.993554641529498 0 0 0
3933 1 40.924194418779415 24.40413529939387 9.888369995436706 0 0 0
3899 1 42.525185322075046 24.503034343014882 12.067579950678146 0 0 0
4010 1 42.54106004171195 35.85071595798583 14.308961211904998 0 0 0
3072 1 30.538268776143184 26.690108956248547 11.922291727118434 0 0 0
2783 1 28.884810636582937 28.827484175586033 11.8729728675828 0 0 0
3105 1 30.69302041273913 28.87615626709801 9.814096216169615 0 0 0
2782 1 28.79820201610726 26.707284121830387 9.811274108365978 0 0 0
3360 1 34.267856952046685 26.808469739507064 11.84283304170254 0 0 0
3071 2 32.367669727929766 28.77623022893104 11.924242071095067 0 0 0
3070 1 32.36859570670009 26.740657288962858 9.710453215609748 0 0 0
3393 1 34.07622129543504 29.028081330983408 9.77428887581906 0 0 0
3648 2 37.354754164440784 26.69059489987689 11.8336411511319 0 0 0
3358 1 35.932578003968686 26.827789705090044 9.54473661481941 0 0 0
3359 1 35.89088156748355 29.01202004755865 12.019386802074806 0 0 0
3681 1 37.55085152811538 28.988269560934295 9.54093343485107 0 0 0
3936 1 40.86991096299589 26.837314281613438 11.970986604645487 0 0 0
3646 1 39.143754530096786 26.633583693617435 9.641161646260782 0 0 0
3647 1 38.88084519043927 28.930386602208998 12.17336343115645 0 0 0
3969 2 40.74765421081534 28.907948418349644 9.738888892104747 0 0 0
3934 1 42.565443701512024 26.734146773210057 9.699637627436676 0 0 0
3935 1 42.704667612555625 28.913428143897782 11.998981741961924 0 0 0
2818 1 29.070103646400952 31.184405396902452 9.898538214851868 0 0 0
3108 1 30.819048110747836 31.08726512082428 12.053995002516219 0 0 0
3106 1 32.434176331525684 31.176479699904938 9.812759793669194 0 0 0
3396 1 34.07923729958168 31.112610819540084 12.065106897061623 0 0 0
3394 1 35.78729030836578 31.24427534969676 9.906667528159694 0 0 0
3684 1 37.42512696479351 31.241893100326333 12.188920054617684 0 0 0
3682 1 39.1188565551117 31.273483098687436 9.71424220923371 0 0 0
3972 1 40.83409249864566 31.009110854671434 11.853758781785464 0 0 0
3970 1 42.37833915226928 31.33102226696915 9.709512364743098 0 0 0
9 1 44.01072322363603 38.06932201325488 9.811162222381068 -1 -1 0
2819 2 28.961979119794904 33.27141672168119 12.113491254567053 0 0 0
3141 1 30.724218984303107 33.59493457894017 9.75175274184842 0 0 0
3107 1 32.449017370381796 33.48345153020908 11.983654198717094 0 0 0
3429 1 34.03703005607206 33.56492274804228 9.656158951167498 0 0 0
3395 1 35.738449090521684 33.471634579066574 11.976462969410605 0 0 0
3717 2 37.48303892053407 33.4741011724938 9.944057550296753 0 0 0
3683 1 39.37211332660789 33.2638850580023 12.012648333997229 0 0 0
4005 1 40.66664362599363 33.66891045430539 9.494979730334146 0 0 0
3971 2 42.255015545175546 33.45886987851574 11.898178130723196 0 0 0
3722 1 39.1629550306935 35.65892331784414 14.137809662230522 0 0 0
3144 1 30.59615681244062 35.630879001824226 11.965010757788438 0 0 0
2854 2 29.014657172566004 35.86399317847368 9.647405561648515 0 0 0
2855 1 28.900277527005493 37.934704074911586 11.873019707972963 0 0 0
2889 1 30.88173848703265 38.103831844764855 9.843222258923456 0 -1 0
3432 1 34.10459229353525 35.55747898629651 12.103784959132463 0 0 0
3142 1 32.47754993461181 35.70088535060227 9.914250759900758 0 0 0
3143 2 32.3515658083424 37.91696225136473 12.200259849075136 0 0 0
3177 1 33.99422969223593 37.979167167008015 9.896536105897118 0 -1 0
3465 1 37.24708798866773 37.963583267324125 9.649772647138748 0 -1 0
3720 1 37.541831179979056 35.51571177053976 11.907467180398077 0 0 0
3430 1 35.72524730490947 35.63207186220808 9.720384376539535 0 0 0
3431 1 35.843251700217216 37.78164855747261 12.010736526112904 0 0 0
4008 1 40.85171356098923 35.75055100562608 11.892000203496538 0 0 0
3718 1 39.062228031939426 35.794191726560015 9.609915029633118 0 0 0
3719 1 38.92235035853349 38.00571578636805 12.042220428721471 0 0 0
3753 1 40.84751927461371 37.91910491952263 9.799852708295838 0 -1 0
4012 1 40.72968564926389 35.733268211507514 16.58317197853004 0 0 0
4006 1 42.338904932644056 35.6861753495739 9.623865344327724 0 0 0
4007 1 42.47909505524143 38.070422567235795 12.05519463233338 0 0 0
2750 1 29.082759080752346 22.171632809122944 14.299271481124851 0 0 0
3040 1 30.582746143576024 22.33772458319699 16.52940750580901 0 0 0
3038 1 32.24048931296568 22.196172844137916 14.289551937493801 0 0 0
3328 1 33.85208255357622 22.06569324766383 16.544348168125957 0 0 0
3326 1 35.826283061461794 22.251618359836858 14.289516295883395 0 0 0
3616 1 37.44257336484765 22.235186166480748 16.511060317195785 0 0 0
3614 1 39.213204437505674 22.22071710811579 14.259126821765628 0 0 0
3904 2 40.73285507017023 22.053602897959234 16.62896627109459 0 0 0
3902 1 42.46702670118465 22.181317216678604 14.319757126606376 0 0 0
4011 1 42.37465313705809 38.046761897591885 16.595578396294314 0 0 0
3073 1 30.663376617466525 24.480089731226343 14.268218046228881 0 0 0
2751 1 28.972851375696543 24.637003670559764 16.34567813211953 0 0 0
3039 1 32.347368295543994 24.42573466752883 16.41253242313637 0 0 0
3361 1 34.04142244138646 24.300351674762396 14.198533065656346 0 0 0
3327 2 35.65001025456568 24.41592169528449 16.508387408337867 0 0 0
3649 1 37.30546771375281 24.51581175398947 14.15749726017242 0 0 0
3615 1 39.20253655935337 24.47361458340006 16.289195438047777 0 0 0
3937 1 40.882211768883266 24.46723100244459 14.214980787482373 0 0 0
3903 1 42.49567565123361 24.325985568190244 16.591918100391418 0 0 0
3076 1 30.736149453055738 26.729691724939254 16.451464982690375 0 0 0
2786 1 28.9235071298582 26.798087034797035 14.2684269737129 0 0 0
2787 1 28.827802245955976 28.895002931079425 16.384461036881 0 0 0
3109 1 30.735761664405594 28.966660377166722 14.293949502170827 0 0 0
3364 1 33.929147210031694 26.709319427187083 16.302200301403847 0 0 0
3075 1 32.4526147012992 29.050466873150576 16.559457211515184 0 0 0
3074 1 32.31053792904054 26.55156732010896 13.928140477770057 0 0 0
3397 1 33.95117492658085 28.888494802071396 14.101296140386655 0 0 0
3652 1 37.44202505516565 26.605645028595525 16.364232349440034 0 0 0
3362 1 35.673915038885575 26.74701076487881 14.136510058499153 0 0 0
3363 1 35.60547461117548 28.983808634114897 16.364642027457933 0 0 0
3685 1 37.367448336465664 28.996516373812877 14.493455109298559 0 0 0
3940 1 40.80953154343052 26.577013420060247 16.431229359806053 0 0 0
3650 1 38.994091905348085 26.639358380264273 14.151131287669681 0 0 0
3651 1 39.289580241019614 28.831431251289178 16.528029093527934 0 0 0
3973 2 40.80256513387873 28.859506348228287 14.132715320900024 0 0 0
3938 1 42.569313996288535 26.672557942056407 14.257126547387617 0 0 0
3939 1 42.477424237598576 28.892281222498475 16.319771108595546 0 0 0
3723 1 39.05249919828694 37.986212218537105 16.537996783559237 0 0 0
3757 1 40.697155328904856 38.01641476240735 14.360742410727083 0 -1 0
2822 1 28.90219978908909 31.128213651268926 14.048514886316108 0 0 0
3112 1 30.45313331327246 31.146161297048263 16.34722172105406 0 0 0
3110 2 32.506916123422684 31.320947029914972 14.315691853273515 0 0 0
3400 1 34.09687564371016 31.464224079693803 16.573379832038903 0 0 0
3398 1 35.68007311488423 31.330124086573445 14.356746133705386 0 0 0
3688 2 37.48426092660225 31.02067544188708 16.558003360565444 0 0 0
3686 1 39.23292388309569 31.13541510973224 14.305902774206697 0 0 0
3976 1 40.87176587187335 31.121593373921357 16.559230252773773 0 0 0
3974 1 42.531381225916554 31.075987803629456 14.267242242035664 0 0 0
2823 1 28.932189188014814 33.466097728275926 16.488011215616538 0 0 0
3145 1 30.758951153737648 33.49725737894438 14.245275171425082 0 0 0
3111 1 32.17719426243717 33.50875470804457 16.545415649242052 0 0 0
3433 1 33.98457640050462 33.583865408590526 14.326633737854879 0 0 0
3399 1 35.96415977880878 33.363891161365764 16.4614120698948 0 0 0
3721 2 37.49844680014165 33.492237615219096 14.100174661936284 0 0 0
3687 1 39.054045163871535 33.44973340974626 16.519769913372315 0 0 0
4009 1 40.89872309837266 33.38914588162295 14.453369685930372 0 0 0
3975 1 42.48597797984778 33.54178746930143 16.56579991327491 0 0 0
2893 1 30.26291367440205 37.83689470173725 14.369121035799763 0 -1 0
2858 1 28.86749330910992 35.555069089695166 14.183872095092205 0 0 0
3148 1 30.453529594009133 35.76580492761764 16.5493989580961 0 0 0
2859 1 28.79688693805858 38.00598994185625 16.86564750997549 0 0 0
3181 1 34.283463197729596 37.90266159552873 14.220157072904245 0 -1 0
3436 1 34.18405828513007 35.73316583130809 16.485199648889427 0 0 0
3146 1 32.265970112495054 35.808846839034395 14.298431183190855 0 0 0
3147 2 32.31245113503477 37.886424858853665 16.356737990773752 0 0 0
3469 1 37.42110124259676 37.904451111216765 14.28028770742171 0 -1 0
3724 1 37.44792304759277 35.5793263523404 16.444808881568346 0 0 0
3435 1 35.79381883947059 37.967583865976096 16.596027915637563 0 0 0
3434 2 35.885700706460874 35.47451729633969 14.25225865370348 0 0 0
228 1 44.08618407166999 31.386613945363962 11.912053596036605 -1 0 0
265 1 43.88838626717749 33.56942724483116 14.178361576685505 -1 0 0
264 1 43.902124268148306 35.6883849995439 11.937824837085214 -1 0 0
268 1 44.06946822852262 35.80785904515714 16.532647060919096 -1 0 0
2754 1 28.920765439002448 22.323970030269205 18.7529636133034 0 0 0
3042 1 32.224976632816684 22.195083701548135 18.7389251482761 0 0 0
3332 1 34.030534634829635 22.28062312396321 21.094290836269046 0 0 0
3330 1 35.60718945298963 22.200739685008838 18.6543368192428 0 0 0
3618 1 39.10926986709989 22.09010689592147 18.808912682858875 0 0 0
3908 1 40.77848305905274 22.112069369405972 21.087724666160515 0 0 0
3906 1 42.43375895494966 22.017138697989736 18.941169054179273 0 0 0
3077 1 30.59056467031902 24.521116387027213 18.64386838481341 0 0 0
3365 1 33.94005840334093 24.424302358443096 18.727438025875035 0 0 0
3653 1 37.40000990765426 24.428913089046166 18.78045908500444 0 0 0
3331 1 35.71985813900157 24.59651364901871 20.959542007548617 0 0 0
3941 1 40.63252418095232 24.402321638951648 18.567084200429235 0 0 0
3619 2 39.1216185832663 24.292176425011522 20.98647200610646 0 0 0
3907 1 42.372667205273736 24.200565968323275 21.09725107905552 0 0 0
4015 1 42.37665784374909 38.0053633906374 21.132486635825625 0 0 0
2790 1 29.038674286154183 26.79852300272974 18.69489726715177 0 0 0
3113 2 30.601867430772657 29.074983074629454 18.646271939124038 0 0 0
2791 1 29.121274752267027 29.03058058722122 20.84354801092367 0 0 0
3368 1 34.15685617949901 26.68255678867821 21.020776284648004 0 0 0
3078 1 32.458304421235425 26.791493561685016 18.67749897467844 0 0 0
3401 1 34.122562592954374 29.125638421454365 18.7625005772517 0 0 0
3079 1 32.33674437580954 28.969476015997706 20.976981738413023 0 0 0
3366 1 35.812938969898504 26.5663122542988 18.66204188087879 0 0 0
3689 1 37.229718782680585 28.95554008528909 18.65127978882763 0 0 0
3367 2 35.760430163142765 29.035986975857877 20.968008259498927 0 0 0
3656 1 37.40490052085945 26.83139926180916 20.907492027941277 0 0 0
3654 2 39.102737818445426 26.795590922079473 18.60892650283089 0 0 0
3977 1 41.037134246928204 28.846435025787038 18.62158318054548 0 0 0
3655 1 39.084708777434486 28.832756403989254 20.62301992002771 0 0 0
3944 1 40.60335732906064 26.606510281540217 20.873161819820293 0 0 0
3942 1 42.648951399397326 26.597102721908165 18.842889250479207 0 0 0
3943 2 42.544647399309504 28.777196445796037 20.986434588569917 0 0 0
2826 1 28.747784078720105 31.295559229112687 18.681157338767996 0 0 0
3116 1 30.62431255130609 31.289846620014913 20.738009646969722 0 0 0
3114 1 32.437489849932184 31.31428140575735 18.727223613353573 0 0 0
3402 1 35.71076006606989 31.386496695005416 18.772818185906903 0 0 0
3690 1 39.11495716501629 31.169009838013626 18.83981499788431 0 0 0
3978 1 42.437189146075596 31.180352629452678 18.747445581872302 0 0 0
3149 2 30.50612429843021 33.44999510002538 18.70239572851582 0 0 0
3437 1 34.15655960485077 33.63087323997809 18.65143719575035 0 0 0
3115 1 32.476299215035525 33.56324501028408 20.9020102078338 0 0 0
3725 1 37.671221159006926 33.598256179824176 18.772194418504846 0 0 0
3403 1 35.799483185907796 33.580898546539416 21.147996425106115 0 0 0
4013 1 40.87751518287253 33.489250640450095 18.941825147907757 0 0 0
3979 1 42.487041305729846 33.45905273573013 21.068803678573815 0 0 0
4018 1 42.34511668599739 35.79514705380552 23.421900744702366 0 0 0
2862 1 28.805834165265065 35.877692107620284 18.839346588360325 0 0 0
2897 1 30.629100792323037 38.000178405293504 18.784695014234032 0 -1 0
2863 1 29.00361440157667 38.03236940588393 21.019572777063523 0 0 0
3152 1 30.76880463010354 35.78061448389739 20.89893613676769 0 0 0
3150 1 32.239718654233556 35.74634638952798 18.741670270288484 0 0 0
3185 1 33.83613930623083 37.966323807301016 18.666311902267882 0 -1 0
3438 2 35.92267040329269 35.84533550000631 18.783722875293893 0 0 0
3439 1 35.69964038993075 38.063792071381 20.755518280699015 0 0 0
3473 1 37.70149567696514 37.964400344968396 18.820575833026965 0 -1 0
3761 2 40.720729605993334 38.17276223831913 18.75503868422809 0 -1 0
3726 1 39.42963615614416 35.91035027029923 18.853665800242002 0 0 0
4014 1 42.429464696245844 35.80821111028842 18.85713213582712 0 0 0
201 1 44.03765558730614 24.483873734677264 23.334318952056886 -1 0 0
3044 1 30.677661274773932 22.11628514740587 20.936503993989554 0 0 0
2758 2 28.966212948657308 22.06422730763888 23.22896576989719 0 0 0
3046 1 32.34847465791725 22.243160299587366 23.2630774262033 0 0 0
3620 1 37.38756879507758 22.061624201969053 21.08650293270252 0 0 0
3334 1 35.842732951742526 22.104131651198838 23.27249567244491 0 0 0
3622 1 39.0126136024196 22.21348551165884 23.24527214195183 0 0 0
3910 1 42.53185672899206 22.27401943635649 23.467398956424084 0 0 0
2755 1 29.057289178253065 24.443553141332266 21.024041197574864 0 0 0
3081 1 30.509818222368338 24.346011055250603 23.359106188963835 0 0 0
3043 1 32.40521667794669 24.470532463262572 20.98124334615414 0 0 0
3369 1 34.12593825542461 24.34694818349683 23.35907371228015 0 0 0
3657 1 37.43665117545175 24.4932526553645 23.183065089472525 0 0 0
3945 1 40.657534575250374 24.343695359919963 23.254584499807994 0 0 0
3080 1 30.76187241714922 26.773780584812922 20.81272611200807 0 0 0
2794 1 29.09755288618745 26.733800549998957 23.237025690477985 0 0 0
3117 2 30.626895898878054 29.01140025350292 23.178387799712645 0 0 0
3082 1 32.30375960590411 26.642595447676843 23.144874461987637 0 0 0
3405 1 34.02833028551597 29.062946140418678 23.367968711473235 0 0 0
3370 1 35.62355484274283 26.638327908477894 23.301648342743338 0 0 0
3693 1 37.311161568639704 29.028783901822543 23.187749589883097 0 0 0
3658 1 39.15401560685907 26.857793460373962 23.15163913420685 0 0 0
3981 1 40.844898238880894 28.964990139780138 23.244742488630994 0 0 0
3946 1 42.30495896812276 26.613384057557262 23.197942271527968 0 0 0
2830 1 28.980719159310738 31.36361386038841 23.200868888924905 0 0 0
3404 1 34.05175491958016 31.387499082078346 21.100359134344686 0 0 0
3118 1 32.37443154224782 31.215615540994158 23.289434547605588 0 0 0
3692 1 37.41093274626698 31.16010020893115 20.989730380640157 0 0 0
3406 1 35.805806412305834 31.316102976650207 23.255187960136226 0 0 0
3980 1 40.7857216276879 31.080760435534884 20.95472149949563 0 0 0
3694 1 38.94608755355155 31.249507140710975 23.226274547384143 0 0 0
3982 1 42.373780089302464 31.218438042466264 23.194478683143714 0 0 0
2827 1 28.80731721520829 33.61780074549905 21.02074756654825 0 0 0
3153 1 30.760868868013254 33.49219229437152 23.310235666568662 0 0 0
3441 1 33.899512275450725 33.54657118275043 23.300723274228623 0 0 0
3729 1 37.345733746780176 33.69895344588507 23.3730392451107 0 0 0
3691 1 38.998477736503105 33.42893362674283 21.058603911991977 0 0 0
3727 1 39.050300377641655 38.06572215815744 21.13846735583133 0 0 0
4017 1 40.67779784418794 33.3515451871841 23.342712515879917 0 0 0
4016 2 40.749254446987585 35.69871110822471 21.12768732863711 0 0 0
2866 1 29.0669513395341 35.84624333557215 23.267797360212658 0 0 0
2901 1 30.664169773260802 38.02774240674979 23.354747177857845 0 -1 0
3440 1 34.07229672630675 35.72905346317044 21.034728111124966 0 0 0
3189 1 34.17882044628028 38.047481949225926 23.147483295754625 0 -1 0
3151 1 32.33974520441587 38.076519018989636 21.033556960989376 0 0 0
3154 2 32.310944551301 35.89846678285422 23.264300914766025 0 0 0
3477 2 37.27977954885361 38.06803885230539 23.183064599811626 0 -1 0
3728 1 37.47009786428674 35.85827773323597 21.111243439278592 0 0 0
3442 1 35.72043562489074 35.75385314252233 23.494937662081412 0 0 0
3765 1 40.72557961158219 38.089841196964514 23.413500753007757 0 -1 0
3730 1 39.10091743471851 35.84386115782388 23.472611054328354 0 0 0
273 2 44.08478183684109 33.61314226516718 23.262245927580185 -1 0 0
272 1 44.04012561080982 35.67490844360098 21.283522517588455 -1 0 0
17 1 43.88840465946984 38.0626645767851 18.824098636762645 -1 -1 0
197 2 44.09857057506301 24.22925225497549 18.933425705953937 -1 0 0
233 1 44.05035337139394 29.037629200354655 18.787718056109306 -1 0 0
21 1 44.07829878679213 38.06071414453023 23.401976521752317 -1 -1 0
3048 1 30.56283557776775 22.31804139694498 25.525336830800075 0 0 0
2762 1 28.94382026334314 22.23521106339167 27.90919740752284 0 0 0
3050 1 32.30052509150333 22.32285527260574 27.70099192567062 0 0 0
3336 2 34.00240205376855 22.228131032042544 25.472883371656774 0 0 0
3338 1 35.66659056952357 22.278034511034058 27.82610890856847 0 0 0
3624 1 37.40216172196337 22.300848423855143 25.56224472773827 0 0 0
3626 1 39.0395345571843 22.088697631385354 27.892532001542595 0 0 0
3912 2 40.696316255869455 22.288821280435783 25.558770782172807 0 0 0
3914 1 42.325393989010266 22.207844951202194 27.661542443547916 0 0 0
3735 1 38.83841051042224 38.138337899809876 30.096856838086943 0 0 0
3085 1 30.577880905526968 24.51789446396687 27.938994042326392 0 0 0
2759 1 28.758482192967346 24.517885074966824 25.470994805529827 0 0 0
3047 1 32.31919957709585 24.510117314909785 25.5635488343762 0 0 0
3373 1 34.1692014137062 24.466456171876672 27.914797845471437 0 0 0
3335 1 35.788051695684985 24.50635070863204 25.518490068764592 0 0 0
3661 2 37.545689668986526 24.41418698976045 27.772962941976363 0 0 0
3623 1 38.8925057409462 24.559066735398893 25.48367976709407 0 0 0
3949 1 40.59651209789374 24.369922517930974 27.841864219917266 0 0 0
3911 1 42.42424234727202 24.55034538310603 25.62204202912503 0 0 0
4024 2 40.804266953096715 35.977700192154956 30.127505259079243 0 0 0
3084 1 30.577869862114696 26.753991308116355 25.58786148577086 0 0 0
2798 1 28.93578375749692 26.752294380402763 27.812464613319097 0 0 0
2795 1 28.979401221931106 29.07864508330466 25.45387649536994 0 0 0
3121 1 30.691225413299726 28.995768255309144 27.806023614205543 0 0 0
3372 1 33.85018528493295 26.78032951875383 25.52674070035776 0 0 0
3086 1 32.33261257316786 26.709729039676148 27.851634859912224 0 0 0
3083 1 32.222815715695155 29.007748152182778 25.522533204733048 0 0 0
3409 1 33.96297415528243 29.09744490978543 27.82347131025217 0 0 0
3660 1 37.42050114805048 26.85341237682623 25.406435529314052 0 0 0
3374 1 35.73316833443391 26.701394759043446 27.701750066649517 0 0 0
3371 1 35.57673418116581 28.899330844438936 25.609336205830147 0 0 0
3697 1 37.45069835249558 29.019881775114374 27.607836235988152 0 0 0
3662 1 39.101563545942334 26.762198688507134 27.65852051955481 0 0 0
3659 2 39.06357241548189 28.99948796278549 25.447065491282792 0 0 0
3948 1 40.73811653386123 26.62700528855561 25.386715277694794 0 0 0
3985 1 40.743866089935636 28.960623830515562 27.8140513205097 0 0 0
3950 1 42.418163839601704 26.61509856792493 27.711854145948095 0 0 0
3947 1 42.39962476916581 28.86354254837453 25.62392422069566 0 0 0
2834 1 28.96590151084861 31.487206775188554 27.830246115831205 0 0 0
3120 1 30.667716995795004 31.253175377558595 25.386059793180436 0 0 0
3122 1 32.11122286237191 31.299465300777154 27.82358271015643 0 0 0
3408 1 33.889293463296276 31.331999333299297 25.659864779680646 0 0 0
3410 1 35.74802771499188 31.277673868073133 27.939598777375707 0 0 0
3696 2 37.37342169134462 31.161264268764526 25.508212417652643 0 0 0
3698 1 38.95703584044935 31.32912936378979 27.7370462027828 0 0 0
3984 1 40.83378977017639 31.271361100402398 25.522449423755344 0 0 0
3986 1 42.35103166754527 31.13765458401708 27.85533000767312 0 0 0
3773 1 40.820315466809326 38.14551360520698 32.273602956613196 0 -1 0
2831 1 28.99991049239987 33.58111423956663 25.54716721186324 0 0 0
3157 1 30.730879758840075 33.626262146706225 27.745492120451523 0 0 0
3119 1 32.34444514357044 33.56252067776241 25.60285792831169 0 0 0
3445 2 33.96731165465826 33.437396263053756 27.896212064678085 0 0 0
3407 1 35.849580731419806 33.48584160724036 25.62497629641247 0 0 0
3733 1 37.468576263062445 33.67340821221336 27.873730446569397 0 0 0
3695 1 39.12595061727568 33.407057606029014 25.57500952457042 0 0 0
4021 1 40.89168374951157 33.5248743905716 27.948696929330747 0 0 0
3983 1 42.53119315890319 33.46139349807512 25.58129936651319 0 0 0
4023 1 42.6266761104774 38.12927890837553 30.121145923703867 0 0 0
2905 2 30.729079238273357 37.992968793214565 27.94402535224203 0 -1 0
3156 1 30.67925739979922 35.828729182999076 25.604613574108523 0 0 0
2867 1 28.88669910776072 38.14647031385668 25.732188138775182 0 0 0
2870 1 28.94139387066283 35.865439183141966 27.8897665501495 0 0 0
3444 1 34.02690058001947 35.83546575422258 25.530341196905148 0 0 0
3158 1 32.52594221706508 35.914815535733936 27.753277934439947 0 0 0
3155 1 32.48119294493024 37.95138777656629 25.42972798512801 0 0 0
3193 1 34.06644997631649 38.15703108372888 27.801275131558647 0 -1 0
3732 1 37.46693844131944 35.6814073068684 25.660842546492034 0 0 0
3443 1 35.75646179130639 38.10785217499611 25.48762522428912 0 0 0
3446 1 35.71568947318237 35.75553040862078 27.89215480906083 0 0 0
3481 1 37.310034988355916 38.098279976900876 27.78223186842406 0 -1 0
4020 1 40.86111455802274 35.712076852186044 25.595213227222192 0 0 0
3731 1 38.95876502509896 38.02679711555858 25.577997021169615 0 0 0
3734 1 39.12868878713172 35.86772250408444 27.903355175797223 0 0 0
3769 1 40.78931950587607 38.16186841277555 27.900717333774747 0 -1 0
4026 1 42.43128969535227 35.85251801870553 32.25978207909828 0 0 0
4019 1 42.297679450983146 38.15852629416193 25.626337484226244 0 0 0
4022 1 42.48411205381972 35.85479454452218 27.88878625905474 0 0 0
2766 2 28.952279338058077 22.31366666686422 32.33241224657688 0 0 0
3052 1 30.734936973512937 22.27403675942135 30.164462325479448 0 0 0
3054 1 32.47235425997771 22.091838870843347 32.502948307803315 0 0 0
3340 1 33.96665242984017 22.18225731722466 30.064397474660147 0 0 0
3342 1 35.7772029722137 22.239678626268347 32.32823316083196 0 0 0
3628 1 37.570276052922566 22.166380633080106 30.191938628518358 0 0 0
3630 1 39.088715913748004 22.239534551287885 32.33652905689857 0 0 0
3916 1 40.86854878992612 22.16513507904614 30.074032004583643 0 0 0
3738 1 39.25344774120807 35.897147193137066 32.440901712902146 0 0 0
3918 1 42.46251886761998 22.146302341115508 32.384543841998834 0 0 0
2763 1 28.941867037465094 24.297401281625646 30.103964767376 0 0 0
3089 1 30.939996686216617 24.494271119768086 32.39077166239036 0 0 0
3051 2 32.3630414383014 24.529603461765355 29.95969533495745 0 0 0
3377 1 33.939978254266855 24.48634047034909 32.35442943426799 0 0 0
3339 1 35.866818240446584 24.58626517970033 30.03031344015509 0 0 0
3665 1 37.44703084395246 24.469412302566536 32.38711016456875 0 0 0
3627 1 39.10596740362302 24.503438634611005 30.08645627683321 0 0 0
3953 1 40.7734990925258 24.45450067874238 32.268040602037374 0 0 0
3915 1 42.40209498743116 24.530441138612254 30.073230083892717 0 0 0
3088 1 30.609730126540327 26.76703272759672 30.00631615874497 0 0 0
2802 1 28.97764166763867 26.61169873953351 32.25841313596031 0 0 0
2799 1 28.8523493389164 28.948694181470408 30.048981109100865 0 0 0
3125 1 30.516033281557178 28.992748998824652 32.26171059447145 0 0 0
3376 1 33.97104752470778 26.742072545927595 30.06498637513866 0 0 0
3090 1 32.37346788445978 26.813787742660153 32.21796621519488 0 0 0
3087 2 32.32572509221513 28.97837844039888 30.132952922328297 0 0 0
3413 1 34.062493878141716 29.11741132134936 32.304035441828006 0 0 0
3664 1 37.40912956880406 26.800085801039444 30.07814420532989 0 0 0
3378 1 35.624505341556684 26.788212868830225 32.27686909021828 0 0 0
3375 1 35.67035603797729 29.05872028053615 29.992761419202694 0 0 0
3701 1 37.32728506139751 28.942248427299553 32.24770103557019 0 0 0
3666 2 39.116242095736105 26.843961529522904 32.39420097674524 0 0 0
3663 1 39.01407562393198 29.136944071376906 30.02195894378679 0 0 0
3952 1 40.66854829113414 26.88726770287657 30.072413870404105 0 0 0
3989 1 41.011047662667615 29.193504636901242 32.36510635040587 0 0 0
3954 1 42.26692168801067 26.800454220358812 32.14197309884632 0 0 0
3951 1 42.57737175432402 29.1301341722253 30.08413877743782 0 0 0
3736 1 37.41756804616444 35.80054508400748 30.225232254386345 0 0 0
172 1 44.09512658568215 22.09289846782271 29.974629853756085 -1 0 0
2838 1 28.863152326919806 31.16713346387388 32.29782185559516 0 0 0
3124 1 30.52677394901955 31.1627142262381 30.089231618313086 0 0 0
3126 1 32.18638995919779 31.267332316324374 32.44064310368109 0 0 0
3412 1 33.90963100430652 31.31955020409681 29.99788985903323 0 0 0
3414 1 35.69987837753788 31.290259349287677 32.336242703995566 0 0 0
3700 1 37.31388841673489 31.214175541471526 30.025808268859446 0 0 0
3702 1 38.914714919323 31.395457343956107 32.391425085621606 0 0 0
3988 1 40.70657272530823 31.26555740665945 30.192893512356775 0 0 0
3990 1 42.7608997363663 31.393352023166692 32.35586469527792 0 0 0
3447 2 35.704298706222446 38.107311228880825 30.18435263508401 0 0 0
2835 1 28.926111243543225 33.630516622130486 30.054907825938674 0 0 0
3161 1 30.557379736140206 33.66759253241541 32.33673721617186 0 0 0
3123 1 32.16409697846863 33.57780278440065 30.171743873175036 0 0 0
3449 1 33.98448350755741 33.56534950859995 32.40189770531475 0 0 0
3411 1 35.68048503052186 33.542677558153684 30.043459809978625 0 0 0
3737 1 37.24813353126994 33.732329191320545 32.424386165847274 0 0 0
3699 1 39.051621741980476 33.60093492752367 30.18083838740312 0 0 0
4025 1 40.83103063612032 33.489985247943395 32.39348662574046 0 0 0
3987 1 42.530328268888155 33.48618037856811 30.08816697168787 0 0 0
2909 1 30.715844831244368 37.99987606669139 32.372201263987414 0 -1 0
2871 1 28.988788273136443 38.09652938279973 30.084518182645063 0 0 0
2874 1 28.959106017855362 35.92005008060999 32.32773749708736 0 0 0
3160 1 30.714719360169745 35.919540080448016 30.11714881535036 0 0 0
3448 1 34.134865082754104 35.78321589933454 30.065963160741106 0 0 0
3162 1 32.31608887823863 35.82306077018403 32.2982228924926 0 0 0
3159 1 32.695412477119845 37.955321720239986 30.11482758572246 0 0 0
3197 1 34.07522878340084 38.18145436665413 32.504980987416204 0 -1 0
3485 1 37.494795884006024 38.050473415953874 32.607542192552806 0 -1 0
3450 1 35.568070134647996 35.888366036986206 32.291189510706936 0 0 0
241 2 44.09561518632817 29.02812620590249 27.792466674419913 -1 0 0
209 1 43.970412144264806 24.456965410725623 32.293332093115325 -1 0 0
240 1 44.04322163034891 31.096720278839292 25.506708852707696 -1 0 0
2770 1 28.93833441759447 22.1230943469709 36.873112929279344 0 0 0
3056 1 30.657139336386052 22.21574702530039 34.54880406299662 0 0 0
3058 1 32.26178061966653 22.422800488035758 36.856509090781586 0 0 0
3344 1 34.159181208193615 22.252505968192732 34.644401338883355 0 0 0
3346 1 35.81633996915756 22.15902465094971 36.907533806777735 0 0 0
3632 1 37.44907162911257 22.226660217535287 34.50404155540336 0 0 0
3634 1 38.8826880620312 22.202509363046367 36.817118093860785 0 0 0
3920 1 40.88407716929589 22.0956721208789 34.597425505061835 0 0 0
3922 1 42.50458262162457 22.252683874607463 36.9332421440443 0 0 0
213 1 44.07440251581384 24.381806616238638 36.818409059124534 -1 0 0
3093 1 30.535070056728216 24.600234184271187 36.76795560731978 0 0 0
2767 1 29.15004701891327 24.430101433722715 34.456490596450024 0 0 0
3055 2 32.45480355049317 24.4696871064321 34.755592781607774 0 0 0
3381 1 34.25679225028873 24.409769051847682 36.972032575607926 0 0 0
3343 1 35.522247503895834 24.419811111786483 34.52977176561943 0 0 0
3669 1 37.344703288523206 24.560747347633132 36.82567873236292 0 0 0
3631 2 39.19206725408459 24.335610440625562 34.55171387859308 0 0 0
3957 1 40.58314778214916 24.3463965561354 36.960185633904146 0 0 0
3919 1 42.3680328261836 24.35519031131099 34.67674255428372 0 0 0
3092 1 30.775185775152842 26.729239305931845 34.51785489078128 0 0 0
2806 1 28.888931092341853 26.89682704107883 36.96014039594253 0 0 0
2803 1 29.028997390303374 28.890885544024307 34.526968478763095 0 0 0
3129 1 30.784139306270752 29.105270160094715 36.69547399911501 0 0 0
3380 1 34.10452974794244 26.88536422407929 34.565420800184 0 0 0
3094 1 32.34586317553773 26.648940708733438 36.93044734460443 0 0 0
3091 2 32.41657298573254 29.099752136798703 34.422549557228706 0 0 0
3417 1 34.007995682954764 29.047080723670284 36.8268127530654 0 0 0
3668 1 37.415531644068146 26.69039216511236 34.4925147758302 0 0 0
3382 1 35.84761574364623 26.89440057048519 36.68338341072163 0 0 0
3379 1 35.77706624488223 29.029918357538843 34.611245850931056 0 0 0
3705 1 37.34993054846827 29.272793437528197 36.83566265901962 0 0 0
3670 1 39.05369865272086 26.765134672187774 36.73994447010136 0 0 0
3667 1 39.13610319327681 29.00496545746325 34.3850547215289 0 0 0
3956 1 40.86296823542584 26.629319124344374 34.439825498046545 0 0 0
3993 1 40.741189060189456 29.017935483449556 36.74532628497741 0 0 0
3958 1 42.45656375210749 26.74316068604909 36.76185718629324 0 0 0
3955 1 42.5899229802536 28.96324074236669 34.56426338138888 0 0 0
3926 1 42.503945775648795 26.703760791354945 41.41583988353554 0 0 -1
2842 1 28.86349401556054 31.338294732691335 36.80247897357452 0 0 0
3128 1 30.56242140235667 31.139315849003964 34.64034936564818 0 0 0
3130 1 32.212578116857145 31.308499003655797 36.85266330058445 0 0 0
3416 1 34.01967254085309 31.302830771988415 34.51615760900965 0 0 0
3418 2 35.65754932407811 31.46738504434402 36.90743705989006 0 0 0
3704 1 37.26455192530377 31.342069013610626 34.64671037173807 0 0 0
3706 1 39.26090025453997 31.39356211416836 36.78252310241403 0 0 0
3992 2 40.778367343803474 31.426600329822364 34.441507830222875 0 0 0
3994 1 42.4331554932545 31.30805263182203 36.89437737190863 0 0 0
3134 1 32.327041519827155 35.82692315177606 41.3551367436513 0 0 -1
2839 1 28.962040148539366 33.53910786001171 34.54129400282649 0 0 0
3165 1 30.671485997028498 33.53770256004444 37.056117448320805 0 0 0
3127 1 32.35680058177552 33.536089001127905 34.71276797696949 0 0 0
3453 1 33.745683510657194 33.63386069082789 36.978689915710305 0 0 0
3415 1 35.64581520201981 33.58280348658985 34.89582919245025 0 0 0
3741 1 37.46170864075811 33.476448844107296 36.98832868492771 0 0 0
3703 1 38.998039298859666 33.5833757205442 34.601650970298124 0 0 0
4029 2 40.845315704270035 33.689885012216116 36.765143401493845 0 0 0
3991 1 42.57178949551835 33.495991159545184 34.617500464964024 0 0 0
3164 1 30.67575173136433 35.770354569989195 34.628293030126045 0 0 0
2875 2 28.943575408437972 37.85068215026764 34.56730732776197 0 0 0
2878 1 28.942484914585272 35.80066387274055 36.90923830527764 0 0 0
2913 1 30.41694828000214 38.22272253516868 36.80073747407435 0 -1 0
3166 2 32.04995836498447 35.90112884674744 36.887565751107886 0 0 0
3163 1 32.263718509611664 38.100653073774026 34.623643044100106 0 0 0
3452 1 33.80252970146996 35.81179042472109 34.726441880141635 0 0 0
3201 1 33.915947874874625 38.07349164683022 36.86901732508737 0 -1 0
3451 1 35.573044792548025 37.9993298817585 34.792355418456765 0 0 0
3454 1 35.92977940148294 35.868071632259905 36.975783398936215 0 0 0
3740 2 37.39249730246184 36.01848221465887 34.54807543346507 0 0 0
3489 1 37.49891701075977 38.06775662589818 36.9022986518128 0 -1 0
4028 1 40.820211255676746 35.746401966364765 34.75468642443188 0 0 0
3739 1 39.266421686842094 38.05297663522313 34.666459569582926 0 0 0
3742 1 39.046197167239626 35.85611371175534 36.896381060062964 0 0 0
3777 1 40.788087043913066 38.21475495458785 37.04475133052068 0 -1 0
3421 1 34.04706009267896 33.46694157703661 41.353709013115605 0 0 -1
3745 2 40.71677377670665 38.16506768818077 41.35292033166864 0 -1 -1
4027 2 42.35410301079833 38.10164887790326 34.720355899746636 0 0 0
4030 1 42.6298542318003 35.91120638252921 37.03813423610097 0 0 0
3060 1 30.671575122034938 22.37429590048516 39.06015404822742 0 0 0
3348 1 33.924514853969015 22.32012836231983 39.252620817271165 0 0 0
3636 1 37.470955292034944 22.253549292838578 39.065437948059326 0 0 0
3386 1 35.71329404047281 31.269167914470554 41.22469117318035 0 0 -1
3924 1 40.73610381543878 22.437866897831988 39.10555077603006 0 0 0
3349 1 33.923741488936194 24.513943474422785 41.34011083271007 0 0 -1
4031 1 42.49873633418708 38.190011328523155 39.191903784204385 0 0 0
2771 1 28.88486323200699 24.438650070176088 39.05921362904094 0 0 0
3061 2 30.723481375874464 24.507114255321493 41.34829098975274 0 0 -1
3059 1 32.17376823981359 24.538551967308667 39.10177239718793 0 0 0
3347 2 35.74446894566295 24.380503873662402 39.29585578154321 0 0 0
3635 1 39.04026827315671 24.448421307812307 39.161548792868885 0 0 0
3673 1 37.41885342923472 29.021495200113097 41.35331643724594 0 0 -1
3923 1 42.346816402711184 24.540125325077746 39.17190222669534 0 0 0
3096 1 30.4498445758329 26.715635096032884 39.03020246462785 0 0 0
2807 2 28.928136265842646 28.977765233312795 38.98989500097298 0 0 0
3456 1 33.954031280374785 35.85941209023473 39.07888842004559 0 0 0
180 1 44.10961375493453 22.067606466968936 39.08877829351934 -1 0 0
3384 1 34.19669351161781 26.71940385631405 39.20035398086611 0 0 0
3095 1 32.31050305811073 28.92607558536223 39.0697150107879 0 0 0
3167 1 32.236041463512656 38.01489359275387 38.99928213776377 0 0 0
253 1 44.00581067730366 33.59616510524137 41.43031103950834 -1 0 -1
3672 1 37.336078662958606 26.665405812367002 39.122076934637946 0 0 0
3383 1 35.78014818678083 29.088028623992134 39.06441353001452 0 0 0
3671 1 39.206648911208816 29.120718233027496 39.14293691935757 0 0 0
3960 1 40.75990534711327 26.800682458566246 39.1309609778841 0 0 0
3422 1 35.70033613228844 35.83231227911396 41.1958505909238 0 0 -1
3959 1 42.33392071752735 29.09374079073222 39.10871718238883 0 0 0
3169 1 34.031944527719034 37.997001805481084 41.33927775139709 0 -1 -1
3132 1 30.62320602851323 31.14802738928498 39.07628856998075 0 0 0
3314 1 35.767717292574844 22.34118109893523 41.32829701591048 0 0 -1
3420 1 33.845732290231766 31.27135618893245 39.09311532175596 0 0 0
3708 1 37.46214035081804 31.326804434086938 39.062355488985375 0 0 0
3996 1 40.82389220687779 31.357312596370623 39.17526466152236 0 0 0
2843 1 29.02413369415236 33.50736163989578 39.232376534419075 0 0 0
3131 2 32.28965428156134 33.517951642446064 39.2760776061907 0 0 0
3744 1 37.481070703197894 35.71247962431809 39.082963628825226 0 0 0
284 1 44.04852804385977 35.82628347461576 34.658465408056 -1 0 0
3419 1 35.65582469187284 33.59318635857514 39.05132446802824 0 0 0
3707 1 39.235965498777816 33.57872680085089 39.1362166457958 0 0 0
3995 1 42.432745554344805 33.60371993379764 39.004007888931014 0 0 0
3455 2 35.71695653582314 37.917102257081794 39.07763351266148 0 0 0
3743 1 39.09386174990322 38.06868747695196 39.14761106575564 0 0 0
3168 1 30.53975557041438 35.694177690965404 39.26439368383325 0 0 0
2879 1 29.04347851982751 38.10152735647429 39.22248146554121 0 0 0
4032 1 40.79316433623036 35.8584335261049 38.99839131935917 0 0 0
3457 1 37.435718435094486 38.11092166922087 41.36610716924126 0 -1 -1
3674 1 39.07408809141714 31.1891565300017 41.39681994063268 0 0 -1
2810 1 28.965195644877504 31.40461789973221 41.33708434462709 0 0 -1
3638 1 39.169000995884694 26.730206249057936 41.37825677501854 0 0 -1
216 1 44.00109991938502 26.724480686029047 39.05704449277317 -1 0 0
217 1 44.063897072457706 29.132836154366863 41.413333115071566 -1 0 -1
3385 1 34.1436947055938 28.92185853716491 41.369180251669974 0 0 -1
3098 1 32.262211531526575 31.29555147051385 41.35479405304379 0 0 -1
2774 1 28.96611579408853 26.622696255121475 41.40893277737115 0 0 -1
3097 1 30.500774907782144 28.887423430081146 41.186315725063395 0 0 -1
3602 1 39.079066082076096 22.243186120731025 41.32785014069795 0 0 -1
3062 1 32.14327753710345 26.82559444850412 41.12904112579288 0 0 -1
3998 1 42.33356758100645 35.90146023522059 41.36144967664864 0 0 -1
2846 1 28.947895794986096 35.79627358989185 41.40261203376698 0 0 -1
3637 1 37.50276657535017 24.66182582013622 41.356471916576474 0 0 -1

Velocities

292 -1.717140587569107 2.822742444981196 0.7633806938176241
580 0.10506972722317966 0.4842968233932098 0.977063551549584
868 0.79518966699596 0.10956791048558143 -0.30801893400834246
1156 0.5137001817348649 -2.1094097545999 -0.4022229167199817
3 3.8256478336145876 2.2030330243114835 -1.185117363271969
291 -1.874894473662054 -2.395879281734266 2.6964729006725054
290 0.1253975650136991 4.226703380358002 0.610375327630969
579 0.08243309971552423 2.6840173684394943 2.194154249174389
867 1.6154901145106393 -2.889508503082876 -2.122081338851649
1155 -0.26971651082715803 1.8580346054933337 -1.7614129726730483
39 4.475032242769522 3.1134978111319 -2.0036260971900943
328 -4.780536643342398 -1.057988877748765 -1.0010884876431618
327 1.2274745135131284 -0.5977687500402805 0.031417870701779795
616 4.675405658160892 -0.507684819808951 -4.178105947074659
615 -0.40587311181957436 0.20760377051396267 2.224778404055492
650 -0.1331771068980809 5.851138149656664 -5.524979349409921
904 -0.0018300976022264793 0.10987441232982639 -2.2392019824898703
903 -0.2808757192450048 0.46715912431467776 2.5998964763548678
1192 -1.8346140647804814 -0.015016606796624683 -0.2043554923269036
1191 0.577813902442272 1.6250289048573363 0.9644601298641055
109 -1.9968531912920928 0.06296027894306686 0.915105554271613
364 -1.7071711570771155 -0.29081704216085347 -1.098383135384978
76 0.6870928781602085 -0.45215565174987793 0.5410150471662324
652 2.26763885003464 1.1547691405972966 -1.1356895244081304
940 1.5794338620932538 -0.9901484938514146 -1.8883171481764034
649 -1.4784553158716076 4.529567309320241 -0.840411715171965
1228 -0.5433306867163776 -1.9860157335951152 -2.410901184166515
75 -0.8044731080881827 2.4698000182443485 -1.3090002579199653
363 -1.5567372176087972 2.3236427856574 1.886219690362933
38 1.6550320385573605 1.0308857063582737 4.528165478799097
979 -0.5609540409339934 0.9031333137954761 -2.0918484246975266
651 -1.1315174888984318 -0.6348668483446785 0.4393748291228106
939 -1.6751024366228973 -2.6097005748057462 -0.002184764492866522
1227 -0.7904755085436859 2.864575556263943 -1.6734090000442303
1268 0.29791710169197755 0.3780441375465126 -4.472311720767157
111 -1.583201307549046 3.7740374550767855 -1.4592911959964678
1225 1.1145611613234152 2.1536074178984825 -0.6001033922534607
978 -0.26695237311962416 -0.7837176370251218 0.8909236385984649
399 -2.91723279083148 3.707104823098895 -1.3161067061710325
400 4.352843478408301 -0.20158352167444635 5.171988398777735
980 -3.5220566999771217 2.038717624283934 -0.39660786571182816
688 -0.5597031978013738 2.7030331687811917 2.6746620239111256
687 -0.1833340373918716 3.06740769304749 -2.1013066639809477
1013 0.9093846269604311 1.2360155604656484 -0.6964901773917588
976 1.7064812612762623 -0.39495060503730495 -0.1476402489634841
975 -1.5087903913746639 -0.39105392282085866 0.9811366443820894
1264 2.271543954279239 -1.95613914702492 0.5755535341244457
1263 0.36180021382391087 -0.04409215269451907 1.3941158344193985
6 1.2769906103446846 1.2888997582264456 -2.453905771713872
296 -1.2343378819373354 0.04333679618553805 -1.6555520275712248
294 -2.1588601844452833 0.686659802575485 -0.979827294404235
584 0.15208477343929294 3.5334855590169556 2.618737875559689
582 -0.3167013787894186 3.658046615369747 -0.13151351733868966
872 -1.2688648901368755 -1.5346165922345631 -3.3345970684100705
870 -1.4615581498836718 -1.7409613595454798 -1.83048856640524
1158 -0.6260133356584612 -4.837291095844914 2.5795114140541484
1160 2.1598641838024935 -1.4429667820260503 -1.097270595338551
398 -0.6096442188340605 4.819822795051173 0.8813597203233163
7 0.27045461446096497 0.8149536734664989 0.5819651509654659
329 -2.1519537941168156 -1.4857766857848296 4.175389437249616
295 -0.22936261786946935 -2.278044028791978 0.2533708928481385
617 0.5700172319212148 -0.620210324465669 5.925307021345945
583 -1.4414007039394618 -1.625954663807751 -5.801508390702845
905 3.3850719296121996 1.1952973411094268 -1.1844716479534971
871 2.5860070239564403 1.9206019324235164 -2.35663028434602
1159 1.5031434458735629 -1.6298427562854687 -0.5306340372458902
1193 -1.773946308159786 -2.320015380920871 -2.3754870229190606
1266 2.832274022861396 -0.4239454428143781 -1.7231510929800344
42 0.14026523417814565 -1.4380000099111094 3.781738065834152
43 -1.8606446519578854 0.9698578328161774 -2.18091091964165
332 -0.6397971714600476 -3.708480933865262 1.1977271110194938
330 -1.1183800275896296 -2.719330242794755 0.0757571015765769
331 -4.426767169638103 1.7489134217038966 2.4632675561307824
365 2.0612540565304553 -3.350833025607307 0.8492995673476338
620 3.9393853495970226 -3.1902973726446677 -1.1482710185182539
618 3.655430466323061 1.7008884173958356 0.8303305300836675
619 2.3745116664398833 -3.023985269924149 1.6774632608423763
653 3.9162512013021042 -1.8648127636177345 1.0117073819167686
908 2.829280709278666 1.1294586159009457 -2.3967994981782126
907 3.288558208318421 2.279487166926947 -2.524469946795279
906 -1.479967700514638 -2.7729987468642916 1.2010598503643644
941 1.710852603813187 1.575056193997703 4.160786293431522
1196 -2.4099909697168727 5.796849703834424 0.6441632163818649
1194 -1.9106143615353 1.9291599822326337 4.574754939235903
1195 2.282374791582157 2.5153658775846237 -0.9280372411338131
1229 5.37372247164489 1.7581227879950907 2.1203424244926627
78 0.07154929795343681 -1.8827712913725803 -2.73674372646629
368 2.904580390433474 -1.3173600796302913 1.0294251796047076
366 0.10467696880595165 -0.1989050238643895 -1.4066792020918564
656 0.41221520179208965 -0.11346807547672386 2.7077976207150405
654 4.014241441367075 0.4730596000139636 0.09766985770660654
942 1.0978060465924018 -0.8790381670500799 0.3434601355154065
944 2.10796908927854 -0.046317477061460416 -1.0851444284361578
1230 1.34002403233348 3.240333349582374 -1.3758663199555363
1232 -2.0282508183445294 -0.3919199976827472 0.5370921580877411
79 -0.6182417045025987 2.828188989813127 1.79271228100019
401 0.4381359845641836 -1.5090641502226099 1.1428237021386058
367 1.7619453667585634 -3.8134236641786416 -0.2071869203772651
689 0.913088740541152 0.360735216242295 3.171492587038001
655 -1.385582097550191 3.0998254356366535 -1.2457488309143636
977 1.386012608353959 4.178476895164323 -0.28637936690711296
943 1.0604548646514973 -1.6740760925757951 -0.258616321039951
1231 -1.8557315055721169 0.8663668568047391 1.742329647296829
1265 2.7870986936852717 -0.19066013061740233 0.6337745674239365
114 -1.1880707624491147 -1.663136942563625 0.5789744658952974
1301 -1.3061720835894273 2.238473083330302 1.5487053420718286
115 0.3907851103057523 5.342029299411221 1.4444592856679248
1267 0.25974495482148285 1.492976360620056 1.0060583540097265
437 0.08468664526523854 -0.2870167422791727 5.808160547454637
402 -0.9388792884015574 -1.6829999748730016 -2.5232488152641794
403 2.0585114290227193 -2.377121303526567 1.6649202856251337
404 -6.88423059342824 0.47471112553358596 -3.602773404755911
690 -0.4317397978974645 4.03627543651039 -2.5870672213019397
692 0.8163866760568436 -0.7402895556484383 -2.1492129590078197
725 -1.895120596268314 -2.9085928595464283 3.3844423676391373
691 0.5703742024722076 -4.599018594637181 2.841234967837443
901 2.444372908260095 -4.701496525200486 0.4984644722678617
4 2.3064053270875755 -0.8671685009364486 -3.5002023141588174
721 3.1188429276405665 -1.1613492093835203 -2.888558991149393
361 -0.18010099024241488 -3.1329078687472616 -0.996841149887753
937 2.1046617032596995 1.4211706318840016 3.3237014055929897
1262 -5.486724377426917 4.12250031289186 -2.86843325021498
614 -3.512870624733992 -4.965293624230475 0.8598799441516498
116 -1.1165607841148895 2.537903719806733 1.4570390220198097
433 -1.1239836751222998 -0.24646419147991308 -0.940232026525829
1009 1.1255149918424523 -1.220860196152264 4.973283792421838
362 2.2462815758368513 -0.958144748985635 3.5656146812897513
74 -1.9329658437509474 -0.5754799921167317 2.8718504935372713
902 -0.19159938445355426 2.128471374525674 0.6354205631529951
397 4.213805139220437 0.21905210530824912 2.1070927147237835
1190 1.2797343877566574 -0.41636997573500273 1.3777346716030536
110 -3.547139805752527 2.136362396561978 -0.4462932728680998
10 0.5940690095717335 1.7864337363899172 5.739110296057328
300 -3.337733628757055 4.205953499810373 -1.8407382660460034
298 0.09081773659505947 1.7229994844199314 0.153645136548837
588 -0.3394585631840954 -1.7741780660564457 -1.925240847042139
586 1.7978969096153434 0.09705124777263761 0.8631650780640623
876 -3.4028344510589146 -0.8515500145567982 -2.4016802262943973
874 -0.7309701294351423 -1.4229080944750065 -1.2768954204190333
1162 -1.8106555630438506 -0.2272114101340282 -2.1895165765869216
1164 -1.2576556242324877 -0.8378617522131958 0.7592402186878633
11 -2.5841549323804176 2.145831073106838 3.11872427501148
333 -2.757436995484132 1.2536911042442647 -1.6262308150510865
299 -0.9026676599184192 1.8587593507518394 -0.2942495140273704
621 -0.4013698757212623 -3.0720111767893834 1.82968162055825
587 -3.935173578016347 -2.0746814129747477 -0.9343619380800221
909 0.33339956438630347 -1.5363399887628517 2.6581269488650077
875 -0.21447106881710085 0.6529831130180619 -5.149411395335488
1163 1.2892144018617038 -2.168877098250541 -0.6792144149468886
1197 0.29850494099936803 -4.698879454189327 -1.273103929438617
46 0.09702208414684176 0.7480888774181046 -1.062220389874594
47 4.19390259900077 -0.00900129018821345 2.423735798424537
369 2.513526108664851 0.5887009623562948 -2.280382110503167
336 -4.895371326339766 0.7703672330757273 -0.3115483932180756
334 4.7607151837547095 -4.096049464549526 1.739416517473191
335 -1.803165850110633 1.8972641032462663 0.7140740582478661
624 0.9037255780874048 2.0957265844185273 2.5815044523581285
622 3.07341932337868 0.45739287363714476 2.0852081574525623
623 -1.6367453521373883 -2.0775563988045436 -0.25058569437783257
657 -3.9222502822210465 6.430282416919226 0.26994918463235684
912 1.470482302879374 -1.3854882977355225 -1.5296971396500927
910 0.6481255811963421 -0.36177151017386916 -1.8745448602313437
911 -0.5067407663952391 -6.164116846402456 2.562365938857704
945 1.8294283005712777 -2.2541847309834036 1.108561776209725
1200 0.4892579243478025 0.7209727193557134 0.8964431194512253
1198 3.1339494520584026 -0.3784623841231323 3.603579791367425
1199 -3.6157993338818777 -2.0189826062202396 -1.6658691658996299
1233 -2.0576329242064397 1.0266137833845266 3.531884713397868
82 1.6694280611407577 -2.3115677626883437 0.5251950474262069
372 0.5479563662673395 -0.23125261966555882 4.171761933886019
370 0.26157409940074877 -3.2732572471336505 0.42989555560378756
660 -0.7762424043252574 2.344862362855464 -3.6751947866716668
658 1.3749408512516825 -2.5344678605502233 -0.9528459505900297
948 -1.1773414831040097 2.67852731029127 3.269781241321485
946 2.048362019245009 -4.270869439413063 -4.819714883962842
1234 0.9085838477293093 -1.3836295066565187 -0.5989545188339556
1236 -0.13652235080204972 2.994549894687536 2.7006905694133168
83 0.3580181202096016 0.6275152786441851 -0.7825805254653535
124 1.3068998616364584 2.143845136216868 -1.9184381995681539
405 -1.2914626478260032 -6.22889908733138 -0.23327555431384492
371 1.5580771862269067 -1.5473907581338433 1.090408129096333
693 -0.8887627198120128 -3.843507948445874 -2.6138208848752233
659 4.008824146387217 3.65602482853847 -0.8218055850660502
981 0.5765233567135238 -0.6969438057053191 -0.2960149623549666
947 1.0705378838424582 -2.253738801115539 5.085100070253309
1235 0.6420852044571688 -1.5147989155737869 3.1121172877939367
1269 2.6069185384053264 -1.5605857582994689 -1.4904846654699078
85 -4.506609524796471 -1.1279194840216857 0.18233742764285898
118 1.1398348011744368 -4.289704817498173 -3.333075544915225
119 0.13269643463896139 3.2275293693476113 -0.45511021433156923
408 -3.3350300851082277 -2.1803561721960807 -0.1713490875826732
406 1.8427953221528004 4.232159833467094 2.4595864160487895
407 2.0185521967968176 1.8246617234903235 -4.7612966966229635
441 -3.252478480868908 0.5446629841552129 -0.5520985574918117
696 0.9206614849078261 -2.1168762930254115 4.839122015368721
694 4.417601443776889 2.1963262937440113 1.4740272364570433
695 4.462799225148324 -0.8989022920449645 -0.6779066860939365
729 -1.538875759849234 4.076534276021979 3.495541833176744
984 -0.7346246549617402 -1.9345001769855088 -4.106632493723629
982 -0.2146245622744905 -2.303940093129347 1.3596651338250154
983 2.6858409807594144 0.32843893562292464 -2.2599567041249147
1017 0.16908394902422064 -0.587993442937829 2.307503305588783
1272 2.671669621829296 -2.8733277157404706 -0.6697502181273081
1270 1.2040584797986469 -3.567098110019446 -1.0284852997834633
1271 -2.180507060191026 1.4612924516256904 -4.480874505367751
1305 1.9578263580087591 -1.7553900542768786 -2.1033963925929577
14 2.8059763790821806 -3.2574582678407284 1.9324410423139629
304 -2.7716512651062417 -1.5659641530862665 -1.6580086668152698
302 1.0205632031460388 -0.45334154053004416 -0.6201259255943772
592 -4.101331560390416 1.2423253770464946 -0.2161355270855288
590 -5.974411447461609 -2.248432171329038 1.2532053401835908
880 -1.025873220416352 -1.3325833585795248 6.758101754595848
878 2.1888251520441484 -0.37375913921075626 -0.08723044576476077
1166 -0.7929328977562577 0.3593651365908791 -0.4293793485076373
1168 1.5513111533412958 -3.063820468887013 -1.5097112255156555
15 -1.179030126735013 0.04292961033849285 -2.926200832237162
337 -1.436919062874833 -0.5450275627225445 -0.41000074740779463
303 -1.7703301840085013 -5.0427051659696085 -0.8934118746304643
625 -0.3197809129617129 3.4801413340354532 2.0805171528599646
591 3.075900012532441 -0.74868574526358 1.4776904377235955
913 -6.615342858043188 4.9601487545547975 -3.562834750848064
879 1.4961363803867649 3.0280998079070605 0.38972557399828156
1167 -0.6497631558321421 -1.4608728263127164 -0.6924125625933898
1201 -1.5631114679232667 -4.088102865361913 -3.020909832414351
50 -5.297479413915435 1.1024565815880405 1.039109680079424
51 1.3681122112715949 4.2770712677846525 -4.213081923173231
340 -0.6324263682137967 -2.4845662813458915 -1.3996403495698817
338 0.6905063654395253 3.4081295386704946 1.466935431616492
339 -0.02835875034428348 1.7830571158188204 -1.0530049720079062
373 -1.099240912941305 0.5191572548443992 -2.295777337834958
628 -0.38419931299085835 -1.482148009257394 -1.9368297533023167
626 -0.48186123203432424 -2.3593618718634715 -0.7813062505796736
627 3.612190542274293 0.9015421811813349 -1.5965733805765017
661 -4.630303964914601 1.9532902966497918 -4.303745159928705
916 0.3147413395003774 0.8182472826138067 2.034626235494525
915 0.18047329154070443 -0.5063991271512647 1.8141017494906742
914 -0.8877090914890922 -0.3593873876566342 -1.2215761403258734
949 0.4913196700934033 -2.5592569600412016 2.464149205877951
1204 0.07267871283809131 1.5383404025701413 0.08191106924887123
1202 -2.48790253840493 2.9005710712230726 -4.936891984943479
1203 -2.5635344349642444 -2.1737998905835343 -1.3789170941623923
1237 -2.994385032538646 -1.6987428003090952 -2.917569334708252
86 2.2174650683254535 5.690181386546848 -2.1026177763703173
376 2.3559346116659023 0.8260190278841231 -0.4863858483402441
374 -2.470906480880465 -1.9005040033370004 -1.5127269709463826
664 0.07835967523564687 -2.0243998019359486 0.1805757777373006
662 1.3374439920172498 0.4202388241094075 -3.8338726244802075
952 1.9328385778453447 4.818759826454938 -1.2326942496508408
950 -0.9271307110013055 -0.05166212828484323 1.4272617724477834
1238 -0.9464469521117264 0.21792523444673595 3.8502572701686772
1240 -1.6456797296501398 -1.5267529005347062 3.727233021885811
87 -4.441684452863734 5.350310252850913 -3.3057756617625254
409 -1.0784055303406592 3.2266674071911585 -0.09895210439187917
375 -1.4307596037143862 1.6195795497063934 0.3896626899272539
697 1.1866001520416143 -3.0028903978231813 1.8393092278579706
663 1.7404091904207575 -3.5163304366410992 4.173821938811435
985 -0.47920637620801615 -5.6041374846404 -1.231877425249911
951 3.2077064255109993 -0.09888122912762108 4.718528308161027
1239 0.8057274998615254 -2.05934906252279 -0.22681280170180876
1273 0.25103922335398016 -1.1053756835426634 -0.2637504928965615
1274 2.0457772180902682 -0.8982810840290725 -1.8148837020111814
1309 -1.0165579317759053 2.5402065001690053 -1.8373983826282463
122 -2.0531531282798094 -2.0836871471465868 -0.9456431044487213
123 2.8649705747487313 4.161064725177808 -0.3558899765855724
445 1.975749494723404 2.4451602566707162 1.209421243813951
412 1.7768445058920106 -0.8217881258228664 1.9355866081090283
411 2.7294095480957368 -1.7115995103313588 0.6680920279496813
410 -3.0580542540774047 -0.6355485508674967 0.3638189652710231
699 2.4776201468957355 1.9403403962667307 3.288824506317701
733 -0.6540311859918211 3.5901945410397595 3.6133487448579706
698 -1.6986763124955797 0.4712907108810987 3.5047060817111464
700 -0.8300011531337055 -0.9706429551386211 1.939408607052446
987 0.018655834357160412 -1.0434510195228202 0.9480605244740917
986 2.0276931650960606 -3.023889751586966 -2.3597123431489395
1021 0.731549664770268 4.680012535552666 0.7195038630304281
988 0.35961210735165045 -1.061728930954344 -1.0812999090819782
1275 -3.3713560605281025 -0.06131593426997539 0.522584525692742
1276 -6.380733500290901 -1.4565972026795746 0.8845460836034177
157 -0.9755300715855877 -3.598000114733494 -0.5746587077757767
18 -0.5438013200136571 -1.6664263876276815 1.3061909689787259
306 2.587165482166724 1.2220086762990237 1.283158373711533
594 -1.7735786715045778 1.567647036233693 1.1088292568361922
596 -2.0012344240233064 -0.6857119055441951 0.3884727543375926
882 -1.0899377234253673 0.481947368525747 -1.77329315193286
1170 -0.494389499686354 1.644087571864109 2.6617875252980414
1172 -0.8352471019767326 1.9700510899873347 0.8946406900465003
19 0.966801891538468 -1.8359277503860474 -0.4917493006421292
341 -3.5811756929554304 3.8061090935267656 4.115526890190163
307 0.5354506591462578 0.5576240393296654 2.0336968309841
629 -0.5016784964965235 0.24521102918982443 1.961598827286112
917 0.6807130628116799 -2.099336723754562 -1.9341037447236138
883 0.8811003105648236 0.8036820868699885 -2.1374441894778076
1205 -1.439470564803699 3.667890408240731 4.16853769192158
1171 1.9728315252737367 -2.954613374167233 0.08215583665532768
54 0.6675626780251197 -0.17108943650342387 0.6601057609717176
55 1.7902214299069246 3.0137807237919225 1.9602496413420978
344 -0.5477416640811272 1.075736448309719 1.2847983725849352
994 4.318496895486326 2.5437896407722027 1.2527101099482287
342 -2.153637913522122 -4.929544519854178 -4.71299635894416
377 2.8583799388285924 0.4142313667476709 4.901799094650237
630 2.774286256128693 3.9435450606518163 -0.7833706579925573
665 2.5919617608541285 2.3950090143651246 2.072092749627188
631 -6.901239626737046 1.34278892238274 -0.2321890303211249
918 4.554452734310975 -1.5934487964218558 1.785406246743609
953 0.20101374677190822 -2.715078310051462 1.604994783114869
920 -0.5893886234190457 1.1074144975125706 -0.8806261934672439
1206 -3.2530912375734826 2.0304097121229874 1.6256273591079125
1241 -2.0269838408232213 -0.2872638748632953 0.6872970786776446
90 -3.9678880041507902 -5.143110618866558 3.506775274296071
378 1.4695156315739135 -6.2079459617506565 -0.3523782580562477
380 2.7425864804379256 -1.8720385998343279 -0.30509938276879606
666 2.0247784555827337 -0.7122521795427129 2.1845283628670917
954 -2.5356703964661986 1.2538327278096841 3.244591892522128
1242 -2.690677473369045 2.3949246787769534 -0.5387180130356513
91 0.7825053191841608 1.959978648300754 -2.1469287551388327
1029 -3.8360655350327058 -1.9242472147112275 0.3418765922793998
413 -1.3214428398202738 -0.19565678302252182 1.5691437937319632
379 -0.3252679945455877 1.6796406287751007 0.1935733767489106
701 -0.7137284999635052 -1.9903763285413287 -1.6059998435249783
989 -3.375773950555681 -0.24715281184453505 -2.6283538430391937
1277 -2.9961998473502014 -1.5576955348184598 -1.5167943570208777
126 2.214963041304432 2.9953706603000825 0.008936426867394242
1282 0.8233444156684365 0.5841479770227499 5.914374078265518
414 -2.200611803529974 4.09659674181283 -0.136452248036898
416 -2.777717258288107 -2.2766970501909927 2.331021522349398
449 -1.6570876398312024 5.279523957923762 2.058483961809859
415 -3.1765386473421904 1.1395268141733625 -2.9883959942731297
702 -1.829868224035527 -2.5188450114925605 3.771076576000775
737 -1.038356397802134 1.868981615418282 -1.4005042728719914
704 2.242353781301197 -2.7805280174491362 0.8909450646022524
990 -2.434094186354705 1.1509546510535444 1.7975198060769
1025 2.0074347673945354 1.7824267956348339 2.5913552079801656
992 1.680322105623966 -3.4811510661268725 -0.8666370857760094
1313 -0.7084003826629482 -4.860760732498745 -4.870517063394313
1278 -1.155555435509259 2.7397673570991827 3.036122660983574
22 3.372674011771563 0.36868337236330406 -0.9718699130746025
308 3.463451881981417 2.5425629928182776 -3.528208402820867
310 -1.561249031587124 -1.9443465273063687 3.236297962141253
598 3.694661030552718 -2.6222016414452294 -2.104798142309386
884 -4.466664306825446 2.7330433731925763 -2.0836837406492505
886 -2.269575923449549 2.4897790845234433 -4.54908556394471
1174 2.2891803755150413 -2.8331530103896787 -4.559462328731413
1279 1.8155476306782874 -0.33128123981504226 1.6942347596337055
345 -0.7911374231183451 -1.36908235087716 -3.3911160356553083
633 -2.083769242292298 1.1531064056167748 -6.394975764304763
595 2.001918614023623 0.7071891140663169 0.443245770891393
921 -1.425524493231725 -3.8398736590779623 -0.4710828479858897
1209 0.060938604255864025 1.8112137197252174 0.868794702818561
58 0.4737008285246077 2.221342319100636 -0.531194404407031
991 -0.871498816456406 5.624543126618882 0.6100215963889017
343 -0.763577173670287 1.217703416274974 0.952015243574177
381 1.4077231427583945 -2.9175522875954747 1.4912163748598841
346 -3.525232645943129 -3.349396982194722 4.286567102727945
632 -2.1522505271960672 -4.069979452974834 -0.9594995191664168
669 -3.6621263934391086 0.36507906253618555 -2.3498459217823693
634 3.2636898686061975 1.0732850857713372 -1.8312141075035626
919 2.142564744740866 -0.19595500503040886 1.9980176370335128
957 0.9590557970239852 -1.3435796985843704 3.466595964438998
922 0.162110156419481 3.0860106965944087 -7.202604396224751
1208 -1.748110028922941 -3.823587588658518 0.6476813935687384
1207 -2.4910958986954377 -1.4007185726943525 3.0586882307190306
1210 1.1662128926814337 0.4762275425727694 1.8697361603310982
1245 1.217695755125109 -0.9103178841201827 -0.6121530375321643
94 1.2619341124477816 -2.202603730488657 6.097423378539556
382 2.7073282500925457 -0.19359298483791082 0.4082296249533397
668 -1.3214887843045704 -2.601438367779853 -3.04164381766721
670 1.0643839984750996 -1.3382580504966333 3.966160979323721
956 -1.47858239268871 1.526840865758997 -1.4126205164000751
958 0.850110829625191 0.31905171119737463 2.389071801966046
1244 -2.251012855214786 2.601769295397281 -4.889392530187601
1246 -3.0155041387745967 0.196797423176992 0.8478614644803157
1317 -0.25602526068077164 -2.184643673773639 -1.780903766723929
417 2.579787708998277 -0.5825582277131431 -2.6421688840556192
667 2.5130487373748887 -1.1464516005401997 2.916983205750841
705 0.129998364564138 1.1731921353492138 -2.510397946406787
955 -0.8176281987332102 -0.2319183512660925 -1.0839028886923774
993 -3.2741986638399405 2.161043955893468 2.8541817993945604
1243 -2.2673610119020333 -1.4797290724477663 2.5575005089127547
1281 1.282051759811963 -3.9550317800233237 1.0591387776467387
127 0.16904297565928017 -0.23850161829257052 0.7139287198776655
130 1.545752478002793 -0.7366700912509389 -0.4454750696034166
1280 -0.35720558702437755 2.28721546511743 2.9825012882838338
418 1.3050670991397864 1.6432963655978428 3.1441089463081386
453 3.4320038125194547 -3.559806000909037 4.124346538245654
703 1.6069847662372359 0.34823990539596245 -0.9991434279060866
741 -2.3098046990073104 3.3359081174091774 0.5128910399298489
706 -2.0633421471984477 -0.7210379297581693 2.8088479650663603
125 0.8909350764584992 0.597057002669358 -0.36561739017564937
92 6.5118900485672135 -1.840661876373754 0.6746230959431933
93 3.704085965996701 -2.3739916817680173 3.0480510747447904
26 -0.3544752425303404 1.0133512417804587 -0.7311013862694706
312 -2.1191972910396775 0.1365590409043099 -1.3812517304079879
314 -2.9364352090897428 1.7716862639306221 3.0819690337408083
600 1.748315317717429 -1.220773015953708 2.0451140890622805
602 1.2178296098302182 1.463766881771243 2.408573346438535
888 1.9486281330882818 2.040297428517883 -1.7972697191220484
890 -1.2907954852689694 4.620634673946501 4.019339494506601
1176 -2.709413636763737 -0.039463627183082044 -3.5553842284501243
1178 -0.5455305021880595 -0.8023802367060264 -1.8021884147096914
23 -1.2527390511506058 -2.3800679897036 -4.841743535045375
1288 0.22884374021412865 3.185448842472435 0.3015812929384682
349 1.737834122357385 -1.860483352779726 1.2315074122441345
311 -0.9547752374531182 4.060210457279427 1.9448971754285895
637 1.08299563053997 -0.2055726393409761 -3.1656029786185425
599 -2.379519999526986 0.3543769997945964 -2.159651785458385
925 -0.7065077328310019 1.9704724876456365 1.4124950212866616
887 0.6573565638711059 3.9674866694514916 1.7204802275026496
1175 1.0903149514293475 2.383653374530986 -0.3798011251596459
1213 -2.8209183578215633 -2.7748250622425914 0.8000547278908315
62 3.339085706783829 0.02219792358700014 -0.5727642750801195
59 0.6737414300679637 -1.0839220030598375 3.1483791800672845
1290 0.853390223006397 -0.6895301468852831 0.2938405614541715
348 1.4861151308990375 -2.054499009816699 -0.5446725940046949
350 -1.2208721532344131 3.704870260527184 -1.170133727491539
347 0.7115791864661432 -0.27473781698700206 -0.12967522415217894
385 4.911475305617702 -2.891029410826549 3.389559859148984
636 -0.6663300572864881 -1.4236703542528568 0.4323160106213242
638 -1.1295699002284445 2.7233087531029483 -3.3200822505093983
635 -2.8937423595350173 0.47433718696527283 2.393484646260106
673 0.9484170531759182 -5.2414275154280565 0.6973751935217443
924 -3.6678010496573887 5.157308158032505 0.35881766008394667
961 -4.62117983637619 -0.16299263281339718 1.9125143272832
923 0.20049758468124 -0.6234898709239204 -1.6053173876203888
926 -2.0203740412567726 1.0138218181383818 0.17835377651896692
1212 -0.002433306224371281 -2.7804718405274476 0.26410836491944306
1214 0.9185322012334566 1.4609120649792882 -5.615312450333301
1211 2.02654448966377 -2.5978835792121564 0.5539256958286378
1249 0.2044597806893411 -0.3472750779203702 2.0466719408195173
98 -2.6300135469460377 -3.9648625122735095 3.6370545131571017
384 3.9557602480798515 -1.9405367443312591 1.996380226715349
386 1.1528877560500441 3.481770041435234 3.8774851077990364
672 -0.664789979168615 0.047338410371288685 0.9264493753477592
674 -1.5059769316785283 0.5961688767776183 -0.35753925311805784
960 1.1305726620762673 2.4544918153735678 0.4229832044023683
962 -2.279674318466862 0.4326197764885413 -1.7624927017827663
1248 1.3181455610421824 4.008133489707251 -2.055668847067464
1250 2.1148046467358053 -1.086348836771304 -3.5314913105881827
95 -0.16266846477588343 0.2970505810612854 -0.5050955565741662
60 -3.2473337638374002 -0.9887747307197966 -2.268707036999295
421 2.15395235712519 0.5796202525914372 0.720542513123074
383 -0.8137739283735959 0.29606909863062014 4.8920535973590376
709 -0.8955401247816644 -2.6774604008082035 0.2516356667205948
671 4.033327683960152 -0.014304672843484285 4.903152379411614
997 0.19390419050878305 3.9846857101540456 -0.4535781610258871
959 2.112672526218933 2.1016530520617245 -1.343833629757702
1247 -4.874845315576458 -1.6894729678148253 2.7317537466689705
1285 1.751765179620567 -0.12800879638748902 0.19660075708977107
131 -0.04068896246875238 -3.1967595007129948 -2.6999456211507873
134 2.1075594973778164 0.5653389577034661 1.133110997601264
999 -3.262916266087724 -3.0976391311695766 -1.727070631210778
420 0.7563561654696572 1.2674388792473867 4.581440393908868
419 -3.029335348436298 0.18748494423430775 -1.2691263039173466
422 2.6489911589482706 0.5463731704305501 -2.680638748020573
457 -3.638229315944699 -0.017023237565766566 -1.8609037279267717
745 1.710502686951776 -3.5406319530681074 -1.58466259520443
708 2.9046806313594926 -0.15055235265918943 0.14483658782406605
707 0.4470168148923291 1.0686435202756626 3.1988317063395653
710 -2.5674288595435564 4.923146809982477 1.0704152602027222
996 -0.9053803649571271 1.8587385998929782 -2.1190796201576303
998 3.461362969174213 3.0011903477923676 1.1051101192813755
995 0.604382915883266 1.756442327537374 -0.11120049088237914
1033 4.597551573423938 3.0734056643688956 -4.646844776276824
1321 0.272097479990693 1.7603261436648687 1.4064809331334625
1284 6.073239336704513 -0.8838976520066139 2.770392512050969
1283 -1.8237217782635982 2.2601945726814097 2.5112971363567462
1286 0.45627272418050924 -3.5891755210324945 0.9084505736757805
30 -3.460634088822126 1.2546244331435166 -2.344699732599843
316 0.08643213061397241 1.7082649120114661 -1.8264791847503257
318 -4.9243833480597585 3.4939263457134664 0.49750491403082403
604 3.4429005284450547 0.2796456014780295 -0.4734573733865826
606 -1.322436128427813 1.8222591887623625 2.7738415405438066
892 -0.581941491172416 -1.5213939298577936 1.1032479164920506
894 -0.9066002965746183 3.923947150731271 -0.41296823960571927
1180 2.222017910304157 -3.6180839482993545 2.5725783631632355
1182 -1.633118624626379 -1.0327478658252636 2.1389461375888947
27 -1.209993657323254 -4.265436590936718 1.249364460525782
1325 2.952640665989538 -1.7143286406446046 0.8524252545317133
353 -0.6881338095426435 -3.545135453572967 -3.616248193304783
315 -0.07968019951916652 0.6215404117223192 -3.72376081455276
641 0.7005655479970914 -0.45062294747125703 -4.359073967835926
603 -4.258891742918589 2.697290116566696 -2.722029800724096
929 2.4555167706259535 -0.49082899379049927 -3.570127010697092
891 1.5593648479717455 4.026035590586666 -2.1750537297594117
1179 -0.5210104737208745 -1.0538275778668187 -3.0748052848532614
1217 1.229012018418436 2.174488147457266 -3.365835142053464
66 1.7595090998490701 -3.3930018766469345 -2.0116730978250077
63 -4.247184511682408 -0.20937139428631024 1.276472819145237
1000 -0.6719677124363886 -1.0666468962364952 3.4859396407819085
1002 -1.5356728656369876 5.12765161399629 3.7308989452784713
352 -0.018239069440189458 0.03181414320956495 -2.436385700351489
354 -5.228004796177104 0.48780412914255405 -1.2993738127430257
351 1.3491103888805136 0.6942848802337249 -1.2055239319057043
389 0.7388197364939187 -1.1026301874666702 -3.8410119462332295
640 3.3691107440595855 -1.2575637323657884 4.300648426417753
642 0.10500119428291094 -0.8163051501330059 -0.8291468537018987
639 4.294328780280785 1.1789228174400022 -0.33275347660744176
677 -1.6448250235849065 -1.6291922351627506 -4.150353960766958
928 0.4528060717496713 -5.4525700491509985 -0.7397641231181751
927 -0.2576319169295318 3.1548144752116305 2.1239876014925367
965 -1.589758882331563 3.266568049285724 4.646009106885973
930 1.6866238126086843 -0.3042323214525458 3.5350624272258844
1216 -1.5823688197272032 2.5882985605302697 -0.5949803927632139
1218 -0.5206266170999841 3.5098050018940223 1.6769390473766015
1215 0.480221728742237 -0.9998135800915805 2.5566951971157748
1253 0.47048059465579145 -0.5739566295860353 -1.1239565413637418
102 -1.487869098015288 -1.806402362090465 4.382883500935622
388 2.8347778486492095 -1.5488287367799556 -0.022806531931986285
390 1.1288030743944082 0.7526938147755425 2.2104983949128054
676 2.1174647551407277 0.6242048100531793 -1.3902465207888228
678 -1.778111300919049 2.866000041030475 2.89159541508728
964 -4.071639694983373 -0.9225023052801333 2.2102079365237124
966 1.2122442578157584 0.16064258942294765 0.26580333508133436
1252 -1.8213955114137468 0.5315304029103735 -0.9258175778962576
1254 2.5851274473427988 -1.7748303465154045 0.08220888504374464
99 0.9074294418648218 -0.35084892901710746 2.3341658218218773
1287 -1.1498437379333744 1.2822329831103643 0.10072471912556959
425 3.1996523437786175 -0.27600429878123817 1.470514051219275
387 3.1531143227829874 2.1090032943460835 1.6055486559982124
713 1.2480145328687529 -5.075447665000779 -3.5505518250639025
675 -5.945611032291644 -3.4359942637156147 -2.270627058341113
1001 -0.35640197216555763 0.6311670153130744 -0.48366641545257644
963 1.4063472087598325 1.3381169744467472 -3.96430186546212
1289 -0.033211788326647264 2.1342526848278296 2.5864292079279707
1251 6.855521848911054 -2.942638314468659 0.9457628192796551
135 2.2249353550135087 -3.639653463975823 1.5696481309193668
138 -3.5338661691322635 -0.8793210564128093 2.3024537289583766
1037 3.8358873424574513 -0.9031538128803992 -0.15051829472422143
426 2.6185236445052023 0.20942141036481346 1.1173988288111212
461 1.1908885328867869 1.3230327714929526 0.4355149190210067
424 -1.1246231988021738 1.364613370198034 -3.3677771738898494
423 -0.5892427567642181 3.3833063801044734 -0.7236791817079377
714 0.49505336162604263 3.6378429566977863 -0.7491181903346045
712 -2.803323385900422 1.5028455742059252 -2.7515936834547947
749 -0.38073276886409263 1.8219281179149998 -3.584956676579575
711 0.19674240734543 1.5915302577002035 2.1430163752921065
96 -7.906779002416432 -0.17565500965784087 -0.0009035810429847392
61 -1.0678191537796293 -1.2522474411893743 0.2949583119387539
28 -0.8166738902987934 -1.7102056343192582 -1.1662540455509345
65 0.41193539973403825 1.1821804284187576 2.021235910704013
137 2.5561085265500343 1.113308660530166 3.083699263390968
64 -0.37176464548374866 -0.17859957535377097 0.7020091503236141
136 1.0507021701305586 2.0396363713975707 -0.8477305447749103
97 4.994627788214039 -6.4794893907806586 -3.9633409945891933
34 -2.072872548245637 -0.22671396715017608 0.7015942909947753
320 0.6903633481004896 -0.6691056241045966 0.2974422282793831
322 1.0933189598305095 -1.6889704286810483 -0.3361045553702286
608 -3.023625771067519 -1.4054963310503321 -1.5937945940984029
610 0.6807313120123425 -0.4968017043415701 -1.5372564077918962
896 -1.0231957588448226 -1.4739994849775597 -5.1447414371507785
898 0.5389981871385454 -3.1079369820832357 2.6145172581394207
1184 -0.7506522183915153 3.413187033208288 1.1706537980626412
1186 3.2636623105728457 -1.5217521044917364 -0.8507924240382996
31 -2.9299803634726374 0.9339032955868314 1.0393566842350501
357 -0.012008639644578448 0.4317806594400716 -1.4574601462935792
319 2.1180972393926645 2.0149847453515064 -1.9848745749075802
645 -2.9115615216173767 -3.1772051589323436 -2.504978456838247
607 -3.402487316942174 -5.2898068465677826 -1.7263444151487592
933 1.9677513881926159 -2.4462902683349736 -1.6048925701531296
895 2.3769024154044303 -4.314412460156056 -1.4627785370448805
1183 -0.8172794236493814 -0.7382161111182064 6.83722882295665
1221 1.2150346807390935 -0.37653102194282306 -0.42366165240625886
70 -4.409092307717384 -2.0816491352891933 -2.628218618099839
67 -4.049304060231108 -2.153029775751824 1.9816132145520127
356 2.451502672678872 0.6633822749628625 -0.8303665727922824
358 0.8458776326629388 -3.2271546683079744 2.230407279834081
355 0.9386746665601429 -1.4623466773920488 1.7349025265608757
393 0.9217569088088625 -0.880330463635494 -4.816773372283662
644 -3.322842518594745 0.3235481791153959 0.07681590655252421
646 -1.367811363697439 0.036893149003254445 -3.354512918617235
643 -3.0527823676284793 -1.4101880204260269 -0.7519210779004468
681 0.35431496102417814 2.11058234375254 0.7088118701614822
932 -2.121819570640206 0.8312504507143431 3.5761427013646774
969 -1.1218855223465374 3.9564496601249513 -0.3875768170904355
931 -3.3321499861790103 0.8162666532805164 2.3680934852154576
934 -0.6381362576189143 3.634972617056323 -0.6470571122015043
1220 -1.9063494823600735 -1.9247195609570427 2.9966053809535853
1222 -0.034215755860585416 1.2170592805094962 -1.1007945991593002
1219 2.2477998665749284 1.6029345628539435 0.9530624172885666
1257 -2.5259352013036813 0.7135146265116594 -1.334278082600612
106 -0.9766448926681528 0.12675880182172947 -3.3315176991445443
177 0.3220578047568324 -2.1884952745260016 0.8088990716308359
392 0.15201450409862632 -2.173627420772361 1.3915892673397665
394 0.5878702313946571 -1.1570915014334822 0.7247791855948632
680 0.4568705056912157 1.253919651760269 0.10213287026250151
682 4.91788457882943 -1.3705871550986388 -1.2261505522001819
968 -3.3175198433313438 -0.5494664395380445 0.4611150047054461
970 0.08481932712138 0.053934520960769936 1.1764586763593166
1256 5.202266673055427 -1.8370454747201466 1.7358143909894377
1258 -2.5541529778124623 -0.49252862473722364 0.23020265070391108
103 -1.3929713172731502 0.2931719110591561 1.7984103330301784
613 0.9516805394310914 1.3918619019967737 -0.21946171332968797
429 -1.31502706724339 -1.0287195339100166 4.126143715899563
391 1.586182355374843 -0.3641985876104359 0.23559008503775397
717 1.6838637037964335 4.391417210546906 -2.2024175834898827
679 3.0167570251258824 -1.7853920944968398 1.5424940954710666
1005 -2.188718793953377 1.5741506770719396 -1.4174735263108367
967 0.896443999505366 1.333303885979177 -1.6428782469609946
1255 4.257091848176466 3.2213528444216064 5.8862956212878546
1293 -0.5917236319988219 1.3887943653786994 -4.610388802360001
68 3.133038161672855 0.16529984232401035 -1.8622218680254845
142 -4.786359364136383 -3.711163658052198 -3.560895927553204
139 -3.8151193470241562 -3.140959731408282 -3.9097774728264567
69 4.032803888580181 1.9476085843937745 -1.2954778271340521
427 1.626277785340237 -6.742918952684165 1.3315199403404856
428 -2.5159661266054285 -1.9099683629307467 -1.3495935438011486
430 -1.1769612045708564 3.682651028440111 -3.213818071168623
465 2.4402352766624076 0.6909598526933651 -2.292977067383342
716 0.8942180947831657 5.800253040647673 -0.137589285485626
715 -0.4900366080426974 0.041718221651190365 -1.8667442098334441
718 2.49197954148693 -0.5186230285016926 -5.76911408426441
753 4.859855325881085 1.2290059740535642 2.5794842166489453
1004 -1.4806579545652196 -1.0485883012729662 -2.8624691412161565
1006 -0.20965086232426872 5.005032455465967 3.8841555216863006
1003 -1.3776727577414363 -2.340635286158459 -1.2079667124525544
1041 -1.2528652694628637 -2.913047100724042 -2.8956482954672214
1292 0.004628504901025895 -2.081030374489102 3.8066970097951485
1291 1.817619754155006 0.283041292373807 -1.102723330061034
1294 -1.5264416849650269 -2.078446281136049 -1.721172164059652
1329 1.4444863782786743 3.857922309008804 -1.8649891938515064
1296 -5.585678475762104 3.0599567721621264 2.970976962472895
324 -4.881098325533089 -0.7633852137779605 -1.406587161296879
1261 5.200572011244707 2.781815466209763 2.95889437150805
612 -2.328329783769029 -0.4842884620132237 -1.531108267210722
971 1.2481762462841621 -0.42862292289513054 -3.1295604627488682
938 4.304222036849649 -5.353146467388668 0.9933179193741799
900 0.02391531282112985 -4.237646128751979 -0.9312584647836114
1188 1.9610357470125819 3.656009572106281 -2.1539007425984704
683 0.956584035435887 1.5561664658247853 3.5877665972549355
35 -1.6997092767880428 -1.070829482792759 6.002851862691355
323 -2.6009683951508493 2.6263498852209013 -0.40307135945606704
611 -1.2502048844968539 4.533437426807941 -2.242675029584755
395 1.695747856917295 -2.5816633242316307 -7.32855296731708
899 -0.22871348974795783 -5.042951153883036 -1.9799277041994885
107 3.485240056776807 -0.7609004281071855 -2.8091670179535395
1187 -0.25835121966527314 5.069226306293616 -0.6445763778668548
104 2.2905722369975132 0.08595800324985042 -1.5624269750914217
719 -0.9937675627136228 -0.26237543570317257 -2.6185466633181895
71 -0.49435813065519174 1.6627846418556098 -2.1568272908914308
1260 0.6740327463712082 -6.214312705917812 -1.8520048572715484
360 -0.5159514744172933 -0.46963276425558004 2.293575545821133
359 0.13552897571101127 -1.211427893668267 -0.26982412218880303
143 -0.9498704704879309 0.10387536560336308 2.156221405340222
1295 5.914190801640753 0.10316240751100862 1.0082257115417188
648 2.6455537330330503 2.093613635584483 -4.138106876233299
647 -0.10215222925342601 -1.9829164798520416 -0.9208221425837037
720 -0.3680330934821454 3.5820648659579657 -1.1864139826956408
140 -1.5090421276548085 0.5521242253489145 1.9529221916868895
936 -0.8811996135876224 -0.07824390796403778 1.5947797373505308
935 -5.389500527674292 2.5658555426009784 -1.017164870525376
1007 -0.2995788738825406 -2.288260620408905 2.6117321579184507
432 3.820968781220761 -1.51057746795542 0.21535648116144732
1259 0.11338348458873805 3.1644271396143724 0.8520265295796781
1224 -0.19880537350009198 -3.6257090429474133 -0.3473705414555861
1223 -1.978393800204386 -5.81117753848714 3.0628973631708636
431 -0.09593454306189404 -0.004009708081566176 -0.7015105864792308
396 -2.204924989835265 -1.1905844146990456 3.307936538942454
684 1.1286668627251382 -0.6586510448986381 3.3203984364683925
1008 -2.6859893754741506 -1.5103603266559387 1.829561654935978
972 -0.8294660216068876 1.221998589295628 0.10772170835146483
105 2.559991366739671 1.7391002395052328 -0.8813264562010483
1154 -0.4400949911791639 0.19460378663463374 2.502308332263933
686 -2.180108365090023 0.9158158097002803 -0.8552846092466043
2 0.882027700573232 1.2281967238984384 1.1644070906985275
1226 -0.6832691217913407 -1.4346471571320958 1.9212517521731836
866 -0.07460796495692731 4.507609131684368 0.2643925417478898
974 -3.76862830364378 -2.8536705370588322 1.3179745117515682
1189 -3.0752962064170544 -0.9365292490184292 -1.632803485503223
1297 -1.9866550952689668 2.020306764000238 -1.607793351079567
685 1.4059856026016024 -1.6973121021866142 -2.577744267333153
325 2.6126553403563606 0.2814760638325466 0.49171087284294995
578 -4.643045576836611 0.5443776845655722 -0.8527418733126788
973 0.35463107892884643 3.515878483412261 0.9222912641048256
326 1.660354842991721 1.4233777018673952 -1.4748641701994258
1410 -3.073953761150946 -2.379746991126188 6.2319456846220165
1298 -1.4776031717478517 3.263324740012055 4.037600075045829
436 0.46698858525609077 -6.551120963655138 1.208940234343207
1123 -4.094136637237936 -0.10201726538053602 1.1984399759825541
724 -3.543222228810684 1.4949066002563502 -0.7198313631624612
869 -0.31297357686881105 -0.2471144107267989 -1.0241336596251123
1012 -0.16786691861510478 -0.7733385841729843 1.6183565152435746
254 0.953177112715376 0.4655737300340709 0.6529726012733393
1300 -2.0520542297425024 3.2157882813474976 -2.3759562934579566
147 -2.953838704456732 -0.8227273456710311 -4.052271704600262
260 0.9695875282808537 1.7626154862098096 0.5509501811795265
435 -2.1760026739714298 -0.4519432172696492 -4.187600735580948
577 2.6200004477503076 0.6767127641007604 4.638297995538622
1124 3.0360053564102443 0.4300847231885002 -2.057130853038071
723 -0.6219069298130266 -1.270104461663045 3.4956683551673824
1011 -2.4322803302251383 -0.4387226213609956 -0.5363750770925573
1299 0.28087551519924797 -2.3873651279352748 0.134692735457074
183 -0.540756724121654 4.323891021236918 1.5825920705168872
289 2.5026552803836304 -0.9763648233529415 0.6010550007110163
1122 -1.0971124222907283 1.862664480075962 0.9233419288106854
472 0.6301229380494886 0.12744916994685387 0.49048133944786465
471 -0.0957374379200562 -2.9670382364876735 1.9424863156777836
505 -0.5832405312784494 1.159638526606452 -0.9989413081131473
760 -1.141950049761235 -4.174884852990626 1.5068943806739752
759 -0.9111908449017988 0.07786858709004246 4.679238015490745
152 1.363962375447163 1.351247342074102 4.052837359124164
835 -3.1511064584244726 2.628535736949747 -2.504948045000277
1048 -0.6332105858344154 1.0042321003629495 -1.9668128586522968
1047 0.15014089980362796 6.018926721583718 1.560949832239519
1406 -0.7018481196257719 5.301543847717942 2.9907571341896944
1153 -0.662574963065031 -3.311605160040502 -0.404956453768426
1335 0.5296784795837914 3.245790711925268 -1.707051888392661
1336 1.261158179515874 -0.5874513506026015 -2.697904992253989
548 -2.257586505881818 -1.6251949290570684 -1.1573134601814543
259 -0.32213962279925024 0.10843940036792993 0.5933602195648264
508 -2.9677045694655626 0.16531472149255538 -1.8918788174121668
796 1.1159992724727454 3.2869524277379356 4.370581611508933
834 0.14106446378481222 -0.9170830453642482 2.917264482972848
1084 -0.3768621733981073 2.3438978306266463 -3.7197901646599094
293 1.4926496548140573 -2.1631291422793373 4.711849523892143
1372 0.0480984323596864 0.39273753919707977 1.2238144705028078
219 -0.003645820067288172 0.16718242997703564 2.9596742724939635
507 2.161036167382248 1.0862441418195456 3.0014352361871595
581 2.5857746191576654 -1.255989408867688 -1.1811107040566255
795 -3.227475158199212 1.4201209455682495 -4.9070117172241625
1333 -0.1731490788414722 0.05878385699930484 -3.218079989590204
1083 -0.5681366322097613 0.8532869663914745 -0.2034597427644775
1371 4.969334098518028 1.4048961494168422 -1.7243839105463168
255 -7.709427547122612 5.196769531894428 -0.5181390473839387
1411 1.327804683199634 -0.5402158031127906 1.9580052801825047
836 -0.8122673492498296 1.1677278955207535 1.9924980708765547
544 1.5786528677072795 2.150216517354986 -2.5421330673278977
543 -5.799484147643437 -4.024561385518256 -0.9309120806774367
832 1.8535643695431558 1.8053319272209614 1.5851049439693738
831 3.19605872378405 0.3712576069399479 -3.492356388993953
547 -1.185585080475691 -1.0960169905349249 -1.2218248650040928
1120 -1.3401993753774222 -0.8155631142931608 -1.0609674520335957
1119 1.81985990895523 -2.7347925038182894 -0.179822008305731
1408 5.606414004740459 -0.39322231413294645 -2.708543619237893
1407 -1.2744365188848847 -0.9618693612277461 2.527761461231622
546 -3.016993929945471 -3.1970630792301047 -3.123359677600505
258 -4.396286071494961 0.6296557761369107 5.931630996294688
150 -1.981020565987981 0.3133901898556807 -1.246381773981501
440 4.796545100163733 -2.0431772037614944 -0.5058950687559957
438 1.9707600231494526 0.48981287798521467 -3.2908303488609625
728 -0.4834642472671364 -2.785980103430994 3.5167288289413707
726 -1.7799588472400831 5.759838140487736 2.7901052037524363
1016 1.5241960628282625 -0.9091076389264875 -1.4143552204564334
1014 2.161153475364069 -1.323501875211979 2.1259185153467866
1302 1.9093707329245537 0.39982516342765745 1.6375226254460964
1304 4.912381753444456 -2.3259792509173756 -2.513589285781688
151 0.4666620558770546 -1.680741900378356 0.8115632372502124
473 4.196215400025561 -2.9005009502203527 2.613659278950761
439 1.3463575655618578 1.7977579769924255 -0.6598099406060579
761 -0.2827207003363815 -0.1072858980348916 0.3064248972696074
727 -1.5083107557890159 0.3099401789316713 0.2409465580454717
1049 -1.416723747392 -2.217109210749516 -2.3766569271986726
1015 2.100452625195996 -2.112305142891263 -6.685563106365899
1303 -1.1780324659613821 3.525251928266714 -2.553142630640329
1337 -3.120448219910742 1.6018250406536991 0.9450676575942126
186 0.486535927680296 -2.337832882013187 -1.8218583924135654
187 1.7752117704863029 -0.500538184566775 -1.1723778339031328
509 2.46766680489231 -1.1011628501056818 2.332466207870313
476 5.70871753821334 -3.053779163922594 -2.9072953963711083
474 1.7603649219416382 -3.1029375924249556 2.313939580075977
475 1.956606454104879 1.1307490082339138 1.3569201028635278
764 -3.768470085621815 -1.0586142763098643 3.1711692649367134
762 4.321159430146422 -1.2514529956672995 3.8713222165025254
763 -3.058774118936013 0.6575952773672921 -2.0262879170805266
797 -2.50638800210892 -0.26833905731574387 -0.6134999530919854
1052 -4.321053258132652 -0.7176702283694171 -1.7734093890444924
1051 -0.986555000677347 -2.39750451955698 0.6178038466031109
1085 -0.01576123992947634 -1.1458020500113026 -0.4522761132415222
1050 1.4599800359560344 2.116450410612504 0.1775809252627829
1339 -0.1166862626803852 -0.23103304550114223 -2.342962277160497
1340 -0.9212847735081743 1.2363278928861108 0.33665745217130444
1373 1.8197415448498089 -0.8741921631294348 0.5224285921301772
1338 1.0789857618517027 -1.5139227154294856 0.22654646771450898
222 -0.029205611124435173 0.8114589885776994 5.400033499969727
512 0.21608874270811973 0.7702607977939456 0.0008825779700562854
510 -1.3844903756348066 -0.294878295097644 2.474581876219424
800 2.05033492681479 -1.1779371275754642 -0.4243386465442056
798 -0.7599549400684427 0.37928698596661053 0.5606330845204706
1088 0.7162689091974762 -1.9497944727381424 1.2455072376323377
1086 4.661097465148324 0.8332657544992528 0.25816697563912394
1374 4.164096906014249 4.0934533418721495 2.8580594400149164
1376 3.063316040302544 -2.085383406052431 0.20754520120375425
223 2.202394238448896 0.5183818817053181 -2.172754180429521
545 -2.0507828197568387 -2.457999884102679 -6.247977756812095
1157 1.453207411847261 -0.3607967604347571 1.7073363668511086
511 -0.4833551368597189 -1.727510664835776 -0.2692499451659013
833 -1.575905699375745 -2.864026741826567 -1.541146097902866
799 1.333021531665206 0.6410206506618348 -3.3782811030953184
1087 -5.092204703389064 -0.8297445734929172 -3.3517952840493845
1121 -4.418206978232981 1.6116232190307274 3.2883024875732896
1409 -1.0180349024127313 0.8511096790712331 -1.1406242229449104
1375 -4.131436738792128 -2.1030009122304767 2.987323978339041
1412 -1.199527834412306 -3.3139085804184303 0.24730411844510936
1010 0.9490964474936702 2.399334131126501 2.5300400619839754
146 1.0121555970654235 2.167397079468679 -0.2942457951604149
541 -3.3411017027113306 4.93987767209914 -0.8716716535008405
1082 -1.8793853989263425 0.9478269184026076 -0.27063796189079004
218 0.6183846678614454 2.627619953084697 -3.1634161340056277
469 -0.7048751529446274 -0.4178337763055558 -2.521754244726051
434 -5.673299314050417 -1.6314794624097793 0.7697416184685374
1334 -0.011907997961360694 -4.858022001753477 0.02378416896336652
1045 0.21414295492482968 0.5229143210411954 -2.5209379828602225
758 -1.2236892756575692 -2.1704427749105446 -2.5345841488308665
1046 -1.2696738620693875 3.875143089549643 2.263375750525352
722 -2.4911932921612596 -3.2836328828618453 2.4543784488172036
154 -2.139569476132237 2.8593675857486365 0.036109807349981635
1165 -1.6677179447359067 -0.7536355087101109 0.32653245935148195
444 -4.851190293455069 -0.9630584891997177 0.37510304447345627
442 0.8678001900064396 -3.5188560906692063 -2.664891879045764
732 -0.6756657641985679 0.4663052225354675 1.2792496895289365
730 -0.48757015227635897 1.3404901425804476 0.4603822562781545
1020 -4.1501916770021925 -2.0313968920850787 0.276519983488743
1018 -1.5925874103192497 2.4240886445506464 -1.2587229110229154
1306 1.1438674608058932 2.1733169488561623 1.8067560358079868
1308 1.4868348212131706 -0.6257574913398186 -0.3915976729331941
155 -1.9584077882885658 0.8431735804886545 -4.412706119714091
477 -2.34399777187074 -1.884201511598068 0.18301480729386907
443 -1.7612114338052156 -0.2055701134989208 -4.262553236787241
765 -0.2774092084378784 -0.23519311550023872 1.8174519627034789
731 -0.6054402631905845 -1.6717152811205658 -1.9815891716095164
1053 1.0073187238266181 -1.2232993560504632 1.2756578208137925
1019 0.04117438618257165 2.7613736253737193 2.3202631825590108
1307 5.067822088885905 -1.3780670790802603 0.04062529545029972
1341 2.7745264065649584 -2.260560942903743 1.3858783064084674
190 3.311198186190861 -0.28754615670361616 2.8452424938786938
191 -1.7642811420719489 0.9450061722703997 -1.1155661394542715
1419 2.5418450307884943 0.18262282417949138 1.774145936731313
196 -2.28270710843059 -1.5769784984691608 -0.4887200501068938
513 -1.9872304664587712 2.7914442760453166 -2.543987020281843
480 0.13969749342975296 2.1309656739132508 -1.089268512885193
478 -1.7910084331925236 1.918857048766117 1.1429843577158934
479 -2.352998063873091 2.155001532081227 1.7971066370630477
768 3.555183546173932 1.5390842742586013 -2.0168621411808485
801 0.047323665919875205 -0.8898686125576823 0.0974996861385621
766 1.9756476597375123 1.8002603028932656 -1.2921445432229084
767 0.2669036263743849 2.5644183963800122 2.0911132612488346
1056 -2.7290356391487207 -1.5902572437637994 0.4633888791917342
1054 -1.6647211446483159 0.7896377665967624 1.794752796191153
1089 2.627245900103157 0.6474202802249632 -2.0260418980702175
1055 2.260466202562625 3.089637234404451 -1.9330222314615237
1344 -2.313580712415802 0.2352334679991437 -0.6937819677002406
1342 0.45047428440434534 -1.6814534041667415 -1.3419132649949979
1343 -0.2158140991288483 2.717717182964612 0.22550741123782175
1377 -0.02953333169435659 2.9579267457540706 3.5074890415898023
226 4.030227708276018 0.7105313983683096 2.8188609472772814
516 3.6856502042784194 -0.16436514567675145 -1.661710516080084
514 -3.4691800635905157 -0.06285550078987186 0.5749129174262287
804 -2.1502775790840283 -0.10752823112773087 0.846501874052491
802 0.6165916106558295 -4.573977988749554 0.26656169482969716
1092 1.7854971103124213 -0.933343503469467 3.1808708769354963
1090 2.7344630517606454 2.3528175446417245 -2.8429909961469106
1380 0.6201784678106853 -0.5569176384642487 2.4690872624222
1378 -0.9348290434900086 -3.9477063804520793 -0.4069053276783441
227 2.146149687416267 4.132397620757433 -1.852272213799056
549 3.544807680875843 0.48860079634237197 -1.9125539187465193
515 0.9936779014373969 -1.6609079846634047 0.6671842941344004
837 1.7260652145217772 3.068513932327122 4.996133660682198
803 1.1182474439193368 -3.1203170560361024 -3.9986769267210795
1125 -0.11427327254203015 -0.281711692521698 -0.6845802536011771
1091 0.34569566369926474 1.9945946431105648 -0.27508069333610824
1379 4.1086712363246605 -5.0152888984007085 -3.140227015728832
1413 -1.1996545379963266 1.0407608628860434 0.4611217489467588
262 -3.3707326774534256 -3.5075163237677094 -2.6949103417787788
263 -2.5378626152686676 0.7321605486996317 -2.2539328703885038
297 -0.03199293710272458 -2.0581992539486027 -1.0119525301793915
193 0.33750066375472315 -2.6582217659280234 -1.060313514472317
552 0.6036969936799325 -2.011477471669427 2.71495506476887
550 -0.9379817346753433 -4.391547316581902 -3.256168853074653
551 -1.3531599669480914 0.3980966788134432 1.3863790736261061
840 -0.6731614790085387 -0.8246270212660779 1.0760504955444823
838 -2.2150416376395166 0.28385325463779687 -1.006336799544429
839 2.731079023343691 0.926481266459536 -0.8253126773306341
585 -3.3626951887264194 -2.0582492176168317 -1.7388704949461375
1128 -0.2813166300416494 2.5435724911868034 1.0042014061336058
1127 0.4171575018942921 -0.19470942645131764 -0.17504205245341872
1126 1.4593861943237565 -2.076014316937132 -0.7130590557882246
873 -3.4447385665583563 -0.4550022403303829 0.6736526031249316
1416 -2.6468760212319995 1.4154560329008221 3.097736643221512
1414 4.6861848818976215 -4.670612471256397 2.26047864110208
1415 -1.1716524052722617 1.0307425765631515 0.4714177043664841
1161 -0.3052380440086579 -1.0846423884436998 0.27802816579663203
158 0.9159547334019944 1.571886971387023 0.8705136832376221
448 -2.3470937450833835 -1.7601592469542657 -1.1783808857301197
446 2.250076187880579 0.17609147213931392 -3.67136180156507
736 2.149342677729042 -2.0511737993779597 -3.449886861727258
734 -0.48702463456270884 -0.27519202790746006 0.7492604783723125
1024 1.0030665412524478 2.5614918691524373 2.0021521998559457
1022 -1.8481294597012803 1.1013036088175148 -1.9491247435919288
1310 0.30109091863685045 -1.4291572566434017 4.981377705613148
1312 4.166672310413209 -2.9804680294548977 0.08219918024849827
159 -1.6376167241807642 -5.170947553557275 -0.9345820338804336
1132 -0.13105430004992652 -1.768876395471768 2.4276815258247884
481 -0.34492980891206254 0.48989814799701176 -3.25669185610501
447 -1.9641349586191015 -0.41986477869163613 0.8887619617395495
769 0.036991084960389456 0.619619556060271 -2.711345621369235
735 3.201288820947078 -0.8180037084853119 1.7233088098776963
1057 -0.9232621085042594 1.53968924831352 1.682950115690682
1023 -1.5850717115161883 -1.619443710181057 -1.8906573983867536
1311 3.593849087257395 -2.2749969447066296 0.05564662437712367
1345 -2.3474002834908445 2.1281963214061013 -0.9092471476665144
194 1.2012148640681588 -2.2270491392178564 1.4756003924926213
195 1.3853593829480513 1.0942457704346358 -0.23153024456410268
484 -1.3839730265558452 3.5670446617550184 0.03924486436266445
517 -2.9685844725358463 -1.1410407154995361 -5.786580984093301
482 2.88071870433112 -3.016239906931281 1.0978895094600396
483 1.172798836423324 -3.4693504516383276 2.1871363274215376
772 3.544574923393034 1.3024781756716153 3.8836137437484197
770 0.8678104038678287 2.1992019017742117 -1.7378555909595101
771 -6.647111113742769 -0.13030951047545034 -1.0244203272678496
805 -0.6423695408264368 2.9503759118837016 1.3704238090040854
1060 1.6798117401673947 -0.9427805662999821 3.288993394586241
1058 -0.02512493042251433 -8.026793783433451 -2.191432538109079
1059 2.3297393122575034 -4.358171500084746 2.4215416453990826
1093 -4.670588098205591 -0.6580112011488326 -2.690290456335545
1348 -2.273610928738212 0.2237273800520576 0.7377887501957091
1381 2.655295076261838 0.2870342647112733 0.5712333543630101
1347 1.5408687912320274 -0.8209020475714538 -1.0657801228415973
1346 2.22158774747056 2.882642870665664 1.0303454423538254
877 0.6601803606178827 -2.567311854604955 -1.6523055146070864
230 0.6471361056039959 1.606285986913615 -1.8730738099796345
520 -1.2835223540268186 -0.5186799040527548 2.9555284679629876
518 3.0926096073448788 -0.8141478691960367 3.9171432142137306
808 -1.370800871024362 0.740685978887788 -0.7299697880538789
806 -2.0678721172869503 1.47266245275456 -2.2101313378425527
1096 2.3461173842830467 -1.5430281984948209 1.7426883110692286
1094 -2.358857960033822 5.174593174959333 0.05492224827478798
1382 6.418118387215165 2.0464292621259257 -0.47286966448208884
1384 -1.7296751381020985 6.187796090698399 -0.4248336232239209
156 -0.6813407009233093 4.560539286765621 0.9368880441111376
231 2.3309237676588492 -0.41148449265065906 1.8902504440215462
553 -2.6276740447920712 1.9250373493257604 -0.6225825166075502
519 -3.6760860941691385 -1.3963102008860977 1.296932011445727
841 -1.350443418977138 -0.6939621291833339 -0.791110928526178
807 1.1912795856572984 -5.716084569937447 0.7127243820662428
1129 -7.9448900673474 -1.308678337474812 0.7210728276824744
1095 2.141057637776623 -1.5544972547715115 3.475291266885949
1383 -0.15849163107941844 2.2240858153995693 -3.047006589524147
1417 0.9871805129610295 3.7039718190222324 5.109027534417234
267 5.416623015488177 -1.943429028029056 6.849678543256609
266 1.2414354554711577 -1.7669899935822992 1.5431482305711863
301 0.5654567769490297 1.7730731892418037 1.369568633294415
1418 2.1487028736228457 2.0358533373604444 -3.3131598930449147
1420 2.137583560918148 -2.6371486988622292 0.10445915679323703
556 1.4153960089960385 5.643365367784104 -0.17384985111696782
555 -1.010555316196246 2.398335412262569 -4.650691450128521
554 0.10834484375289008 0.8183072664534187 -0.9838792787974499
844 0.8084391233216417 -1.4187950133079288 0.5750021623096977
842 0.12192819759497561 -0.9518382297839961 -2.0371097430599683
843 -2.942621061488583 1.2468246753666312 0.7290728262631905
589 -0.960987490263975 -0.009742167595814874 -2.006094345031884
1130 2.7353320241866648 1.2791549880838562 2.9121215486348144
1131 0.1457126402918348 -1.2947496172188122 -1.2801076075746982
261 -1.9658864973002472 0.2642377481883982 -0.5928146698978596
192 -3.5412756056652372 0.29643502146740336 0.344805250468585
189 0.4904114029585591 -5.476466236630795 0.7701570995760454
232 -1.0976010434380012 -1.5313252580347119 -0.5684999809111333
160 -2.4098283645313097 -0.8333036331921163 5.108177405865048
13 -1.143922090815519 1.9693285309621014 -2.334382138696483
229 -0.8291395900417105 0.031445017764402214 -3.761674206730202
225 4.9507961559431335 -1.5765116751262835 -1.4213582924556043
162 3.96777801296252 2.4850546706251575 0.9340159661626597
450 1.4358635773913957 -1.0802346373473735 2.696198980407802
452 1.0726527601138065 -0.022827236122821552 -0.08345717364001291
738 1.4922032655123 2.2368405250656114 4.2542372550811836
740 -0.014735971942720309 -1.126175924341039 -0.8438452462087332
1026 0.48700247693565213 0.4384996126893844 4.862939801443855
1028 -1.7960065837802874 -0.3853699446135145 -5.239368040547187
1314 2.227370249347286 0.5713376579137808 -0.24486253607249275
1316 0.0593192054585869 1.0278842210450676 -0.5819988829827495
485 0.6725226732323506 3.9832098603907915 0.13977870239056497
451 -0.32823136262198227 -3.3169387703449025 -1.207895801801424
773 1.7938984250795078 0.4095504572871291 1.1287431960257943
1061 -0.23224646986740438 -2.0580641908179897 0.7067946128011999
1349 4.295607041350616 1.7639147353776001 -0.5556552991129065
1315 1.3680707506280592 -1.9467565456717537 -1.6825946295552154
198 -1.207574952445478 -1.671066837218901 0.5965520981486794
1173 -5.444985915962982 0.9884364183912449 -2.447836929746971
486 2.282864339071688 0.3878803651128329 3.387827795438748
521 -0.6854741682072019 -2.2936129724917373 -1.583415345261137
488 0.7061907685920624 -3.6110185493546383 -4.1749039882960854
809 0.8194193602177283 3.1149563913275937 1.1848888710934895
774 2.8390651476499102 5.636006999613227 -0.14740198239354046
1097 2.540304329098728 -0.6790957727810961 -0.4536349372541666
1062 -2.649623990850544 -0.263943778910948 2.594586275445671
1385 1.3383123968011057 2.730801429448699 -2.9158042583793184
1350 2.3941036528187047 -0.8754097658314433 0.24086749216323722
1351 1.1164703521123298 -0.9405718874132047 2.144022286202511
234 -2.3242915890414415 4.715341935721153 0.01108224229186507
522 -0.5492926917855153 0.6258531196555693 0.8495801555868441
810 -2.073064072505505 2.1440628964127857 1.4725588976330934
1098 -1.7693009207563348 -0.6859268674780642 -0.17077767347745657
1386 2.6235125936166317 -0.8159952872931147 0.06949209137711951
557 -3.9655622030035103 0.21798852451048958 -0.7053944791620517
523 -2.6337085983786173 1.9884559813719818 -2.199691695994432
845 -2.2396392608898776 4.623126024862648 0.4784378897830975
1133 -0.9273144911587418 -1.2759519663168064 1.4639932972138965
1421 0.24163132916883515 0.3342300791520803 -0.6503059835500067
1387 0.2670765538411084 -0.812678990923345 -1.4416705991386778
270 -2.2681514249860117 0.22000897938553535 1.011638256798724
271 3.473902884111902 -1.880230056783732 0.2283221600648833
305 2.5045810736042813 -0.20507268168338086 3.3382848093414075
558 4.99820282856241 2.729808784033624 3.764153593138606
560 3.7582383921646096 -0.421754475015774 5.09214756914021
593 -1.6528094496802008 -2.4318593362445355 1.6295128630240752
846 0.5488689108475853 0.6662431221887306 -0.8950590989993428
1134 -1.022076583287166 0.7168020578297265 4.077938501842225
881 -0.09158376725873196 3.692141767796784 0.3290968124276441
1135 -0.913696196114463 2.840508250901655 1.82323287811038
1169 -2.0402992030152713 -0.21031813822047862 2.159439115700061
1422 -3.9664872860482676 -2.67874145011352 -0.49160341872038843
1423 -1.724121520028796 -1.6910925417522216 -2.4468068667393883
166 0.8525847779906939 -0.09779162100313643 3.3243137755259817
269 1.2202868904546469 5.644300485198996 -4.012336340577627
454 6.560987279292361 1.2979423999071107 0.7544596882873633
742 0.31346635803084627 -1.7616201046562392 3.8237579127138153
1030 -0.9447520387212259 1.8205803810519063 -3.3925649569515586
1318 -2.275064226259312 -0.22943889617580784 -4.110168438333921
163 -0.7286157001149788 -0.9365477807887876 -4.369586580847097
885 -0.127440597942944 -0.8620447691214044 3.285384396911967
489 -3.552634148991182 3.088431332335489 2.5654294372908693
739 0.1126486487684893 1.1878158500849114 -0.7751437748174108
777 2.7483311956418737 -1.1793046188996834 -2.5618237750200756
1027 0.5169359024234673 -1.4467046139737054 -0.6301306559123366
1065 0.7521623222462784 2.9456854165726347 0.3425374342133238
1353 -0.22395063722949327 3.526875852028925 -2.6211301854396365
199 -1.5178027168792874 0.916909894135141 -3.1849957693390123
202 0.5344158399102861 -3.099982640061197 -2.865737102038526
1426 1.6254890215231441 0.07460295766781594 -0.8423916334476078
1136 3.0662693298236143 4.07095630492016 1.06535545919994
487 2.5942378688466956 4.28828695397402 3.2223505448735783
490 2.9300353310906795 0.13105550772886715 -3.6169220350412385
525 2.2386291305794814 0.7988592027100294 1.471405141279499
775 -0.89019328892053 0.663899285587331 0.8153973100258118
776 2.7519582559936957 2.1972823904573002 -1.7926599806084396
778 1.9776915038158815 -0.9296774408310161 0.12541000247966763
813 -1.4200564741684327 -4.597215404184026 2.1261725728626377
1064 -0.45311445572908193 -3.1173388272155456 -0.859548614360522
1063 1.7481084254123684 -0.6474571474858927 1.263076356003627
1101 4.118802303217012 1.7997176611254107 -0.005578842312081051
1066 1.5835615892136217 1.3029520817415605 -2.242825555191044
1352 -2.131707307223477 -1.6053120254723636 -2.0186050299771905
1354 2.1588001361164575 2.1816685232275304 -1.4335145060589485
1389 2.5944918282728797 -1.0056457789407653 -2.1397427329998027
238 0.8141234355016095 2.379917299265451 0.4849154270685292
1424 -6.155361621807469 2.196933256840094 -2.9226086631370043
524 1.4856885930627273 1.8000915753879314 1.0808707780846134
526 -0.20438293323852022 7.210216788764553 -1.1716973405036923
812 -2.1787885129678273 -1.917272894536538 3.8879334807223
814 -0.5979193729594556 -2.493036839783201 1.2766781005655763
1100 1.8866881263001058 1.0542905884228477 1.8968356270598703
1102 -0.6576910008075991 -0.4460676858467204 -0.97961944041647
1388 0.5192482600609502 1.007142977939176 1.4232332617968602
1390 3.045290393205662 3.6537761010064154 1.8106091735499428
235 0.44066242796505606 -1.7510063667294375 4.511613759581069
561 -1.9634847468281096 -0.7801417870736772 -1.2473219973205654
811 -3.192760216859118 -5.27932870176029 0.0978230303542829
849 1.2368871482086055 -2.8939936900178123 -4.192641221243322
1099 1.973653328674711 -0.5764705829932074 -1.170615245259472
1137 -1.3366998862079706 -0.795579075742928 -0.3651691578355381
1425 -3.1584692117564988 -2.737486518027468 2.329199563348966
274 1.5425653106965125 -0.40131433547256223 -4.941238364013996
559 -0.829250649068959 0.7315120644831521 1.9600878219380566
309 -1.2184080190173998 1.4679596157753494 -0.6343677126067926
562 1.2904330587545998 -1.8128973646511077 -0.8496479710600673
597 -2.1176230092773713 1.4410764651530215 -2.2517946656210523
848 2.651641742793209 -0.3734547142497068 -1.196078147364118
847 -4.477748140796584 1.6654721275002426 1.4147690050425945
850 2.63102831182219 -0.9360780176674494 -3.838938097842459
1138 5.212579709738894 -2.280236793670328 -1.7398093648823416
200 -0.9135118065654758 -0.667519961072719 -0.8484161669835619
164 0.7721262812641629 -0.508333467920833 0.6023244651074651
237 -0.1726747452304264 0.7465629444458813 -0.28656031192956805
236 3.3514103171089147 -1.719140494208875 0.5245494536885793
170 -1.7219826090144394 -1.0043296605825653 3.344679206201906
456 -0.28024429525221545 -2.4092084005699386 0.6483452477472677
458 2.136241908319438 -2.289268639668831 -2.5733190077840455
744 -0.2852820257672664 0.6424892878871669 0.8664681200090376
746 -4.297538787020071 -0.2559576382322202 1.895703494191804
1032 -2.8639634163593604 -0.6592555385802575 1.682364428446902
1034 -1.922487580863759 0.23184423907605686 0.9122415948838116
1320 1.1858841481709232 0.10950618700578008 -2.3388067772685885
1322 -1.3077614434568263 -3.612645894873424 0.6800938729054196
167 -1.569776742188954 -2.7098197646082482 -2.005050809328523
493 -1.4546777949616194 -3.3069102276881455 1.862954275590811
455 0.02894563766391491 -0.10153796259584232 -1.9396546014013623
781 1.3773600992130244 0.21000228298018617 -1.8771247743649304
743 5.783666610414396 2.185693789618118 2.615369424759616
1069 3.3620383159760268 -2.4598274331698025 -2.4333706626244913
1031 1.2218609647866472 0.37087498589118156 -1.4278379188513919
1319 0.20066211368854345 0.9410203370077559 0.6763757892154122
1357 1.436086010437605 1.6322383113482923 -2.7237435546635704
206 0.483915854223668 -1.3750105184057562 -0.07373601509569645
203 -4.486058080735267 0.15784436723133907 1.896040582794081
529 2.312666406137466 3.4121773469094214 4.385691465784922
1432 0.7972159378412519 0.8909324498831397 -0.9397311174556853
1431 3.213211698328962 -2.207090888782931 -3.3946210155501824
492 -0.10200957701750765 2.036229814894145 0.9680500108063754
494 -4.009928020912862 -1.109132379817326 2.3608447285210388
491 1.3414728852565572 -0.2659140812516987 -0.6992586529223376
780 4.255812146276555 2.854443647356075 -1.59429137729255
817 -0.9661709805678578 1.290376124747296 2.3866847828168716
782 -2.2735673175086983 4.416778924254758 -0.19349966232954202
779 3.3268101405338184 -0.4939171950770131 -2.6509783570930803
1068 -1.746251404073996 0.69378174143745 -1.216433056588727
1105 3.245824988977769 2.558716872087747 -2.1244445639260134
1070 0.5316597260266895 0.7689820393030742 -2.1224934982786237
1067 4.5605391188680935 -1.8543849487255384 -0.5764339955931705
1355 1.330148293608372 2.3308144836077087 -0.3807679156954232
1356 -1.3459988487853312 -1.3693676769160383 -2.16648271551126
1358 -0.6561300480693225 1.0703806867018382 -2.197960771835025
1393 3.5202676067248766 -0.6239781613909854 0.11968753934189358
242 -4.205387358681383 -0.14245331079540172 -6.309701973249753
528 -0.34005108919182075 5.619382373204565 2.2188249702397513
530 -1.259871871452318 2.869527918385404 1.7159494678943277
816 -2.1561883822216403 3.4794369445711424 -4.975884053892392
818 -4.781664032272411 -1.2598850133080985 3.6458336508326714
1104 -0.4410344297010193 1.8184072740543589 -0.9693131323812139
1106 -1.0570633945390766 0.22696303056753608 -3.9663091085862687
1392 0.4195844324189922 -0.9729780270078449 -1.0563375812097917
1394 3.6697791601114313 -3.2682210984128655 -1.3689072848995227
239 -3.027709153353206 5.6883450260018 -0.07960952773685569
565 1.4685517177217389 0.06666884116381509 1.454602101171149
527 -3.7294199322560133 -1.2020018960365313 3.201214994330925
853 -1.515601119256058 -3.572708661223512 0.05844759240127463
815 -3.15104835955977 1.0672085017760007 -4.740963963870126
1141 1.6856456481580238 1.7892239828625307 -3.112462444251101
1103 -4.639313556086647 0.1606913060064243 2.490613628135166
1391 -0.8763175532788052 0.3920693067236556 -3.507311219121189
1429 -3.150768720415882 -1.1247710074369806 -3.493154001651614
275 3.611009079946807 -0.6007557220611088 -1.2347910585809732
278 0.012546422403457961 1.1552378337898142 0.8140184436622071
1181 -0.45027047397129466 -1.075592229307374 -2.0591498618232715
564 -0.29918696161867836 3.811137097809656 -1.9517479660562405
313 -0.36587427147869134 -1.2520519584125305 -2.390480043481301
563 -3.4580128624675743 -3.3844606846039555 3.3593957691219987
566 -0.7336892973159972 -4.11405554227639 3.22364077964914
852 -1.4016018857920698 -2.973682020824831 -3.152404274220504
601 -0.46674335568700304 0.2807780346656054 1.7680235078051891
851 -0.33984580030519373 -2.153747677442717 1.9223820607407496
854 0.8673762693252741 -0.9136862686414663 -2.7638292152446584
889 -0.532974783755196 0.5372659162999196 -1.0736118801461012
1140 1.2898291907406954 -0.6426538973043787 -2.44659920048485
1139 -2.377831487922598 0.9226562888233436 2.550085265630811
1142 2.155913076481059 1.7649362948912335 0.11691171861183157
1428 1.6490421682647294 -4.448932609770022 -1.9514771269535536
1177 2.2388024011051217 -3.559701472508229 0.7322204443889898
1427 -1.941152334731279 1.1576168643349782 -3.0066601639453734
1430 1.3592017359527662 -2.071755346403523 2.4464868518783742
174 -0.4436728663461669 4.498751246973497 -2.7971126557559924
460 -1.8073730823030805 -2.7396995814370726 -1.1985574896280342
462 -0.6025234939437846 1.334157172694998 -1.93168345483692
748 0.40473988601314054 -3.443756386147369 -0.9475344136133418
750 -0.39014448973336313 0.5145882833129856 -3.1091993011543853
1036 0.6225224923822323 3.6347317166953985 -2.4464544289955974
1038 -4.1679559097148955 2.54300863607222 -1.1141246646949858
1324 5.676705660715665 1.8689739336689168 0.2765978126294178
1326 3.380784612527346 -0.20687046793543942 -0.8951122376274256
171 -0.4654547591473483 1.2917856839625252 -1.5131461722135913
1434 3.1787506512834227 1.2801631465825865 -1.2765031722650197
497 -1.0270314869920307 0.15247979594216862 1.3888214570018211
459 -2.1569304390094635 6.162301436064348 -0.13425381842295003
785 -2.1185361098128763 -1.1364213575823225 1.9767687658525346
747 -5.012988935935443 5.9482077831957865 0.7186342479551059
1073 2.0109454690895245 -0.7771197856119649 2.583138081677511
1035 -1.0980356111653349 -1.2589613164282996 2.3041944395920884
1323 2.3611151269862978 -1.9639799946844378 3.7406012874255263
1361 3.625541547930694 -2.9780637715419864 -2.1910114327392844
210 2.0793142772116324 -0.7582326923679402 4.158986216807876
207 -0.9844336961345325 0.09297958291708114 -0.18351094222416975
496 1.769405346257125 -4.72989771814653 -0.6251282342668933
533 -0.6649799168021505 -4.412005348931593 2.4754304164055982
498 -4.070432155416214 -0.49387649017449914 -1.1522764495135134
495 -4.714703462036286 -4.303762569796871 -2.3724221779487222
784 1.096996370554152 -5.1895686772154805 -3.579355210646865
821 -5.408369711770624 3.7120235065166147 -0.504781986366482
786 4.053749738133513 -1.989061092145796 0.7028626023644516
783 -2.4591959836575077 -0.5850792200575156 -1.775083131002633
1072 1.034967250473557 2.3426373512894183 1.940566476395324
1074 1.7461797768263678 2.577322935604791 0.7053268321074313
1071 1.4436158583946443 2.059202491955119 -1.1858412901556112
1109 -2.0363856477350084 1.188192273411664 -3.346987231931248
1360 -1.2500399823080686 0.21607461835876593 -1.6019519190533449
1362 -0.5437476751616316 -1.4486763316341125 -2.017679888737573
1359 -1.6575240537277551 0.3028449025454217 1.3661150635345294
1397 -2.2284101320869736 1.8361124281320862 2.3785120759637555
246 -4.140320900544735 0.2959550021588668 1.6041655117806295
532 0.16364296647852758 -3.247816164676471 -0.7269191963682501
534 -1.0902522505170842 -1.5664155557333201 -0.6550881737688866
820 2.2998135785837728 5.458135277780217 1.1985821035156625
822 -0.43187868142913943 -0.3661315950202218 0.12862540464762282
1108 0.10729680249091203 -4.6200613811668285 4.081358905598893
1110 2.8360350051890726 0.950413206570603 -5.229670557219894
1396 -1.2820983276528166 -3.8393141503857544 3.865238998126401
1398 -1.689021198350086 0.19228709393085444 0.1982484745226994
1143 -0.18895278966052204 0.8882892284301072 1.548112191886986
243 -0.33711553456205656 -1.456748220104235 4.041710116230204
569 -4.106194871901501 -2.082397422051119 2.8174475262486047
531 0.5355984571735225 -4.019384742554774 -0.2752298739285251
857 -0.183279229447397 4.758994199728852 -1.5286440319123757
819 2.447225496594933 -0.8040687791007317 4.056497569291291
1145 -0.2586885891219332 0.9993903763251312 -0.6591859521958712
1107 0.8226884848143121 1.0854499336913437 -3.498199751150217
1395 -1.1009998083669565 -1.2983364018261943 -3.0046875481455415
1433 -0.960421224205878 0.632896003725716 -0.5537765780582635
282 -0.8296687876657493 -3.3814027043213555 0.47678649043740196
279 2.6679066010790113 1.3804714487165557 0.34829427262426693
568 1.7482621061161696 -2.8826265188562807 -2.863375474344433
317 0.8950022704816998 -7.842166929185234 6.045986459162025
570 -0.0282064712406419 0.5353521552127826 1.888854621891052
567 0.022590729387276215 -4.116794333994858 0.17023702088487916
856 0.28395269413924606 -1.845840671611411 0.5038092961462034
855 2.5058510519621398 1.5731770555628437 -0.6221274262532274
858 -1.3526933488860973 -0.49893026705982807 -0.12149402050706996
605 2.315249278069181 -1.632497785442014 -2.845633905427832
893 2.006949823237857 0.6039483604169775 4.220457430142645
1144 -2.0958096962345407 -0.43464193909304283 -2.8082300577323616
1146 -1.608494529068967 1.0635050110968356 0.18743882680312418
277 -2.1041440564040497 0.7410519842943677 -4.204725202505079
168 1.0543406605500791 1.3592067736122733 3.0086021589048166
208 -2.711810701637857 -2.511724760087422 -1.2004129098255443
280 -1.847582640977566 1.311343298956165 -2.2719949992288266
205 1.7656172780950286 -0.864664682735261 -1.9743287946884642
281 -0.428120514030171 0.9500323522917641 -1.61348352843674
244 -2.063692019271558 -3.549086774626013 0.8062097797260741
245 -0.8923566839860346 -3.647911552771708 0.6939133664578284
204 -2.246958040631394 -1.2378858856180655 -4.935656561799415
29 1.0646105029168376 0.2921154924212132 -0.9786821045245583
276 1.7223068171954763 -2.6313344940203387 -4.225298104255913
25 2.956294638686727 3.0082999340352847 -0.41560067993541483
178 1.1424404234833934 -1.381240212279935 0.357265530550009
464 2.337094488898831 -1.1280172940711006 3.559422144567534
466 0.4609512260223223 -0.011837713468961985 -0.6059679339751054
752 -1.6958250908556802 4.96688596199178 -1.7352006625242415
754 1.2717846678673255 -0.4842682550113559 -3.2756186849997357
1040 1.983375469113331 -1.1148446931803664 -1.9005190666815188
1042 0.21431069517690038 -0.9661646619157788 3.159802724846328
1328 3.1097013842218284 -0.009424683986564828 2.898307932467076
1330 -2.156817802396395 -0.42981498115891886 2.4691805517639582
175 2.1099141433862294 0.19676688407304616 -4.686424617733692
285 -2.566477062786084 -0.7526618355815797 -5.124163972560401
501 0.9575751302053271 0.5659969459471585 -1.745912377322427
463 3.0612512535268723 0.9976717358572198 0.48261808633919323
789 0.6254643611606729 -1.759519069388592 0.39279181974780314
751 0.05824053362824625 0.17025952750631004 -1.3621948371590278
1077 -0.13107119993645744 3.769265367608448 4.5818344758237295
1039 -2.6732498368180218 -1.6985654039148577 3.2298235620741957
1327 7.109050339789551 -5.294363204625021 -1.0870939556886925
1365 1.5467126425600237 1.0365331029502094 -0.8380065477169582
214 0.5568872222994198 5.0588826401654075 3.854847673195435
211 -1.6334577886786688 0.7398339306203321 0.6073406564430155
1439 -2.5908516987524592 1.6045165959593148 -0.8406835471258463
537 3.0503056330491267 -0.32198120020103593 0.9817719396228978
500 -0.7803079610582381 -2.002426496986745 -2.948650720149853
502 0.8295859934327415 2.9156093517458794 0.6441559582492514
499 -3.027318768336036 -0.9904382737039376 1.4267428577290096
788 -3.1627821721063354 -2.7271401984987524 -1.9312259399624379
825 0.258180558805114 0.003733763073424486 2.2452839722411193
790 0.07873539566028359 1.2774143417605162 1.5783700360785726
787 3.6441955413444336 2.2607951493717917 2.5957853642673756
1076 2.405122547457405 1.863312276658959 4.508473853098752
1078 -3.017163086933498 1.0759085229185437 -5.190297285628981
1075 3.201204745801659 0.46337196271046177 0.8762255180500444
1113 4.218179289134615 1.8453683097692504 3.1963114315986356
1364 3.7891952714532766 0.7409158420458359 0.4180901821733881
1366 0.21670477278172362 0.1501131490755069 1.2635389894997917
1363 0.29891134469926434 -2.1667734426705527 0.9801909865820337
1401 -0.16101747239989203 1.5161974855417621 4.025035003354573
250 -0.9098539136889747 1.7187106248979196 1.7065496632465647
536 1.9972232032369868 -2.0967667624333366 4.175073843331732
538 4.411206205757928 3.2426354477294916 3.4796177870975424
824 2.0821916244619185 0.24744241944241605 0.49661021504405783
826 -2.347120696357234 -7.380288678902265 -0.9024839243960455
1112 2.0319804103974586 0.02551083570624705 -3.461643693419688
1114 -1.0395631229253406 -3.0476169193619143 -2.2431608906190754
1400 3.1457230033984107 -0.7685881458551413 1.894848851224052
1402 -3.6399466228432558 -3.5828812640838965 -2.2912187541941744
247 -0.23796840396461644 0.5365115825579221 1.0148318171802313
573 -1.77750657468868 -0.571180707933121 -3.6725945279513414
1440 -1.4808244515311348 -2.0873033145002844 2.1442334841289603
535 -1.0421484682157867 -2.0208250363489113 -1.7624939803549107
861 3.1176292741378395 0.09407167433636057 -5.688366239135384
823 -0.6119560993289629 -1.9002656585502156 -0.35558690275789057
1149 0.47990861105947114 -2.165279842972388 -2.847913420676603
1111 0.9858523635460738 -2.953624440139763 -0.8045730333992083
1437 -0.8268555213737516 -0.07067205675425636 0.33589451569138146
1399 2.3091710778524375 2.1424962064385897 0.2752950622194599
283 -0.34320445390768595 1.649674048053146 0.14848668702634948
286 -1.0230413764601678 -5.419820590079605 4.565018924508087
572 2.4694560965548904 -0.7471112885838072 1.5965663192367192
321 0.7057330009743642 2.6858686400323775 2.653531662300964
571 -5.074761778610705 4.524898069943814 4.8707663707768925
574 -2.916795403935084 1.3241596898084032 -2.4256011242930753
609 1.4506632841931528 -1.4132496084387616 -2.103454545117097
860 1.1419631925971427 -1.4036402605861138 -3.7469071762323947
859 -0.5918261705938422 -3.4600310082793824 -1.5679587561752986
862 -4.000620515302907 -2.6642523318323197 -4.601064493073063
1148 -3.9299187532902926 4.12740845177237 0.5445868937484701
1147 3.860134699155729 2.03228852801877 1.153511895938185
1150 0.9066906126032862 -1.2048037712798534 -0.5637312525532275
897 2.1618843071632954 2.0312874106619923 0.6209089830879297
1436 -1.70134359258432 3.3137009507571147 -0.022505683474201992
1435 0.12251818275874744 3.59147388641995 3.063536986586998
1438 1.1926965468411854 3.4488181846557513 -2.143504733329825
1185 0.11556801093601027 -3.003938446155831 0.5440901847891861
468 0.88111458086468 -0.8162108834745451 -5.118413858574966
756 -1.0086613856812263 -0.10174002356866291 1.3939860702633062
1044 0.35209826166604774 -2.5955751712063373 -5.403772336487378
1332 -1.4550904917437815 0.38524726511404783 2.054656208244506
1405 -2.787389519950485 -2.0558205869696913 -0.9489023432230447
179 1.662031790665752 -2.3256466344592566 3.1957493433970154
467 0.4618917502297055 0.7755123553974839 -0.9407690438996889
755 -0.8641150714194622 -1.3204214018671216 -1.7558579051845606
1043 -0.4453858916734609 0.5291936642258924 2.7047452216443344
542 -3.8483878607516853 -2.068378846820604 2.02154569416028
1331 -1.752557256914887 -0.6761327339830929 -2.4447277786442614
865 0.8517437270188931 1.8567733070261185 0.059374558983417564
215 2.9013968278706805 -0.2402266483876991 0.9649934569218641
504 -0.07004983418070852 1.8308465474570046 -2.2159189135493347
503 -0.3636488593882203 -1.4718369837472247 -2.3937529608123644
792 -0.4277040954114079 -0.7046482670356538 -0.1446002481614714
791 -0.22433373653668215 -1.2685044364400506 -1.5674165211762046
1080 -1.9385222026964923 0.13095315872532548 -0.41246609422242503
1079 -2.9308499959444148 -5.120601745689432 -2.6346828484484344
1368 0.8020370307528271 -3.7775671606879158 2.8231622797295404
1367 2.0216996685138935 -2.4274001304889015 0.5889002100073499
249 -1.3387997050020248 -1.5011814975474742 -1.7883695864054268
1117 0.8193154610575649 0.6809043602581494 5.063361946314779
794 1.6758020189719312 -2.9384935644418695 2.2044794170060795
540 1.2173814128481648 3.5067418643982595 -0.6948788806723002
828 1.8363602679595914 0.6347822887763223 -1.4111074528926986
1116 0.5826023036366886 0.30183696578755886 -3.510709830712698
1152 -0.7512068505669373 -5.65994747586746 -0.9748612455366064
1404 -0.7560926518338111 -0.2050970149796782 4.1837872513321495
251 -0.09220724913781812 -2.6446932313774423 -4.499475701140706
539 0.5108927315752293 2.486973136827493 0.03588580527591284
827 3.13169179046319 2.0667210239094995 2.6414545089230064
1118 -2.406420119203654 -0.5307153487426103 -1.4877189279152607
1115 3.6301687882426212 -3.8379943685431472 0.5760312086329976
1403 1.8849968833734003 -2.736778223432241 -1.4562106873428309
176 -2.273643821093523 3.3868836998732137 -1.62111781670073
248 -4.242684485776373 -3.446979974028583 -2.7757944706842586
287 0.005598957876607688 -1.6966161655044656 -0.7200269713130407
1151 0.38087945186554933 0.4997793533560111 2.312703676996017
864 0.8580546847385074 1.8800281567444712 -0.34098222042921467
575 -0.11401167689953712 -0.08111010296283296 -1.272695694309509
576 0.8046954446305318 1.0217377990599203 0.5018598148808556
863 -0.11584492420902126 1.3808196675925404 -2.6874772133937923
1370 -0.3327791130871033 5.001322427488885 3.2190523155019637
288 3.532219553348413 -0.5289158437983272 -2.0246837913893057
182 -0.2619143772122603 -3.203647921004747 1.9705345645913095
506 -3.0057144798170476 1.2713495888140611 -1.687013798136729
829 -0.6583864113595271 4.807426552381625 -0.20539485046024492
252 3.2863520844276186 -2.921679408394685 3.8014589137085606
1369 0.5172048405243564 -3.787908623306653 1.8116321973449552
830 -0.5443870684748088 -0.07306629261985575 -0.8097708506803749
757 1.7243773854062339 1.1203067612604591 -2.248979929101436
1 3.362861029475803 0.8582408445311844 -0.932102913768704
1081 -1.810600757133996 1.0074377518055784 -2.164025832458383
212 0.9738078740266707 -7.258589348261355 -1.9178214193267946
33 2.35240160496339 3.7582120643438244 -0.28661908316584367
470 3.775128821719026 -0.07344465065124299 -0.2026911881116455
793 -1.0906704685828785 -2.1629722620263236 -3.0502962412931613
1444 -0.6593231349217435 4.064277861090109 1.7795884923710095
1732 0.1854423932368236 -1.2025099615942285 -2.2841743499860927
2089 -2.068698921677088 1.10646045554513 0.6157729783367656
2020 3.0474467024057734 1.611591516837507 -1.0364424456336294
2308 -1.123080411519347 -0.8896067688880809 0.6374453648794923
2596 -4.502610728200536 -0.2642034211732767 0.10930143976805214
1443 -1.151732985550598 -1.6996161633638727 -1.1580292200438715
1731 -1.8228475245448805 -3.573694434463432 3.392674380785884
2019 4.3924084898571385 -2.264599984380586 -2.3419542285878814
1442 -2.513499375451721 -1.3048038822652288 3.348259555622168
2307 0.32820439251818856 -0.6083538703951186 2.8310781807777534
1549 1.9537402610319112 -1.390399641875622 -3.2576315864266903
1480 0.7409449477234072 -2.2045198283126033 3.805192915059034
1479 6.041195954601672 -2.7586680754959305 -3.8027834220139494
1768 1.447881413253161 -0.10042237382575724 -0.2776527035502739
1767 -2.104982650072057 -2.410860549692931 -1.1158594938659812
2056 0.4208617973162429 -0.28864856865219424 -0.10907705246143404
2055 -2.8817691400888816 2.4338014646112183 -1.1600834184529187
2419 2.767826245220691 -3.7120757902652293 1.6462272677193104
2344 1.9529092525157623 -1.7103191685333576 1.1906512390602952
2741 2.390042479435226 -1.760529101513141 2.0173816313196173
2632 -1.5883203047795784 2.670622021850631 -1.0733442331188425
2343 2.429259698627407 1.0189782099846854 -3.3669651781055334
2054 -2.7252460481473717 -7.345724060142813 0.6926873741990673
2306 -0.6142062234510167 0.7607942940115697 0.9489440656487041
1516 -2.11389975043926 1.2427566821837455 0.5501286654144463
1804 -4.1326425966139695 0.11618689490635625 2.601349673441333
2131 -2.873745113460649 -5.297933271672835 -0.14912450248820236
2092 2.166834556868132 -6.853706790850517 1.00892651152796
2380 1.649608699387102 1.0919804207340886 -2.2596287140455877
2053 -0.7966213722022698 -0.9774145116968783 0.8781504306030771
2668 0.5187849816023052 2.1793773031076076 -4.19431745136069
2132 0.6191889774075652 3.2347437134083297 -4.269429178126489
1515 -2.305081153813628 1.3205385986669214 0.04582442095992834
1803 -0.7479758631419225 -0.1511486708679864 -1.8086772033472371
2130 -1.2954656046726196 0.019386942872350498 2.55617771398992
2091 -0.14664674921215248 -2.9665573712461817 -2.097246488708809
2165 0.42408101807328863 2.7607680401517807 -2.2270775533305325
2379 2.471739945455681 2.461884318553804 -0.3636395711524761
2708 3.4506515880325868 -1.8979110348305512 -2.1347707397524966
1552 0.6856875763255904 -2.3557652078299776 -1.6216939350173076
1551 -3.8550898537673333 -2.5812689931377406 -4.91134593033108
1840 -1.8363184959875445 -3.636391499766809 2.8024123102497374
1839 1.2167842281205632 -1.5622636328682324 2.0128470825660063
2453 0.8659123458547773 2.4415887285968103 -4.753654836484383
2128 -3.57889099301104 -1.055345558126486 3.070723772982416
2420 -0.6356729918040853 -2.2880131498339353 1.6615242920835989
2127 2.3024417517148454 -4.038566977297751 -1.729696427390592
2416 0.7761174501072055 -2.5144816797966203 0.09681344494990789
2342 -1.4378309394009248 -3.083551249760072 -2.114095765820967
2704 -0.09860041691790555 1.9275396204324537 -1.2291500648531475
2415 3.1302499221301603 -2.4904785383245325 0.40483001166575455
2418 -1.5492096241211961 1.154532066438371 -2.994649061339423
1446 1.5054032768805052 2.2105266319186043 -2.2197206200775774
1448 0.9304416409098487 -2.120034106383667 2.921991765621845
1736 -1.8722846680337426 -0.4243995619547572 -0.5119038673788129
1734 1.676124477375934 0.9916870138472237 1.5519898307769133
2024 2.293443869121821 -2.012858386046132 4.674318785728386
2022 1.8400901312229632 0.3000421091580076 -0.829791105588073
2312 2.06677192216912 5.707203183707328 -2.6247014974631155
2310 1.9759522877585909 1.074377299321056 6.429225016744758
2600 1.0887600096787304 0.9804241588589014 -1.319617066355359
1447 -0.13523393322732088 0.11227924823642076 -4.732591873242915
1481 2.350664736750122 2.7753979107688576 -3.6470469565446355
1735 1.035627606269445 -0.11151134942759067 2.607900434901386
1769 2.749226065872124 -1.9330870884149542 -0.5314065454644284
2057 0.4906413207355296 -1.3224186331964212 -2.78820472913686
2023 -1.4069147084586964 -0.5330306433572595 -1.4556683706552662
2345 -0.18355284692424167 2.496749714639184 0.846593679392379
2311 1.6578998459257248 2.0851884973577137 0.6860208540091114
2633 2.2259186949556833 -7.413602203016472 2.374009925176598
1484 -0.5196887823871014 -1.305974140256406 0.48599196706643955
1482 1.4310113582505364 -1.2069632538272126 -0.7132012393912448
1483 -0.8637404984423093 -1.1037193779500865 -1.6018219855853162
1517 -2.3218561168327225 -1.4187811254559732 -0.23034107483026245
1772 -4.673704436038691 2.066160319016869 0.40161611563009514
1771 -0.8134019770962397 1.0292021511982001 2.6905665582373555
1805 3.189978591132122 -1.0640880748617698 4.387566188667366
1770 -1.2535378948911349 0.8665600819679842 5.025849395042145
2060 -3.597904782236605 5.702220355584002 -0.43606265563328916
2093 -6.054293098785805 3.4025905551511615 -1.0443483753065133
2058 0.22544974643511206 -5.019596318240789 1.728944896148196
2059 -3.459185202104861 0.677899226938358 1.0306977582571593
2348 -1.467003606567094 -0.8047020034764106 -1.458995554071418
2381 0.6811742927147171 3.7350993936484294 0.8105771192225381
2636 0.07303183388881852 0.7928461986124907 2.480640643871953
2346 5.1560773842114855 2.984121914216372 -3.5658708960796597
2347 0.13095158671455884 0.5864023017410186 -0.08633841662073079
2669 -2.1249214246711188 1.0775172960990407 3.0239971263446166
1518 4.422423301023073 -3.3999757134818474 0.17647193929486113
1520 -4.1736825784590925 -3.2803923428372896 -0.9980788908792488
1806 2.75037738142589 -1.5038619211337814 -0.3610602115009753
1808 0.5660464929872824 -0.9368923051001057 -0.7825543047720706
2096 1.6086739755829147 3.1124073385288784 -0.09010595605713147
2094 0.32205061845605054 -0.6252325153094836 -0.669396890377946
2384 -0.09562960779095339 -1.6392703671851134 2.796804716864512
2672 -4.140464990043143 -0.3997367121721266 -0.4696230923760965
2382 0.18598775844770637 0.7121440587244935 0.9543893026338588
1519 0.13213123745101593 -1.0592661856329886 -1.957174954795614
1553 -3.6115178779266244 3.1830242438171896 2.177469737164955
1807 -2.8649011014092354 0.4853336662165703 0.8366167138792308
1841 -3.381450385088471 1.0910495106794087 0.8806789808633837
2129 -0.10793043283411592 -1.084357175132385 -2.462476618110191
2095 -1.2906749998903964 -3.318458420230712 -1.1886795375914747
2417 -1.2351785942979305 0.9412868840167078 5.350383351634261
2705 1.712752848916518 3.781125625855977 -1.2471504443174521
2383 -2.3917320145857084 3.6495585420497405 -3.973266942648212
1555 -1.2064070786959211 -2.227081968118481 -0.742791231748671
1556 1.2955568539772893 -1.5734662794786576 1.967443341610764
1554 -2.003776634516443 -0.5077542892056244 3.797318935517476
1589 -1.9834885045409536 -1.4093144490494744 2.4437566113953664
1877 1.660353511046202 -2.894368510629772 -3.664590311246825
1844 0.11089544332481026 0.29860674522160713 0.3377407697102978
1842 -0.3854750766375398 0.34690474216649175 -3.570324325178464
1843 -0.5242258473625686 -2.9335130915472867 2.843638953333434
1802 3.286559916254327 -4.913793886074609 -0.8047368408545753
2090 0.34294411881782966 2.1375604477831613 -2.1715278634923343
2665 -0.2883890165285484 -0.1516479499582497 2.60308967739959
1837 0.3608736980083441 5.778005484224284 0.36045565521142336
1765 1.6707238989912083 1.1367090381179317 -1.8961491206849639
1766 1.9937818576979545 -1.822469066984376 0.22291209637859333
2629 0.5049265700505889 0.13238770697399002 0.11430538133374661
2341 0.43060318360573563 2.8360269291371534 -2.7447703701509796
1585 -3.0867829647941885 2.9236714588214308 1.9416708557733722
2737 2.2017728601992217 1.3835658190115114 -2.145154404152899
2125 -0.0791417355018541 -2.0984637387725367 -0.8485569865532737
1477 -3.4777036335889036 3.7250899327394147 -1.9213074116126145
2449 -1.4145933608277073 -6.089785007996278 -0.47497941749842987
1478 0.45975778388199745 0.04567664222326629 -0.4971181722082714
1513 1.3382491277508424 1.4332498193462513 0.5656975497784691
2377 3.7491403377824377 -2.5423337602086287 2.607137802320486
2414 -1.0647072255050671 -1.1430233457674714 4.203661931983313
2701 -0.7084197791305475 -0.762149223106676 2.0767433953381484
2378 2.6700936792951717 -1.6350623561180644 5.246845274557842
1450 1.1857800881001803 0.04826663062914713 1.920985528022335
1452 -3.6172427041738966 0.6149949393510321 -2.3030397811679797
1740 1.4983165570993204 -3.520904550994301 -4.656902053351205
1738 -2.814705365196168 1.2111205282888966 3.142970071402943
2028 0.4227119746319455 -1.537233755322713 -2.214017409193603
2026 -2.1682364705383024 -3.2434900548641217 -0.9266342850962995
2316 0.7576035168675579 -3.1386845717176675 1.5611357465807842
2314 3.456161464370969 0.04598696634264236 0.9672018698400158
2604 2.828546176595291 -4.115042738859321 -1.4854170228078756
1451 -4.357296414437532 2.074118715817922 -3.6821112918663585
1485 -0.41756964173032735 -0.5423584709507878 -1.7242685926833592
1739 0.3696400987616636 -0.18405506650380749 3.231892468437366
1773 3.826878241995524 1.3144656034638917 2.4031614403247983
2061 0.7272602185048256 1.049247682671929 -4.443564757305274
2027 0.3281407329482051 0.26016581936065214 -1.420639045164864
2349 -0.5656473676510823 -2.2028785818780556 0.2371704398942849
2315 0.5689161354469031 -0.3735699807130543 3.525239577235008
2637 0.8861267968597494 1.3460277356702242 0.8970251303683608
1488 3.327756288277648 -1.394902095982376 -0.45894993778424703
1486 -3.7560672417955203 -3.176019621233025 3.1673945065603943
1487 -1.864337925927147 -0.7591367585743877 3.1239655393650865
1521 1.3294519920943064 0.556910023985908 1.3758244530882078
1776 -0.6145729680937724 1.5947049522717653 -0.23541236248349848
1774 0.17349097500487123 -1.9380985808961355 1.496459732346377
1809 0.8755363570985648 0.9718745226455106 0.44408985039404886
1775 1.783908284252244 2.130029696556786 -1.4199580666231009
2064 -2.9261678507116717 1.9570653639992697 -0.1308915891034508
2097 2.2316480975244835 -0.5333531626227047 1.3205817654766046
2063 -2.2237171766283277 -1.3967698790484224 0.7229209091466335
2062 2.4687122527007297 -0.48315307894479337 2.3971178144815
2352 -2.9037025707439144 2.7116490930280546 -4.812398465240276
2385 0.06966553246182197 0.3769501542333077 0.30471453519519015
2640 -0.20785949320651015 1.5257350335066597 -1.9414785410579236
2350 0.1031522600458028 2.2099619874889713 0.7597808984785405
2351 -2.348308180952066 -0.44556328784231664 -1.0457530797128916
2673 0.41640768537305456 2.306464040075906 1.6123031839738406
1522 -3.886888249620974 -2.050941509057797 0.7690211183439073
1524 0.5397705828961654 0.08982446384845406 -1.8347338432232412
1810 2.115432247694683 -1.219772639821308 -0.3805618789905475
1812 0.19506891888126499 1.0326780549647947 -4.557416486239372
2100 4.736779913078662 -0.5771785652551968 -1.393126828756917
2098 1.5296295951442898 -2.6267709227672773 1.5813212109551122
2388 0.8105932434399745 0.4208941373518969 2.8731897151339143
2386 0.510306333032896 -2.7657521487207752 1.6560968032742194
2676 0.7113065860150214 -1.3079685188210057 -2.7611328118846914
1523 -2.7504428850293006 -2.913764583776331 -0.2611074305407754
1557 3.233137609723539 3.280105073514214 -1.5847763795792638
1811 -3.217720740866118 0.7107684727669613 0.11943078470412562
1845 5.3562671889114695 -0.06389128676412757 -0.21695642914229166
2133 -1.7961491382213652 0.36599929664048453 -1.168504613661238
2099 -0.4495070570259953 0.19392349340539605 0.6581139717644775
2421 -0.18075567965402448 4.025593132498165 -4.661068550320804
2387 -2.1668363956509715 -4.00924909524456 -1.6697781880135156
2709 -0.5057305410239026 -1.2791605333055929 2.4895386653746714
1560 -3.973503463930587 2.156301492358877 3.4420583930917754
1558 -4.781639008602548 1.3415221969742666 1.50340074741315
1559 -0.013113599348363553 1.2589355647809166 -3.6354912299666653
1593 0.23566783310508047 0.4510115169170989 -2.6016225356140903
1848 -0.9846795141092327 2.158455525707643 -3.1688869715805885
1881 6.526010479799915 1.7772814852820678 -0.459311891675763
1846 -4.5846984933947175 3.3746234437761946 0.06574605025797879
1847 -3.0657192294444213 0.3766880762585301 1.3338157537590685
2136 -0.4095601741765885 -1.2471775421387987 -0.6437933870091413
2169 0.40536925695691006 -4.383183370636623 -0.4600312311308192
2134 -3.920941092432702 -2.7466461835753893 1.6665762316198018
2135 -2.235606927394909 -2.3685563676447963 -0.18587902615628546
2424 -1.8546388695342184 2.5376379344734987 -1.8102255154550433
2457 1.6046298334408142 0.6066161054201226 5.690812098564269
2712 0.941217562361798 -5.107586888876456 1.3878304251716358
2423 -0.3168381179730581 0.05393277457297895 -0.5945844057470162
2422 -1.4035860930763604 -0.44814306016895944 1.2736604355658072
2745 1.0068963957961083 0.6061687951569662 -1.743094337541157
1454 -0.49418841510365724 1.8339020344225752 -4.977320463005279
1456 4.478089892163179 -2.420165113133623 2.3940446819216574
1744 0.5384607224679822 2.450996749823918 -2.2826068005131526
1742 -3.5151953011762234 -0.48332332481466833 -0.21733400666568956
2032 0.34336065290138534 1.9660981477501973 1.404012612069395
2030 2.001805396917378 5.250002907117818 -2.712751401895017
2320 -2.8997354663900516 -0.3521402007627708 -0.7230262112637392
2318 6.8845822282489095 -3.365902340786793 0.7626498370867791
2608 -1.252666871181117 2.0500280157643624 -2.5658921282357428
1455 -0.8813830830064685 -2.7300197343926254 -1.9942353541089481
1489 -1.9752648148116523 1.592710567838399 -3.1689284133078055
1743 0.3551885635917747 3.455369698173348 4.617839018214334
1777 1.9709775071354139 -1.9472411740678055 -1.3404706342482635
2065 0.5646115786260896 3.0381153346797434 1.0310255177227585
2031 -1.9884719848100516 0.5014308737029544 0.3694404483234475
2353 3.4910190540243042 -0.5725686489215597 3.049249791755551
2319 3.3623541876496703 3.968925410327102 -1.8013346232326217
2641 -1.6581018980133346 -0.2941774215406394 5.811387753176439
1492 -0.782475026826502 -3.712521939919475 2.143418706378979
1490 -1.4441937719693894 -0.5501235565162613 -0.46167088766543624
1491 4.970637182594571 2.949206365669105 -5.105641669940664
1525 2.475507230250971 -2.128736896989629 -4.5519848255790585
1780 2.766479268049062 -1.2652609278689315 -0.35356704836653596
1778 -0.9745066834555031 0.6108714012905555 -1.3420175202859688
1779 0.7533885460808258 -0.18859731958113038 -4.340300249184317
1813 -3.5280582407346786 -1.5295596099550048 1.0464925129656324
2068 2.3697871149906127 -1.050869006722111 -3.6061787911556933
2101 4.085588219081172 1.1936182673260798 -1.295312970776801
2067 2.605649937218773 3.5871952199536707 0.5161306399705552
2356 -5.822070542004976 4.0193574327008665 4.455632987393316
2066 5.957123625026278 1.4622403253641278 2.138847180587367
2389 1.1406327804332277 0.5208839094613358 -3.595664012457995
2644 0.8020487728671464 0.6440300888645095 0.834852520279233
2354 -1.9782885863752504 1.7079859027688278 -2.2349383740261444
2355 -1.109602234110249 1.5028077690840818 -6.758315334643581
2677 0.4686028310195912 -0.0705515303408788 3.4488810667621377
1526 1.7897196350661086 -2.8492751821728173 -1.0341065105495149
1528 -0.73257920538163 0.44791417856692667 -2.353533888657152
1816 -2.307856501592544 2.003120086821879 4.531237554907362
1814 1.2139288178348049 -0.611216678990817 -2.3989668149762933
2104 -4.58764330425356 -1.6485892448167137 -1.6811056111981282
2102 2.4272945626057063 -0.4966946165630513 -1.3855196354714783
2392 2.44464077421202 -2.1773191227558195 -0.155719308310491
2390 -3.2659054460712955 -0.0038475345238819275 2.9500688707160343
2680 -0.01312898028418144 0.34672815941297797 -0.9003848406432698
1527 -1.9984839239076146 0.9003054872986667 0.4651124372088512
1561 1.4907246551960183 3.1087491426447817 -0.3947685468632404
1849 0.6744758795434205 -0.22343517332627738 -0.43000934540350255
1815 -2.1511316498279767 2.0997147609376765 3.4941530098259004
2137 2.4242818943298174 -0.4196607298882875 2.0262291725434705
2103 1.6206805716631467 0.8505512659539646 2.667018539727239
2425 -1.9370994950249842 1.4776979924394458 -7.219726786150759
2391 1.1970999650428447 -6.0729509076667965 -1.4986063148219415
2713 -1.8542807859287203 2.8776643516264753 -2.4899322977228393
1597 -2.1112525276440577 -4.378934326041398 0.41975936682813214
1564 1.9682058372312838 0.8993888202667419 1.9085294440132385
1563 -1.8599891307517245 -0.12884655053885016 3.7407548669741657
1562 0.7872217880547469 2.0240980129630897 4.027815841018159
1852 -1.6902627273023199 -4.569621204409947 -0.5384819520908738
1850 -2.773675099141761 -2.9320469295815696 1.7141559329764031
1851 3.1219399699478414 4.311683549807622 -0.41475837514366126
1885 0.43423467797501697 -0.6845473878403627 -1.8450980763697746
2140 1.4530027089434387 1.3286684894834997 -1.0255127525587187
2173 0.2677555769465178 4.26161008750128 -1.7871351596287859
2138 -1.6116598780355327 -0.23454183511959273 0.241606701142326
2139 -1.117600789018285 -5.028050753382224 2.358609250367476
2428 2.1257268935013673 -0.631200194107798 -1.6521361694955015
2461 -4.688460761632075 0.5775825614088784 1.8081089221326225
2749 -1.370321101234728 -1.7329326257652198 -3.1957504577763873
2716 -4.287694814519117 -1.42127081214573 -2.4663393516535823
2427 4.497673262301702 -0.09944223209482797 1.058490320612461
2426 -1.8564673058837315 -2.4918049471582555 2.3640863689526124
1458 2.38369537069974 -1.276349331986432 0.457059484249234
1746 -2.634156345577967 -1.6889808323937554 1.3258788935390646
1748 1.5209980800324692 0.12106187478967045 -2.012276995065749
2036 -4.490479882274825 -2.0974461115380407 -1.5806937276040716
2034 -1.379300386097107 -0.776176734189085 -3.041733660555546
2324 4.472451683211629 3.823414626135071 -2.647299409434281
2322 0.6116657962837392 -0.24924532279703931 0.32668309572316173
1493 0.19931690106825461 -0.04099426068447649 2.231882869074021
1781 0.39743598239523237 1.2928053232141998 -1.3955597765806251
2069 0.2483384865624403 -0.9911631038477985 -2.7349445806603594
2357 -1.0627483590794196 1.8792731965983114 -2.375860924374351
2645 3.546201563638335 1.230626696678882 -1.10811313985627
2323 -0.4602287250602992 -2.4723304085461013 1.4328342065062518
1496 -0.49087478680845315 2.520577287016295 3.125834203087759
1494 -0.7264110816938545 1.8183556541617831 -0.7929027033300212
1529 2.467823593098249 -0.45564059111021177 -1.3342207872281795
1495 -0.24206550551641545 1.5487448719989094 -1.3043412301206845
1817 -2.4385740582916395 0.844730101165036 -1.4576997846527513
1782 -0.40298080251140966 2.3519628768035727 3.975607604584586
2105 0.21631877764086632 1.514682014226148 -2.371281343142633
2071 0.05359385558927699 -2.8157741680281205 2.5677903607934467
2070 0.2852262270100872 2.7135806008018233 -3.184907605771004
2393 0.3116203994618126 -0.0170190673949215 -1.5001350613437063
2360 -4.355339609547894 -1.595011509459304 0.8640547657970515
2358 2.5445497170586484 1.2670942195961932 1.1448853830496803
2681 -2.5244128267188928 1.5523772514868248 -2.8130216394028666
2648 1.6713304398500604 0.3207454957744511 0.4804045650550785
2359 0.9594725222005422 0.5198341269522979 -3.219492685998898
1530 0.7523208114282929 3.1087713651524433 5.030040350512105
1818 -1.5182829103061326 1.5491479228511262 -1.6565994584247998
1820 4.203485061596095 -0.12866645743028327 1.6555197133453448
2106 2.2138560005789523 0.19450161578705927 -0.299081070835093
2108 1.9761178116358082 -2.913120530999498 0.9329036351860214
2396 0.45879882248523485 -1.9678600861579278 -0.0029925264053156995
2394 2.2807090314426075 -0.5086881567575291 -1.0716143263682587
2684 -1.7761269539688396 2.7148657257484534 2.1602795859765394
1565 -4.257684398711482 -3.5090985588950603 -0.7975018597526408
1853 1.0978762627363856 -0.167804880193553 -2.1010923706655547
1819 -1.6727359246348754 0.004400770597130722 1.7875408466450131
2141 1.0962261055589566 7.155479823252691 -1.1388304345668065
2429 -1.4152470505181984 -1.3924595300612301 -3.00489184507827
2717 -0.11297678608190989 0.15297760312931422 -0.5766608683074936
1566 3.569556570466205 4.7378086415040235 -0.6878624314065368
1601 1.4432439800193964 2.4131024970756805 1.6315366630694639
1854 4.912966119734195 -1.8833679885001888 3.910812280876177
1889 -3.6374641410383073 -3.7133051149935525 -3.6112590265967643
1855 -4.467571095387693 3.716173858870384 -2.346011587652551
2177 7.8027309531321185 2.3617086819447453 1.3013375414569683
2144 0.04136752826311061 -3.565083401262685 -2.649339088319963
2142 -0.10524318043250504 -3.3783480296305783 -1.7595443451178963
2143 -3.937940989256798 1.2648213665614394 2.2101354150601775
2465 0.5386080481600931 1.3305216478044284 1.358193213743097
2432 -2.151618724528111 -1.3355081305057546 2.323699805409199
2430 -5.25260105684213 0.3000129478725065 -1.5391100194423715
2753 -5.324086210927552 -1.9912826609984227 0.07859950287438852
2720 -1.1584985210711913 -1.8475784444047534 1.0055040273281635
1460 -0.7120145136534929 -2.1836278453311677 -2.712528238621798
1462 0.4254225613232396 0.05042385186292038 -0.3882889681652647
1750 -4.839794221337743 0.25689795706789154 1.0111907329652592
2038 2.961232266176841 -0.6553480992382712 -3.4966836878525904
2612 -1.6222283560730935 -0.594333462811238 -1.194522295324258
2326 -2.8419184323460875 -1.3044697265775087 1.706731511742619
1459 -0.1379419705071165 2.6561987330382033 1.3723225033292417
1497 2.6298923357037234 -0.9959440484110723 2.5689661779771784
1785 5.380428635254618 1.5405614935839096 2.067337979020796
1747 -1.2677352506106458 1.9303927383891668 0.7625939741597516
2073 -5.311935654155407 0.9175284866045602 -2.2699625060468374
2035 0.22971755706545963 -0.962087199196961 -0.9754051072093569
2361 -2.9168996599088186 0.48156104096015684 2.306641190870933
2649 -1.1864761449247638 -0.3296762117032196 4.010477156021339
1498 -1.5145877637938412 1.5060756056718905 -3.168520521792886
1533 -0.21373674896009745 3.0810661417386145 2.7021292692392063
1783 -0.1494115580100218 2.1602439281031214 -1.6892616442083985
1784 0.7942839027508063 -2.871821316297425 1.4419795190821108
1821 0.3404328366052269 -1.6609277771957334 -5.986036644348129
1786 5.291749123814265 2.3252399264669936 -2.530110204700268
2072 2.7000395769541012 -0.9136566812421697 0.7880191027892005
2109 -3.580284806842024 0.6962485109570807 -5.593514942793757
2074 -2.452345652368373 -1.3265376645822846 -1.0946253019343726
2397 1.8118626354255343 -3.39780695572153 1.4413407556399405
2362 1.7671030929106302 -0.2673655115381036 -0.9341692485682892
2685 0.31740434710338106 -2.0939892790485497 -4.622614019309972
1532 1.3339845776030224 3.3202357593224243 -2.1407760578087633
1534 -1.8768218681788014 6.3808330043948445 1.0327014151639995
1822 -1.815615614909635 -1.1794021664685295 4.021862518109442
2110 -2.224540854034705 -3.1243161884484727 -3.3133510719172126
2398 -0.9007238918312446 1.934018195826125 -0.03772618207591724
1531 -1.5592230936214218 0.32019124626328865 0.7592974006590303
1569 -1.1571483976924801 5.278442752658882 -1.972142886805672
1857 2.8235364086468526 -3.218680980684596 4.865474238441454
2145 4.1952716878445795 2.1876781822258433 3.6065169234354846
2107 -2.6410499072416336 0.5634916714122316 -2.950457447964199
2433 -2.669075525026214 0.9021275480226396 2.282111093899911
2395 -2.0267550411601936 -0.41803892866962916 1.1683505701943304
2721 -0.6534498489683344 -3.600745000138216 0.7114054120959064
1567 3.1831958552453385 -0.4263882165661459 -0.7042660673747752
1568 4.925307632165674 -0.2673633346961906 0.5407828780023264
1570 -4.213321757960408 0.4556265118057607 -0.521079184586031
1605 2.8800440355188806 -0.22200249728165816 0.5663887282273344
1856 0.8060838553322313 2.151500715360178 2.5030509567920354
1893 -1.1475069118642514 -2.1657360781229285 -0.5764393280377142
1858 -0.9879889639488947 1.2716957361860153 -2.776216946017392
2181 2.994552330277753 -1.5070595915815899 -0.023088007165482337
2146 -1.2283404466757155 1.0096455580240955 -3.5871540205842654
2469 -0.3769655209795849 1.0272121184175802 -0.6883995380029849
2431 -5.999107642125266 3.0849358647932514 0.49226430993991116
2757 -1.276259710350224 -4.822624663350949 0.1043962794330314
2434 -2.6836864270229324 -0.4515203985542828 -3.471187005264804
1464 -1.7820896555069243 -3.701761040245453 0.11783065056914106
1466 -1.675926624388727 2.840127728419979 0.11794757266064695
1752 -2.9227121733997086 1.018226476769258 -3.6210634628479665
1754 1.7614843629654922 3.56336507598175 3.4210462163265376
2040 2.086103258722411 1.7414076581015054 4.795261030574873
2042 1.484272478371975 3.3664676842834256 2.9920442246051038
2328 2.602577847322 0.7431225385526786 2.0039162519595903
2330 1.1070527934735583 1.8385200036935176 -0.12440790234536743
2616 1.4422023950554428 -1.064025978847236 -1.0448979490178176
1463 0.9945933034150238 5.304873503153519 -1.2357145196673134
1501 -2.046248260148185 -4.729193287944297 1.7726763352346258
1789 0.6852380903357068 -1.4629466297397369 -3.214242512547211
1751 2.79824428034767 0.37022109999926067 2.5410363316391034
2077 -0.5960833488251337 2.2868765813163985 -3.587320904676919
2039 0.6260861336200101 0.9915059275746665 -1.6955911527353555
2365 1.7017462505058885 1.691441090855922 0.7306323318078514
2327 -0.4878094888610248 0.6638573247948344 2.651368304039047
2653 1.4727365740160696 -2.6304221933078167 3.9411547143468457
1500 3.00776648324624 2.6302085135798974 -3.8559099419054905
1502 -2.539965086552496 -1.3884829637715135 -4.005641993992498
1499 -1.9313753119394637 3.360683222315735 -2.353323343261874
1537 2.1823306755146805 -3.4082519614184315 0.6962538522337689
1788 -2.177508428386803 0.2312168733855477 1.481782796056142
1790 5.869869810253424 0.42150224926174146 -0.717875795261089
1825 -2.8398292257159343 3.7466033620969945 2.2529251614518104
1787 -2.6311977174636993 -3.4382767809059485 1.5953807638500854
2076 0.4391111272976451 -1.9937934895285028 -2.0965456742370607
2113 1.6567618719604655 0.49408151709435477 -0.6421473932002348
2075 2.3614841952895573 -2.6743143882050844 0.1603197274910473
2078 -4.241257783139097 0.5892597153635165 -0.22080442274134662
2364 3.461115542188464 -1.6070233199472346 0.9801701432258954
2401 -0.06183637855420125 2.202848120088216 -0.7630033073066411
2652 -0.2484744073184697 -1.094772793477539 -4.654339204258711
2366 0.5714839035358882 2.3671350188712914 0.06407878928581813
2363 1.3650368320123416 1.0136189323290767 3.710850816909432
2689 -1.4702511842104946 3.470283085714972 3.413981617295542
1536 -1.505367391624425 2.774735759311815 -2.355643571644983
1538 3.3573165881123646 -4.334435838387512 -1.4165707908025384
1824 2.815261406035159 5.798144820482639 0.8359482277087716
1826 -3.7462959917606167 -0.36858793952499713 5.99659139672579
2112 0.05185927626476064 1.9419457754555012 -1.9823737769753118
2114 -4.0717374220153415 -2.9601225590464395 -2.4424952438374867
2400 -0.338150910501877 1.2436828541113552 0.6263160314375766
2402 -0.9643624875422128 0.9072020698527141 -4.6285612720525355
2688 -2.341303180131079 -1.9595714795396977 2.7608834469149572
1535 1.3981238248507328 -1.8599808597037526 -2.4016530791900004
1573 0.20513028509038664 1.4524331535537993 0.30465544563149116
1861 0.2739333732685036 1.1558229438482661 -1.5885224762976626
1823 5.171430021956346 -6.52819124847586 -0.49104160117609563
2149 -2.769231298827504 -0.18639942569002638 -5.267189727184177
2111 1.0256463132680331 -3.0897501681765194 -0.8639379473533664
2437 -1.7196587789372904 -3.1764115823964576 -1.0735865241240337
2399 -2.3847813346012052 1.207045620836223 3.425409550007157
2725 -0.15609375466732273 1.6937281239003519 0.20600613430998746
1572 3.7174047427261216 3.497785412135144 -2.2304299839922086
1571 0.7921178578992936 -1.53368342175606 2.0829193675871633
1574 1.3306539433901048 0.9719393770164997 3.0911718853038144
1609 -1.3054495270803446 -1.979718580141029 2.6657316877232824
1860 -1.8630493600117237 -2.8223610974401114 -1.882113914788379
1897 -0.17725873763155497 2.17751781009633 -0.09906005143738622
1862 3.179857676873713 4.434414957319516 2.3312846765157085
1859 0.6894393860171064 -0.029637588828603335 1.3327511068531377
2148 5.382548494472618 -1.3763066292663613 1.6157441254461546
2185 0.7664729199302309 0.009075493071819693 2.1447372388467
2150 1.9695659767183158 -2.0783157487965647 -4.42156495711562
2436 4.279137600870718 -1.8760729458811145 -0.38603201225477546
2147 -2.7250343192019653 -2.845463143257346 -0.3806630644500943
2473 -0.62975044799823 -2.0906548466499215 -3.5454006936919447
2724 -1.228919183545916 -1.1315603581705378 -0.2797570007208194
2435 0.9880683068318794 2.7024678402832643 -0.39624088330342844
2438 -3.8365372665359563 1.671924930408606 2.0094031601642106
2761 0.9115110658418618 -0.6087641982179052 -2.300783244749594
1468 1.2960405534963841 -0.30510467276678255 -0.8510089609973648
1470 -2.2297560229280053 -0.9311338221884865 -2.967205496207476
1756 -0.5018382258727868 -3.622412749468206 -1.9442825418712009
1758 -4.780798032811695 -3.2399953388883547 -0.39210496300674197
2044 4.446282691583551 5.092421474501275 -1.768736444303953
2046 -5.364810212091529 -1.0873755731904224 -0.4543262809689404
2332 1.0167848489511153 -0.0699034708347926 -0.5678805634696936
2334 -2.5157377429070795 -1.269594847987808 1.172004493628883
2620 -0.9346116021724256 -5.298274409263273 -1.108340768717484
1467 1.4681483985676713 -0.810372619920756 4.155996790034982
1505 3.006534996638149 0.8934358227014932 0.8988750306821588
1793 1.234995676874512 -0.5927965395302457 -0.17498136775947154
1755 0.7740057047175702 1.5583514706161867 2.6743187052148167
2081 3.067012613221169 -1.103679850382354 -0.41214885008466867
2043 -4.070068705587482 -1.0869231259412508 -2.495155416187265
2369 0.34502885410743767 -7.25567469971405 2.6717163437245484
2331 0.7000627865211935 -2.780647125424958 -0.3475995816981739
2657 -2.3846303001569917 -0.15432467711704576 0.005549043246625367
1504 -1.4349931182957651 -1.2710430540463442 -3.745741386983222
1506 -0.018790223648673655 -0.14756277462231943 -0.5259812331342976
1503 -4.94823972234793 5.276928897491652 0.23568838561987357
1541 -5.38975784303352 -1.0781315258569442 -2.705608689153922
1792 -0.5599285096157891 -1.1948133235549712 -3.040860135068742
1794 -1.324115261983213 1.9306329722627913 -1.2269331289679455
1791 1.8668149635953664 -2.6216387841792512 -3.9151870359339838
1829 -0.9000138452235956 -2.66355732388553 2.306240998676001
2080 -1.8502227230464332 -1.6909861243410367 0.20381469522787338
2117 3.617773427920697 1.277098788745645 0.34074489301603544
2082 -1.0233047220281934 1.7110502442764268 -3.195319740872075
2079 3.6211437122464862 -2.216417432827898 0.6390094377655868
2368 -0.4291600636771207 -0.7836164633136168 1.0421279264706864
2405 -3.258891784127243 -3.0488488478026308 5.747737167348846
2656 1.19337086203418 1.020517314368849 2.708262460213208
2370 -4.789422308190462 -0.676995063759805 -2.6207662183584133
2367 -3.7319748058348607 -4.71671247995559 -1.2436714463382244
2693 -0.5841827341436104 2.0091568022182846 -0.03225923382576304
1540 -1.5682580635529701 -0.9654198807040307 1.287933537631201
1542 -0.0448744812897978 -3.3224929796694633 -1.5014824349986693
1828 3.0542652218240485 0.6153366114220522 -3.4186393618151705
1830 -0.8496487010810392 -2.2546203498472837 -3.015546089250757
2116 0.009605182168258503 3.2182751880097435 -1.468737113283117
2118 -1.5643877472829435 3.3503550213448174 3.839149326693877
2404 -0.5349058580817593 -0.408589173168497 0.9199399359634619
2406 -1.3368936751819338 -1.668663653877473 0.6641163188960292
2692 2.564081661324197 0.06659939182727853 -2.161429999253854
1539 1.2924695544552767 -4.5379104127305 3.201576806401402
1577 -4.28511259987874 -5.0878631750505 -0.9415578345259429
1827 1.3438834124334529 1.795166588332572 0.1906232671991149
1865 0.5044686767994585 0.6039776192650328 0.6995974856561682
2153 3.288014381781135 2.646395504442152 -2.3007416371703626
2115 0.4666891612377797 1.173078395493448 0.5451612699073408
2441 0.20820931046134594 -0.11055654587497796 -3.9945126732515757
2729 5.161881460845792 1.4106532314485714 2.2344019021094987
2403 1.660706683519768 -1.1180862884089031 -1.9522124285021136
1576 -1.428367004395775 0.8489611675964472 1.0580155878909399
1575 0.20114191168808593 -1.1062049243014216 0.269895660550576
1578 0.42568443404380835 1.2048151055802245 2.1760652431901284
1613 -5.17525218365424 -5.35503987275428 -3.1170937544231743
1864 0.3670249450179157 3.5004024856068634 1.6712480126321863
1866 4.56999128022321 -2.1905834828607387 -0.4756989305027416
1863 0.33427627683033 -1.2840311023375166 -1.2589800186702662
1901 -6.787481484145988 1.1645484997073468 -0.9345968315341409
2152 0.5690802628767592 -0.4866012770539674 -2.5334008535729207
2189 -0.04687065465581613 1.3198937828273054 -6.705849463090671
2151 0.17668044031395985 -0.44832781402571414 -1.4571098428961817
2440 -0.02336062784475355 -0.8804456957500242 -0.3805868575995377
2154 -3.6619942627559583 1.9986938866663253 1.8637126553505399
2477 -1.5289500917796799 -0.17391564326653638 -0.5130745270793786
2765 -0.13092621970589824 -0.39182969685605457 1.5245255483074969
2439 0.22046264264308227 -2.747751686899984 2.308404348749433
2442 -1.6489554534881052 -1.3868765285310656 2.1099602798960535
2728 -2.3634243112572473 -1.2726308983093573 0.9583976740019985
1472 0.05551182009450336 5.589871350389401 2.5821991322101123
1474 1.1278968806279117 0.32614780465786325 -2.2586174541774953
1760 6.257997236452223 0.6667513111749331 -2.0063681546906666
1762 -1.5785166886981237 -0.8132305794945609 -3.1628474913971334
2048 -0.4634156648412244 2.4133795006541123 0.46228300820292983
2050 -0.5026301361650828 -2.9423819705130083 3.405912169361938
2336 -6.088473542535828 -0.41709359311613475 -0.3601702206299137
2338 -2.052211217576451 -0.3388120441673766 1.6121886086487647
2624 -1.880790134160584 -1.5647830001216916 0.6045471139475445
1471 -1.9458737358267835 -4.405599166901736 4.079295180102529
1509 -0.2773250120819688 -3.123753360693693 5.983538027503357
1797 -3.2645536351448277 1.6486804676191416 4.427332086753506
1759 1.55952362371559 -0.44179349272250024 1.8712081417856634
2085 0.06701245639895358 -0.6961502935724669 2.1719988011663713
2047 1.82742404235687 -0.45843953271930415 -0.8559312152726731
2373 -0.5365423161463112 -0.37197332187368826 2.7669257515075327
2335 1.6682457290971786 -4.254102232145599 -2.5115790354574314
2661 1.7611892692770814 -0.5860194342995145 0.7836387907791277
1508 4.9130744515137295 -0.9369707097750568 0.4453135663557235
1510 -2.652611438649536 -2.029196690900742 -1.2095428580632843
1507 -0.6590562714509063 -1.7494028264707542 -0.7889965743527241
1545 1.007368847233283 0.39436254881281824 -2.2338490254770367
1796 2.963587150164299 -3.2318898706736254 1.301436096385077
1833 -1.5456481188932036 -0.24057331463755 4.182933451444931
1795 -1.8846865186426447 1.7614000984669744 -0.7369303434256219
1798 -0.3125221160610698 -2.449782368290558 -3.2164479958381813
2084 -0.0032184143815902383 2.2392334795709865 -4.718902734610757
2121 3.1625250438112684 -4.418767049353027 -1.7596572963885804
2083 2.608413264542639 -1.7022328175576142 -0.7202529998624172
2086 0.0689456307280526 2.2157737835296962 -5.357832703937237
2372 -2.783963585898513 0.25092472790239584 0.851076852625737
2409 -0.4465019608963707 -2.6401038904328806 -1.4135811000318024
2660 -4.3242549557680645 4.255850422913245 -1.0505577617810224
2374 -1.566822851415978 1.0063082988069922 -1.891931685498682
2371 -1.2175723148281987 -2.2604450056795713 -4.434817220725152
2697 0.7322593030127148 3.2333096655706837 -1.9903307996729025
1544 4.193668844991669 -0.11746737958833042 -0.8695078906759403
1546 0.00922577808481339 1.0983609132120642 -1.2832850758952157
1832 3.6407127889305415 -0.09589812501256816 -1.749127451541538
1834 -1.541383491226429 -0.35534683092041347 1.8380140638385245
2120 -1.1632824665771289 -0.8466372441946654 -0.16264998554351348
2122 -3.3268992310311156 -2.0876758012673045 0.8264445228493084
2408 1.0182331308128352 0.670508048044017 2.0409321708942447
2410 -1.650289821768538 -6.059768028975883 -1.6544714523024013
2696 5.539597361376809 -1.04755877039873 2.633798736399192
1543 0.977989316323236 1.6787194128933802 0.8883561300024022
1581 4.352838258838136 1.1789028479368635 -3.344736322681924
1831 2.8476214654121472 1.3853670144684749 -2.138956436919726
1869 -2.6036952335677594 1.8387982038149349 -0.28586712576821427
2157 -2.306197985938093 -3.8444241096760603 3.574911351372273
2119 -0.23780031378722505 -1.699963953401802 -1.200442565312177
2445 -0.490119393295553 -2.6174908590233508 1.218087928796497
2407 4.833582899954988 -2.009289728353276 2.3467586882023386
2733 -1.1724816128763924 3.5757619139796715 0.4763871608842791
1580 -2.437077184261696 0.2581516354899513 0.9416411212186074
1617 0.6251393107193962 3.9798155396789827 -0.07453057061659543
1579 -5.397254746188048 0.416804404738991 -2.1891362111055424
1582 0.9743824637678367 -5.170560279513055 -1.9401077983327648
1868 2.095196230875176 -3.0395528743805444 -2.871359695614986
1905 -0.9029321861832348 1.067519064745373 0.1370556990034837
1867 -1.2853663483222835 2.4653079979859767 0.9876773086376831
1870 0.4705085136634024 1.987987528065764 0.2135569978822219
2156 -0.9724199584641002 0.8902827864664424 1.030915650795608
2193 2.2066983814815857 -4.494997065747257 2.4360290521057495
2158 0.39049306093912206 -2.600971661306693 -1.59195295570334
2155 1.733027728419224 0.35746111490778765 2.0372923642175254
2444 -0.6249820302670372 1.9791669825200866 2.9555945186114156
2481 -2.1543114906609846 -5.463152519003076 1.1892426044986115
2446 1.7188660314848057 1.9664378457715297 2.756779721581413
2732 0.1578285466764758 -1.5095023912182683 4.675739436262284
2443 -2.073116341885099 -0.3749168682412043 2.453524910596043
2769 -0.036721182794829 1.642364183231789 -1.265154411876201
1476 2.0003032900004145 0.4384687501110355 -0.8068077013219114
2413 -2.9478407783006926 0.32865958861451255 1.1681162473915454
1764 0.6758220709390206 0.5480166571177418 1.5549779041850589
2052 0.7886036514529656 -2.5442440348251765 2.2914561215460916
2340 -5.919500903290978 -2.187348089987133 3.106148393525606
1584 -4.64313268655669 -1.7046738900713538 2.110599280410966
2628 2.5069041619632286 0.46847011081858647 2.0887362495288837
1583 0.21853491924736598 1.2695808644819768 -6.643176926046176
1475 -2.639369764650301 -3.6797691160830097 2.5068567392837
2736 -2.8991192267224393 0.04127461689684328 1.764389558455544
1763 -0.576160616052701 -0.4975671772638221 2.8881839493316797
1801 -1.5612386506780729 -1.8483756376829656 2.1058048164482503
1838 -0.08692865310456982 0.4529780613466322 -0.3219646420613658
2051 5.239082284839279 -6.111792325781757 -5.803711884320868
2339 5.800326184802631 0.8773600234524986 -0.5167502778142093
1512 -1.7150417530578301 1.274552277511011 5.709066013427566
1511 -1.601232115569599 -4.240003855274487 -0.17184240199628217
2447 -2.501969179279073 -0.14874048857984976 2.344251035716569
1872 2.583647506801731 0.7933907374026611 1.2479234493652032
1800 -2.8724223389548054 2.016331898188592 -0.9503698200443366
1799 -3.173972517408143 3.0699850065777077 -4.4294085880929694
2126 0.9623122310537666 -4.208438687304983 -0.44657889844801363
2159 -2.514602658293778 -1.8789068526688661 -0.1729566044594324
2088 -1.2874111254670508 1.9331513765021202 2.285838503669039
2087 1.279064388054136 -5.22068484490805 0.8679205284447085
2376 3.546619152000971 2.363141710644414 0.8103389166686585
2160 -0.7664433821854532 0.6769735928371764 1.153621640969546
2664 0.5137504647344904 2.3057559248577926 -0.8595367708461216
2375 -2.843111720045733 3.7945872576745403 2.9253522590360137
1548 2.8579084017755134 -1.5311775562785603 2.0917461794980152
2161 -1.9843409799171337 0.14074555843822073 3.8286515900482416
1836 0.11149284488065556 -3.9557847152053087 -3.4009617463558155
2124 3.04592861097508 -2.3013525448049643 2.7717697620015005
2412 7.7123178253907145 2.943837133146354 0.8694399992480611
2448 -0.8661146911920896 -6.418030714823186 1.632348720599702
2700 3.175562955189112 1.249505261223533 0.20339667984221146
1547 1.8535170066039184 -2.9716048439533904 -1.2058935597927811
1835 -4.39986406546209 0.3839896990660359 -0.13203586988376767
1871 -0.39600543852178477 3.508772901116236 -0.7331253117897863
2123 1.150079005235518 -2.044008363514254 3.684809310878835
1730 -0.16860463667974934 -1.132413079189462 2.184756616935579
2411 3.8968453372566874 1.4441080731216565 -1.5981476868935145
1514 -0.9927504023534858 1.1018185759709598 -1.4183062369889066
1550 1.2541380604958765 0.17487516560637045 1.1019897740848488
1873 -0.33297712825917675 4.398203489090757 -3.686118316219708
2018 1.2885417754100015 -1.296955456806915 -2.4363055802069495
1588 0.5507558212634035 0.37631420652695446 -0.6109945179128237
1876 -2.2266093478190205 -2.7813769677318225 1.7613957674197958
2164 2.0584286192111647 1.1757072215884277 1.0667006260787846
2452 -1.768305575723674 -2.8433269697514616 -1.7347971203868398
2740 -2.4866816970824694 3.3577970429094814 -0.6531006656037336
2563 -0.7178077664728167 0.842174866697517 1.5971042893473855
1587 1.6029161143258088 -1.9323670222231195 3.168910842363555
1875 -1.7366913890074867 0.01542420914989859 -2.127495870832703
2163 -1.7501763009917217 0.11289385192420556 -1.5124031069958324
1622 -0.8330652277660884 -2.450305916637227 3.0102626506094663
2451 -0.12602330877760717 0.6027087586548397 0.02865415890201106
2773 -0.22401727293387239 -1.9076383840249134 2.1592209425022504
1624 0.9962380751139979 1.0028623694276049 -4.295552641402349
1623 2.248082704219248 4.511363844389907 0.0008747994641222819
1586 -0.9147499592573072 -0.6013423129854767 -0.22858546731916424
2597 0.7062581909120741 2.7010698270103495 2.732568748304301
1912 1.1550984398444935 0.9388658860276856 -0.0726290321730712
1911 2.681344899542506 2.244302444209068 -1.406657827914165
2558 2.4003998879090234 1.314217966696554 0.409403403147011
2200 -0.7856689670672057 0.8201701050952008 -1.6883307216702987
2199 2.061628154212653 2.3916037857309322 2.153131754759369
2021 -0.35806751001984394 0.4491655329707503 -1.4270973405170617
1733 -1.3527595643984125 -1.0308097632772284 0.16776541628690647
2488 4.334471352928099 1.4875902889303687 3.1178121042744684
2776 0.2824219335198419 -3.438806067963877 0.7901488220593378
2487 3.1774571255791755 1.6957365538378972 5.4169897184782325
1987 0.38063341708120374 -0.7255563794219733 0.06969705403960089
2562 -2.466250518211621 0.5282079499856238 0.394168316991811
1660 1.4539440637019851 1.877928332262883 -4.187539616964649
1948 -1.6043999553918176 -1.3752294621301708 0.8590538665923151
2450 -2.1781334323560713 -1.1843892604354127 -4.349683873095265
2236 -0.6143511728359806 0.1212073959358287 0.5727606164922353
2852 3.285689333382036 1.4872844081963692 -0.4533181319553902
2524 -1.2514344437503662 1.8984128102383355 2.355371147388933
2812 5.299545772076074 -3.810017374200435 -3.769489172615883
2275 -0.5626152432281772 -1.3821364231520714 -1.5884796744068996
1659 0.07954537865190917 -2.6730307693951483 -0.5756430313274596
1947 -0.7845755671594324 -2.2443282373305933 1.8501987106379971
1441 1.4429998470488852 -1.9818868272297738 0.42903006384503106
2235 1.8943286900390806 -2.5101444135535633 -2.230856449749985
2274 1.6099451571587895 -3.04572424673987 1.2810023726341702
2523 3.3745331464522126 1.4159086286289255 3.5777510125690006
1988 -2.1490491428245684 2.613803808384672 1.225627652695219
1696 3.0759318537009928 -0.09943785309797368 -4.221069016518517
1695 -2.5066054544151726 0.196714164969116 5.032778946221169
1984 0.41857084998305527 -0.7797167528265145 -2.1342149883231563
2564 2.7561655770780455 -0.41535290068864933 -2.109461044452363
1983 -2.2034033262769985 0.2447667499599703 0.24727897827955192
2272 -2.5498309660260854 -0.03662149183940357 2.660996569475063
1986 1.3358231558976594 0.4935394939399224 -1.2961881752067352
2560 2.470558054603918 1.6785343130234276 1.9813377068959996
2271 2.501101071786479 3.909309604911764 2.0630598910241478
1699 1.5146405898393103 -3.55427724570083 0.797977817187078
2309 4.976453912099363 2.5944435911678356 1.3853551321135351
2559 0.61137099166102 0.4874998437485441 1.6246119620222603
2848 -0.41512268250614287 0.5777678041453116 4.40488952950598
2276 -4.092613944933843 1.7060194571487863 -0.7367654129309621
1590 3.2304174233974092 -2.768199875776217 3.4877301085667414
1592 -1.7374206268351808 3.096283747096653 0.4902685125231492
1880 -0.845634008895849 -4.219159963519982 1.3318484035743552
1878 0.418499606039729 -1.090930868888132 -0.44800257806701627
2168 3.9937702616728927 -0.9000302167422808 -3.4238653386345845
2166 -0.630041984084669 -0.5778302385514544 -4.11149314847455
2456 4.105563308234746 2.879057842014537 0.27884504806957844
2454 0.9055972452240083 -3.333443682089877 -0.20697931932056707
2744 -2.016500179503011 -0.39737921713669444 3.8068902692585604
1591 -2.209940403985178 3.6274124504819065 3.364759881633636
1625 -0.28867740735869263 -3.4032602405933194 3.024701756781434
1913 1.6493875457802902 5.7148850110899625 3.9616032132281664
1879 -3.956036268626118 -2.0673263260031707 -1.4030707644582738
2201 3.060124018037354 0.6229708449796946 -2.099405241827182
2167 0.5903348065558106 -0.9750629807275512 0.42729124697132675
2489 1.161522088963721 -4.655326540194943 1.6681217322830884
2455 2.7261353985518735 -1.9650608667158196 4.290727109961737
2777 -1.387503347537556 -1.449260761373479 -2.4083094422256988
1628 0.2631861369582497 5.452570381226347 4.336954564634874
1626 -0.11087800305583621 -1.011027564860997 1.0639335265861587
1627 -2.286591329965679 -1.1544404117298155 -0.5441736634878516
1661 4.4820158086946735 -0.7815378724078208 1.710869288657898
1916 1.7366612935005037 -0.7337275342945349 1.7449331045271461
1914 5.016001506525783 0.11047872952913602 -1.7594861224799363
1915 -0.8240460583241717 -3.0761377149378797 1.2390110434269925
1949 4.079181475724318 -2.341228926654653 1.8535410592366042
2204 -6.421033049497436 -0.7169541554119082 -0.08548893592090591
2237 -1.677926846099236 7.395506242290979 -3.0928318002111954
2202 -2.2083204122343263 1.2440703723879312 -1.0386780289005335
2492 2.0561797160410213 -0.06158109565405858 -1.6460989144392049
2203 3.0534412448259856 3.377641796848271 1.956404796158655
2525 2.6630026434516276 -2.299257152962763 0.9654479609065807
2780 1.7578993598345762 -1.7282609442399361 -0.09382311169183107
2490 -0.9607575667036787 -1.2384147375349213 -0.5708332862486615
2491 2.3710957144018785 0.22514097286816462 -0.31659261611688166
2813 0.333786863600089 0.14662883199803836 -3.3128355674825603
1664 1.8952409057269684 1.788899449877018 -0.9327431146019839
1662 0.797072483580144 3.255630226388271 -4.121724707432515
1952 2.6642067296914274 -1.5501219317445598 -1.9665822404515148
1950 3.3289172567762377 -1.0939523634747967 -2.836935171451718
2240 -0.865214488478772 -5.702093970852604 3.687890254763872
2238 -1.8396287467276333 2.2949537436298573 6.335161949330305
2528 2.8732659815291197 2.0298252788645708 3.956498356853124
2816 -2.8631661164078355 -0.4954265054948901 -0.5006620985966366
2526 -0.7483987670938197 5.177797576066493 0.5099248708895735
1697 0.06305912252812614 0.0008819487969661599 -0.7771599514809931
1663 1.331887404459654 0.9129047332909761 2.9455947528151434
1985 -4.512135425966999 -2.0358988701279306 0.8422782615222573
1951 -2.3720447077860727 -2.174594611177327 0.23118408543454558
2273 0.6923316702257436 4.645563266898896 -3.363112417838005
2239 -3.290432984210175 -1.0947968863171238 1.1028641224737938
2561 -2.139595440993454 3.053759971270131 0.4158852145080464
2527 0.41662321556284476 -3.3384452064580583 -0.25133478909866375
2849 0.1130893883415362 0.4115525262744168 1.5652125985481624
1698 1.3005380343358668 0.35031588864649515 -0.7902128040929953
1445 -0.9894230620611075 2.956580929786942 1.941623668574665
1700 4.162078274275585 3.2851562849437936 0.6476994882431825
2593 2.58421142325268 3.9330826421416463 -2.137665658305422
2557 -3.462597139741383 2.130384508380229 -3.01034762278933
2305 0.6837497801897745 -3.0699126847438873 5.112220242307433
2162 -4.52122119020354 -1.5550595467535322 -1.3018175336984754
2522 6.234562097948202 1.7339034540978306 -0.46238760229896786
1594 2.2063686885120117 1.1386440464536125 -0.9957341861402257
1596 -1.0666859013583954 0.5673738645340476 -2.0319423412515647
1884 -0.18260239982248536 0.2294171935956722 0.5065988650992693
1882 -1.276206719937843 0.9039721141627226 0.07890315269538796
2172 -4.630846760836191 -1.1032033847605671 -0.08576204211267834
2170 1.8650817153117336 2.3215232933465093 0.738124975806314
2460 -0.8096861888789563 -3.388988600466211 -0.9873873334493704
2458 0.6671934268775503 1.2823855249849203 -0.6962009943291388
2748 0.14058140717402262 2.8706467764154966 -4.617987698593457
1595 -1.0048041415354796 -2.52569853344077 0.5742168444683982
1629 2.0982493623507423 0.16581462463004473 3.531820183068194
1883 2.8248261800722996 1.4480940336816486 -1.4152021337342107
1917 2.3199719759914927 7.211139858413958 -2.677045261673491
2205 -1.3801451040868586 -1.8523819417139624 2.2261023977640075
2171 1.7927590815304335 -1.0814303415704756 1.2595313267844814
2493 3.3637917163671927 -2.630803203007668 -2.3913805644885158
2459 0.21653991316071708 2.3125339676279775 2.7197358573139097
2781 1.4323780612325259 -4.635115643803246 1.4357986055840266
1632 0.9424924294922746 0.8660472163183391 0.19279808328553194
1630 0.032071959510552125 1.9875295024826276 5.178021593754541
1631 -2.5227077514690412 -3.3487352597253555 -1.9597287034418795
1665 2.612314882363302 -1.4076072862443014 0.6975729634225678
1920 -1.4178484225687589 4.240859832008902 -0.6360941308350891
1953 0.2366387465385828 5.7774785895381315 0.23694614349858928
1919 -0.007147173660796405 -4.662692906576187 0.377293990053108
1918 -2.136007026589137 -3.6718991999041766 -2.0012533576577782
2208 -4.082381977048829 1.9730427084984934 -0.9213269987160291
2241 4.473068535510052 1.819150348272173 3.684250778686323
2496 0.9756955681892324 1.3256238549980708 -0.4502450245940899
2206 0.9234912338124285 3.919233318747724 -2.2512579450405394
2207 4.0167847700854615 -1.0505029266151156 0.39035838139836493
2529 -4.744733450124422 -0.45106779413841847 -2.3557919181869873
2784 0.438158413608092 0.7955632107478257 -5.89330898752561
2494 1.2043612576011358 -3.2535044866234184 -0.9237890354529319
2495 0.552466733625159 -0.5578344145722556 -0.9587412932703939
2817 1.5703391112233367 -2.335820439128693 0.42943477016634685
1668 -0.7904854375947601 0.024004468792856875 -1.3604382923805973
1666 -2.564782841335672 0.21760037333449284 0.1850146511329944
1956 -0.8790876477769607 -2.9873974882183414 -1.9762383388999434
1954 5.009750348926265 0.4341449762468577 -0.22375241342791857
2244 1.0710524958150365 -2.0057067610862704 -0.5951833003453547
2242 -4.237961314066133 -1.4661175507040087 0.3219391940823903
2532 0.9995679925104031 0.17124112900995736 0.01838479992990653
2530 -0.2894390621306853 -0.384338322633192 -1.3392064750048946
2820 2.1643051934792266 -1.906031009178027 1.093289833796421
1701 1.839823323319311 3.0971477956288025 -3.946992536118466
1667 1.2761267034680184 2.1416945613073293 0.22067585110945465
1989 -0.23740210251926838 0.04221398191196298 0.20005439252895427
1955 0.2961185770460842 2.041034950723676 -1.5434843575255932
2277 -0.7967984365920358 2.4873439116020806 -0.6547797560409182
2243 -0.4222987415478585 -3.4146188931265598 3.077182331938867
2565 0.8387944310396486 0.17799292569831968 1.3859133558434886
2531 -5.324020154010065 4.676621612838673 3.873715660198387
2853 -6.802867049665402 -0.5300844128892783 1.420806392246629
1704 -0.9602211738081265 -4.34051768706542 0.6668937524953704
1449 -0.3002343997820457 -2.173706456058441 3.1264825187358056
1703 -1.0291383781595134 -0.1383634169223213 -1.5232399090911026
1702 -4.383327066652308 1.8615339382238394 -0.577616207671038
1992 -1.5817010686712905 0.5403754741933587 4.78421502042735
1737 -2.6040526999730083 1.7275951371108973 5.1050398302256035
1991 0.7576977241087223 -5.234259610078066 1.8980205815029063
1990 -2.350061512974989 -2.8417384838419832 -0.9957911581403013
2280 -1.5773070760940235 -0.6888924747752392 0.197703440844956
2025 -2.768226369846003 2.941342217778353 -1.269522186388265
2279 -3.04565186833519 -0.8624284288632315 -1.9173893417067969
2568 0.313707821011853 1.3007596935931138 0.4990897741376948
2278 1.1412754899297797 2.827690904300664 1.3596134025239475
2313 -1.9312775554632124 -3.024632272208376 2.7373111232913008
2856 3.175255971633658 -0.6387384922685743 1.9148210140025834
2566 -0.7575984369244596 1.3380266776608079 0.6192213684336226
2567 -0.3796657498341621 -2.4059478843777207 4.598558534978059
2601 2.689781927661124 1.5027637468617163 -3.9213100209159943
1598 -2.317211696400224 1.5298228661628541 0.14084876893834153
1600 -0.39779819185312465 2.938258766903363 0.2872987575227439
1888 -2.6684836225550717 -1.491450407686584 -0.1848945798140791
1886 -0.39836773433866834 -1.4948197503456622 3.3911925802415124
2176 -4.050867926654492 0.8400090312846702 -3.6368144807629768
2174 -4.3029479740460665 -0.06957770389783526 2.8126750059513395
2464 -0.9977045721073897 4.4615835942714765 -4.9722972894001725
2462 -1.7546467238169787 2.991086283154615 1.443908971557101
2752 -2.6778609138608296 0.13573800007007422 0.45131327230636337
1599 -2.033458960995825 3.4663233667001614 0.09880147655542579
1633 -2.285831141832137 1.1444546649151377 0.5742483226843988
1887 4.775599400480759 -4.73986974139527 -0.23303489728871585
1921 0.6345611357772731 0.2247484257614056 -2.4801364918961233
2209 1.3071272293954355 0.6864298365933618 -0.44169625646331717
2175 0.7726928449478141 5.368893785118523 2.5373280473507736
2497 0.3134539571815997 1.3767997663844895 -1.4175608240001376
2463 -3.5024760679109663 -2.7339425806092765 -2.100215770758312
2785 -3.9821492309466513 2.837138209305937 -1.1439632257748384
1636 0.2113081037200897 -0.7214456024831298 0.8808170669014661
1669 2.595866502113337 0.027271149855886218 3.1268394868236533
1634 -0.14417753581162857 -2.7050993422273395 1.1472441434051017
1635 -0.8401036642558513 -5.501964246282008 -3.6282293292360985
1924 -5.034811619290174 0.39643344773379685 1.263254455148758
1922 -3.562451887285488 -2.942381689579353 -1.2194045669071
1957 0.13246314136522355 -0.7040003395873914 3.0867948619978436
1923 -1.6844380097736489 -1.5673737035146669 1.8205266489497065
2212 0.9161164542482259 -0.8947416871374378 -2.2727960930166273
2245 -0.7573111918064453 2.07838694995672 -1.9298872608010325
2210 -0.7250569642317991 -2.857855600471656 0.4297307784912657
2500 1.9418689741793613 -4.352362111917194 -2.658966013711631
2211 5.845227193841098 3.9319645609472196 0.1509840497613753
2533 5.425028376281706 -1.4949749205336744 -1.2805590020080881
2788 -4.732283856021688 -2.5765632002017766 5.4171947431559575
2498 2.513866018863512 0.1822117571531446 3.0222299826208565
2499 -4.550815218866917 -2.234621631900352 2.106336750343373
2821 -1.3938089867196994 -0.12377793796725842 -0.6882585812666611
1672 2.2406726653240945 0.5842167002453439 -0.7169563154521096
1670 2.2740375775331407 -0.835319335440265 4.048337705152719
1960 -0.8122906603464797 -3.7386657843519804 -1.0827111820218136
1958 1.472634562864213 0.2708443644765233 1.6631985364722837
2248 2.0750776167232403 -2.181148681568951 0.15042460393621793
2246 -0.7864682149639106 -1.6710432907752075 -0.07082739921614535
2536 0.32538811435133935 1.0798504498812886 -0.9946788565575401
2534 4.345954612137472 -0.5621360959180464 -2.3698664449447473
2824 5.448055633376392 0.6621238160286571 -3.3647780037412667
1705 1.232436215151361 1.5361110997564718 -0.2520177048535552
1671 1.3961591333456222 3.129438346184987 1.951597141081452
1993 1.773963928935329 2.1809637962076502 -1.2523765941879161
1959 2.7742020403306746 -0.2704192413516223 -0.12863326387686377
2281 -5.722756362749893 -0.4075214783087953 2.1551532054209077
2247 2.1852836607476163 -0.42925547514185874 -1.0280222175797158
2569 -3.774852664220047 -0.027739200167068007 1.6664282414847988
2535 -0.309806094500486 -0.028731565920834767 2.825280935708544
2857 -2.1177466512185408 -1.9069534019954315 -0.581780841686201
1453 1.147197983629928 0.022637624857280585 1.9779016533701237
1708 -0.21328426945639958 3.321007926254801 1.229175677288158
1706 -0.3019072082697046 7.0468600657216385 -1.9654390117554177
1707 -0.8615256049764899 -2.5516254758814547 -3.1738943012008995
1996 2.591383109100211 3.3754897426774866 -3.5844185850376897
1741 0.6424392655443577 -0.6506189381842037 1.0626866592189468
1995 0.7492767550930659 1.3507452684061292 -1.6333167423486454
1994 3.2410693575698732 3.2432721656990267 -1.4409448113600087
2284 -3.8135595480547257 2.815168272794378 -0.46864592365187013
2029 -0.4121079193587064 2.954051706254397 -0.9549857652035861
2282 -2.1761214160736007 -0.026895624293455753 0.9205641798825681
2283 3.2614291792000456 1.094712482569156 -1.4634545933439478
2572 -2.8468259893220145 -0.32455521269886 -0.6313901507174182
2317 -1.0841820805967703 0.8937621899640112 -0.5890167529348832
2860 -0.6047691218152144 2.2267461361359566 6.520521195720588
2570 4.568389525371657 3.9199445542413796 0.3424500808306317
2605 3.0736526417230694 3.03445746906675 3.4399201160773742
2571 2.410966744849942 -0.10452179270622787 1.0087651722243187
1602 6.147405846535605 -1.0122051296780106 2.478839861053648
1890 -0.646341939044686 0.9361632995453476 2.506151809405415
2178 -2.757188476149806 -1.1979026338602599 3.2247137137994937
2468 -0.6300064620105138 -3.140149939859757 -1.9068068655381605
2466 1.7766001307526296 1.7328611487990113 2.8984804099234234
1637 3.344580796934525 -3.993887317047335 -0.09823271487689922
1925 -0.6195551711924433 -2.3850117149883143 2.536238344275171
2213 -2.84221521654414 0.5494819392664508 -1.4579262500878754
2179 -1.2188774801723234 -1.9556117794949561 -2.0881556984458918
2501 -2.8027999789987907 2.440616003254628 -0.6691730572219502
2789 0.803801734469002 5.217083676600357 -3.8955889651473554
1638 -1.9239099842300706 -3.338497509580771 -3.2491246049296345
1673 3.4352624152854068 0.6587943017600986 -0.9021638353637277
1926 -1.7166057483362525 1.8557964550080663 2.149984748544421
1961 1.143303670992418 -1.8006707845957304 -1.3930129795759991
2249 2.594046286259549 -2.478601385230836 -5.817237610016513
2214 3.407615989010029 -2.012736729457856 0.914455290236895
2537 -1.8070339632802839 -0.47009899084392603 3.4322648445848913
2504 0.5002909543887405 -2.612635634601894 -2.8063175186587066
2502 -0.029480083865647877 -0.34103920728704523 -1.2289380846610556
2825 -0.14683214027006578 -2.315292766707224 4.542100223303809
2503 0.9367600783322884 -1.5757882566249093 -1.4484674940764595
2792 -3.595657046882356 0.9410719912249738 -1.5254733089868937
1674 -0.5540713582561096 2.0251627143093156 0.4450661153278923
1962 0.11468114008590362 2.4662957850762615 -0.5812964236738121
2250 -1.3818225922131004 1.1979110077538024 -2.3219331594730184
2538 1.020217169490391 0.5425999087044524 2.6894943641182056
1709 -3.121609235178372 -2.4027650516681653 0.3219126402824877
1997 2.181373667722024 -0.6261586715730796 0.8795625694875004
2285 -0.7856284175016822 -2.020574020475602 2.361722611982031
2573 2.1384957544881775 -0.575653809358493 0.14570430106172177
2251 0.22400691255341715 -4.450113166937699 0.18310400724746823
2861 -2.034324915992946 3.8621927104344866 0.8319011979016121
1457 -1.0129929648063363 1.6447049391148796 1.4212841759626118
1710 -2.7381172823150983 0.15932755445918395 -4.598352459911543
1711 -1.1284745431746916 1.3367041466712941 -2.438955831842058
1712 -1.8080880209442014 -0.1343894887450523 2.031455660385949
1745 1.065537693594605 2.3976632229469526 -1.3055790951625799
1998 -1.0567097665596197 0.1432776845976436 1.6247720219370418
1999 2.460379212485381 5.881698170733562 6.163307449024915
2033 -0.2589934434028808 -0.8585888878921359 -1.5169081762408987
2288 -1.7518799342917835 -1.9320648618197853 0.1411104981460727
2287 -0.6644978233741226 1.3983323497081313 0.9415355488902826
2321 -0.6137501219745798 6.218457802825934 -0.014933447189104382
2286 -0.4677561906093441 2.2035690434656034 -1.8786846430480748
2576 3.6077948089926224 -1.1638920679518086 -2.086773230093199
2574 2.232433701576019 1.9006829689944078 -2.313322163136415
2864 3.9277193322276807 -1.3025119100164624 4.56977198821043
2609 -0.29226300434102337 -2.3650921143040904 -1.9064703103402088
1604 2.780533687342463 -4.174546310584205 -0.7658785074575014
1606 1.804744267841013 2.5665431184420697 -0.3812684182821702
1892 2.799333463323876 -0.2577005884954594 -1.2559164864758448
1894 4.951599793724014 0.7587543701244801 -0.6800558724259504
2180 4.8386390263336745 -0.6307818112065436 2.6836307333662814
2182 -0.5033054326584938 1.0183581819059484 2.2991886206967656
2756 -0.1672985457586894 1.9659048162051438 -0.42423130707625917
2470 1.4430121959911515 -2.5945894897825794 3.505027450069582
1603 -0.9118245452780697 -0.17988407108265228 -0.6612673258308941
1641 -0.24400925512828628 -0.7433487470504747 -1.5804565233643015
1891 -0.08441115780172931 0.9957683000628774 -1.2408603537201215
1929 1.6294344648639096 0.9344293347961248 -0.8029807546789631
2217 -1.110628880844522 -2.7581256813972947 1.494321908246586
2505 0.2695590949973668 2.095305653136971 0.4690435487882936
2467 0.7020420323902007 -3.103768670283493 -1.0454431076718553
2793 -0.7758667760731759 0.9647802127455233 -1.3422048078684865
1640 -0.37704437467429774 2.4767055152371604 3.7612827058101583
1639 2.3212390180821485 4.239797606443973 0.22639419663656585
1642 -0.9130342409815271 -0.9358047961798658 -1.8506867675023375
1677 1.6356356035787296 5.103883305301419 0.7387927163042035
1928 -1.516726495813324 1.3208649960700867 -0.04212212476926143
1927 2.5125041338000753 -1.4206038752325525 -2.3047972932125877
1965 3.9759080633809702 -2.998351855750719 -2.544798213379882
1930 2.2671775413552164 -1.7281536571158462 0.9474699693675832
2216 -1.5371267782895892 1.9680817899125824 3.7075553847272817
2253 0.3777083137221258 -1.11206653290815 -2.4698818308566555
2215 4.752973843925805 4.576245762254586 4.546389698338098
2218 -0.4679305039210318 1.4564006810577637 1.4073609417789255
2541 1.266149541712023 1.184898347636376 -2.254461235237934
2506 3.5529615444675557 3.786804976837135 -1.3317683519411374
2829 2.4763248462699896 0.7968261754758711 1.8378833422240448
1676 -3.7136718360037144 2.2902266596755205 -0.718940103868429
1678 -1.3831545830446021 1.3600848398172174 -2.541658464237657
1964 -4.182369196493834 -0.4138997059878635 0.8781862687596972
1966 -0.14883981447511682 -1.6334938413760762 -1.435926761415807
2252 -2.706019354883253 0.9233314217226871 2.985475130212007
2540 0.32743508818471945 -2.1397337298188943 0.2872635209010996
2254 -0.6435143978193332 -1.5594719950324343 -4.56187505006867
2828 0.3053280747113304 -1.2867083193417377 -0.12276949447521876
2542 -0.47314646492060025 -2.63498748356982 -0.6401803403380628
1675 0.9144024817028539 -0.03905320028025074 -1.632641846398133
1713 0.16560811210058685 2.172564693843206 -0.6739617876711841
1963 -4.156675266590044 -2.7935561973097007 2.1042981043486098
2001 0.004051926494244063 -0.7904344503461926 2.5569075417176146
2289 -2.9581463667058276 -0.5936094615099096 -2.3389278780989056
2577 -3.8385494768269877 -1.2446060309963742 3.102631229837871
2539 2.7567207366967703 -0.29528865100341034 2.6774696687971717
2865 2.884978811503109 2.168628960478162 0.6969217912441048
1714 1.491520276633164 -0.28117754255044364 -0.6983330739090323
1461 2.1491906900124738 2.1523557552478336 2.0269844625070044
2000 -2.569346484280836 0.4690025198345826 -2.0225207890675807
1749 -3.9909030687100606 2.4224078197873835 -1.743650312384283
2002 2.1567123221684508 0.3158723634879719 6.516164135334695
2037 -0.18424620678911263 -5.1140327870940006 -0.6726992580140726
2290 1.4055340281853985 -2.2932883324214237 0.5162292997254188
2325 -1.1950619976179537 -2.1451578574651333 -4.8597028363677
2575 4.171252996213357 -0.46938450905061174 -0.4922944417178253
2613 -0.8991859813553562 -2.783197185094699 2.388887562506838
2578 0.5236270626891452 4.24242710754457 0.17467483192103717
1608 3.2501958979040784 -5.715349683789167 1.432227307089594
1610 -4.279300511133569 -1.3733625970613057 5.931999907894661
1896 -0.9027688889937606 -2.6356779928207392 -0.9390624350925714
1898 -1.3082888932198544 -0.7930558680420132 -2.3300919904300774
2184 -0.55287047096732 -1.0010318426570683 -2.662512808807798
2186 -5.3444819990993615 -0.9889833414388982 -1.1859193483002521
2472 -0.3142010730968006 4.36941077664806 0.7166254152820096
2474 -3.849221185760529 -1.0695209995642339 2.974622974602085
2760 -4.807951207550015 2.0473541056437066 -0.04949594473602918
1607 -2.9304104581844403 -1.1632852257153052 -3.198508304457547
1645 0.022285556653276885 2.3571783000880817 -1.023802431266001
1933 -0.7848071531865483 2.8541417080391516 -0.9967837740017447
1895 0.20205149709402015 1.1097710323971222 4.600522056790732
2221 -0.28116307558861103 0.9117691234803351 -1.0246721765952602
2183 1.0767093888893433 1.2012040847684724 0.8310114720378233
2509 -2.0978670746083448 -4.572366253684283 -1.1090396326221208
2471 1.2338299169139664 4.572840761768116 0.4065974596737303
2797 -1.49668809756256 -6.1772703517144105 0.45580571034382206
1644 3.273695769692214 -2.5190328079432853 3.5328229572507195
1646 -0.4961661362792547 -3.26165144421605 3.022826710907616
1643 -2.860514643538014 -2.021661835312795 4.192866799491604
1681 -1.4474333518838127 2.143391928206103 -3.424660316920357
1932 0.9836132893975807 -5.125417646729794 2.0375886509557217
1969 -1.8326398839958102 0.49614664136508335 -3.292481982250645
1934 -2.7473332699040083 -0.8199481721143145 -1.1470588465782565
1931 -2.618248120524566 -0.052771563339668426 2.291605992819733
2220 -2.621135050728353 3.7133332964835573 -4.275962190711153
2257 -2.392866403269324 2.991468698462371 -1.5992388794724421
2508 0.6118473704792979 -0.9604549473178136 -1.3509188420489604
2219 2.6128982599545383 -1.912805199153603 1.0438996966024243
2222 1.658261666196208 -0.6404393487662368 4.013906182955739
2545 4.290136243282412 10.552336845961126 -2.398576800160748
2796 0.7050167211725985 -2.61168060063719 0.8857870131411222
2510 2.4956225159191976 -1.281311345917087 2.508923922601279
2507 -1.0793699524634148 -2.125781752380308 -2.645101123058849
2833 -1.3745582908348994 2.9696602298898855 0.5203556622623243
1680 0.5435881565020597 4.035383779622616 -1.8918241125197612
1682 -4.850919131514855 -0.6017228557834094 3.581857879191915
1968 6.077299707909286 1.2065905071924414 -1.9924114258416001
1970 -0.051982517087410675 0.7349670488057743 -2.5248815960890516
2256 2.685616037718472 3.007454077019531 0.08152611637665982
2258 0.026111568388411402 -0.9203553102198624 1.1243424976847796
2544 -1.8999005325405638 -0.7990894721393161 -1.7032890880474636
2546 -1.0912352753578098 -0.6930143757373467 -3.6401768509487984
2832 -0.48007345367207577 1.5484122431119325 2.6527004963706418
1679 -2.087469186261092 -4.337100709803024 -0.6185769140897637
1717 0.3608487887990917 1.7559240492166124 -0.44424374100878095
2005 -2.876443144423277 2.5418389382842372 0.9916843159089432
1967 -2.035579356881401 1.0973672077420145 -0.45273859400154165
2293 -2.1400821001325716 -3.1758170825956884 1.7879148944048877
2255 -2.372956895988872 -0.5902470158967469 2.0994807449039734
2581 2.7867442522453025 -1.5004617613985856 2.35367832630924
2543 1.8411307696248815 -0.24531436229969747 -4.279591400036173
2869 2.4099428721924387 1.1060667687798071 5.811483152473627
1716 0.21575560259041668 1.1008124190649489 -3.184687850423923
1715 -1.5489673600673424 0.2652217475365296 -1.6347616758287788
1718 -1.0052679723232223 1.7411222815066538 -0.810236518156979
1465 -2.165272108341674 -0.6105802084285854 -2.3523263496798914
2004 -3.5712104557507165 -0.5109560054890556 0.05557205069335306
1753 1.0213946114487356 -2.714370609153286 3.995108734214462
2006 0.9285239538365265 -2.108373180413846 1.4801110637374326
2003 2.434852740657197 -0.6674612136092707 -0.7688002718925816
2292 3.737346233623535 -0.61646125266512 -6.569479281798947
2041 7.039924715745254 0.7981028564043335 1.2602224612109145
2294 -1.798196718508187 2.7348203513625875 -1.6485679259384707
2580 -1.0492874327120114 -0.13295442572752844 3.9372112063907005
2291 -2.391349353039512 1.2414898444396665 2.817166322466738
2329 0.9876355804147813 0.044752547474432094 -1.1435721090275408
2868 3.5547903150172284 2.92840870475361 1.6508518017488103
2582 -0.4410908169277113 -0.5009525416255459 0.6692896740212728
2579 0.06197766035649074 -3.589836934131636 -4.445746752672914
2617 1.8155420599037582 2.1942561207178755 -5.088579369421881
1612 -3.647456949429061 1.8816581487177135 -0.44176223489581495
1614 0.3227331279850434 0.48201704621528346 1.3811985858068314
1900 0.5328818393300535 -3.1354800618610774 -0.645969961012599
1902 -0.7304957009437167 0.07730757518441585 -0.5851833929560368
2188 0.8881379044512706 -0.8320076388974719 0.7846839169680221
2190 -4.401448495894879 -2.1941570946231765 1.4884522922108516
2476 0.8548008440118819 2.924020461914241 2.0142557383583894
2478 2.0008418795863787 -0.4580206335090593 -2.4516870700563422
2764 -4.431847511713418 0.2190485945142516 -2.0937247875017855
1649 1.4195474314263714 1.4163687650349002 3.8244921557796325
1611 -0.5568774187573886 -0.38493322582181194 0.9062734019296121
1937 -0.36228562734916414 4.768903294056073 -2.2558981120760015
1899 1.6234377473242643 -1.3009530976414447 -2.1289567494988746
2225 -1.0361719099788662 -0.46497298958845484 2.172906864801804
2187 2.260545974897191 -0.27525730377779284 -1.4151400079885061
2513 -0.21708607032632835 -1.2745486985074936 -0.48452787530886954
2475 -3.0900146381511435 2.7428101300171566 -0.9057301154009392
2801 -0.18788054052252 -1.658256699984092 2.6899240548461103
1648 -2.148444783473538 0.2882793606321132 2.8052559463117093
1650 -3.016856938126084 -4.434289633524093 -2.2595123057573625
1647 4.3755241229752295 1.354703226716602 -3.6166591898539386
1685 0.9109851651247424 3.955715341958547 -5.321152670598519
1936 0.7254769684075312 0.22582481053775938 -1.3415823396648296
1973 -1.822503619909889 1.6746071564932576 1.0468419314704005
1938 -2.1724540743331042 -0.31823817544318356 -3.393334035459746
1935 -0.42857277237211255 1.0310115470644314 3.8004526885504233
2224 0.29120366858862534 -4.380771982710238 2.233471123737203
2261 -0.782435087425859 -1.110504955553942 0.20140751796383743
2226 4.581277286602698 -0.4064957076930672 2.9657216961487354
2223 0.298715598297634 1.571258139946488 2.363248728015061
2512 -1.0017775979911845 1.7610531937386023 2.486198136293066
2549 2.749569171915987 1.041341800508584 0.04134975185363113
2800 -1.7169389115283114 -0.9474439053181547 -1.6362979030383702
2514 0.11349860893001813 0.2579248792022946 -2.9299200300680046
2511 1.900266413301434 0.6556504223261286 1.0430488473386774
2837 0.9000856569496594 -0.9088417838082428 -2.192881218496653
1684 2.4361061265216226 3.2980823983234178 0.9886136960908896
1686 -0.0861040467031471 1.1837565417104403 2.3864408069162453
1972 0.28000582678907426 2.9614498475049684 -1.4725924338456455
1974 3.9395250427356134 1.2241211705997443 1.173925652306532
2260 0.20033495383747887 -2.467223082606453 1.4617400797962108
2262 1.4007197836423362 4.36904025089111 1.7894400064372824
2548 0.8510338170559847 -1.169407913147492 3.1700500050001588
2836 -6.242170580439732 -2.0261502370618194 4.950886098305704
2550 0.5322247348561903 2.9936562737008807 2.5417916559585803
1721 -0.8105757152441901 4.637011448572696 -3.1945867565746
1683 -2.4771883906934997 -3.432084359402625 -0.9121090724737845
2009 0.9736221415821844 -2.330428702613537 2.6968172455074777
1971 3.346236322302215 0.2078333798635921 3.1496772432176137
2297 0.9510500142950548 0.5426676062860565 -1.4051696581595334
2259 -0.763364495798843 -1.154102779801898 0.6783494635196045
2585 -1.0320052857968423 0.00022296500580255133 0.46142803817189676
2547 -0.9134477422318127 -0.959456305173801 5.459246153765584
2873 -2.240178862276661 0.504844577582327 -3.100662212363959
1469 -3.1659958642238224 2.362112762646743 -0.8446221359203449
1720 -2.363155335376358 -0.5166080597221393 0.41868598888877123
1719 -2.003697331973944 0.7246295465990782 -2.343073718329235
1722 1.3800042106932504 1.527913050313278 -1.9431311440416
2008 -3.564532893775525 -0.6487601704954782 0.047631793260161974
2007 -1.0492662528031584 0.4853080144906436 0.8153749004817629
1757 1.7325351162908011 2.1718672555926934 0.7018132497288596
2010 -1.78951282051195 1.8910840712277126 3.4080012722012154
2296 -0.5394384305875418 3.616564931682182 1.6281193057334764
2045 2.415628639209088 2.288861530812225 9.163063728306652
2295 -1.2027636308006637 -0.009573524755313818 1.542820038789164
2298 -2.87662750820825 4.119665382015303 0.7462810433584516
2584 3.918903098892276 -3.264574707730337 0.7688100661437214
2333 -1.1374281764703904 -1.8371320067333845 3.915705267977778
2586 -1.568876086774952 -0.8698002127282061 0.27581027413748105
2621 2.7969974091386876 -2.0212787567902897 -0.8415235489781964
2872 1.843149112021382 3.2337086771195005 0.0664830889358565
2583 -2.2347022883675765 -1.6485830154918075 -2.0534352261372093
1616 -1.4990456781803008 3.1089686140030772 -2.895591683437988
1618 0.7714085993604071 4.393562394686895 -1.4392284066390457
1904 2.874442172664981 -3.283198424863809 -1.432600739506092
1906 1.643757096070699 5.075001927856622 4.850563988187578
2192 -0.9613479428692748 2.5853965410225666 0.5930417827209383
2194 -3.6286384713825903 2.8941075795751185 -2.8768292968798517
2480 2.7119645032859556 6.981699431226569 1.5239257865357794
2482 -5.298782341846741 -0.4146696195276379 -3.5891832523439655
2768 -3.076024131322062 0.5709697732088637 2.996094770438582
1653 -1.023723698497442 1.244777642223846 -4.724399580664278
1615 -0.23930353371548224 -1.7647460609000054 2.772912266502312
1941 -3.230301214380005 0.1770271712662613 -0.22675192565868124
1903 -2.3644424392476004 -0.48613541184177383 0.9014500335352768
2229 -2.86126637023167 0.5009223530012762 -1.1308326059688054
2191 -3.5834305197378065 1.7097911139810558 -4.517112295317504
2517 1.1148099175156658 -2.3847072516425984 3.187685885085042
2479 -0.44983037754323135 1.4430583432183108 -1.3730300614742819
2805 -0.17504222559772573 1.3145754513910612 -5.467813063870852
1652 4.211842402408027 -1.94527053423805 0.2563768068852406
1654 -1.1151612618631204 3.7923243176276493 0.1799512475617725
1651 0.2373218034986743 0.10405328714306274 -4.868445694606526
1689 3.0784946320640727 -3.807302658365332 -0.9987244145516885
1940 -0.7571232857069127 1.7947016550998423 1.4805701717435167
1977 -0.4110857478856846 -3.4662387333713855 -0.07667656573584539
1939 1.9498670814386172 -2.59221686534643 -0.2067653269199115
1942 5.014589165641116 0.30297430858935637 -1.4083959584098555
2228 1.4254208233043422 -1.4567837956232021 2.552014102227709
2265 0.7071776920875754 -7.2595362179004335 -2.3458486382459873
2230 2.350623158892956 -3.8819952445627903 -3.3709831544899633
2516 1.2414822651093282 0.0815499062272467 -2.3517934738782427
2227 -1.0898387334886066 -0.7819160478857291 -0.697958461059473
2553 2.5024774643306658 4.592978759398779 2.0078811445106677
2804 0.7403825482427024 -3.1255987151747697 1.7432959768698248
2518 4.324091349524578 0.33668900874116625 2.780131203538843
2515 -1.1806962713858027 -0.29371217067795785 -2.719854474638191
2841 2.3650823713594282 5.19223177545027 4.3474373933554284
1688 -1.002241755828214 0.5616691891776256 -4.610250017403167
1690 -2.634934658152185 -0.8540824766058209 0.25568110477664224
1976 -1.729941382513155 1.1194455270996848 1.2442878996637932
1978 1.757235767826789 2.3188772603192116 -0.4087519095514771
2264 -3.4431651264436587 -2.3225329612773296 0.6922807277458427
2266 2.7548054292269497 1.9723385731440266 0.16333537590850727
2552 0.24594544792913672 1.8754919477223926 -0.206910376966988
2554 3.677731615653808 1.6240455359739034 -1.155875469497024
2840 -0.6062300890141565 -3.9112966104709854 3.2167571940058077
1725 0.7961472341887449 -3.0053406021690976 2.681297388337736
1687 1.8728390280226268 4.504034366588772 -1.414690671746198
2013 -0.3268582844290929 -4.227849223333225 3.465097990471875
1975 0.07921271620400946 0.30353267657355604 0.36039300630426735
2301 0.8137591288709448 1.7892218680448797 -1.0103212842219191
2263 1.752845356722902 -0.4806655604983898 -2.674684769086964
2589 -0.4876430777942573 -1.3328067345311347 -2.207566732905454
2551 -2.3120705758427023 2.765376972682867 -4.786714346498616
2877 -2.4053797634113874 3.1713456307972696 -0.4531150895592915
1473 1.672133903577384 0.7796446640794896 0.418844272793517
1724 -0.3267889668261653 0.37917021648552734 -1.1122119279670633
1726 -6.022544872937518 0.27615207229509536 0.2634213535052065
1723 -2.062292392480326 -2.2083167150455494 1.9109210930553044
2012 -2.088913173477432 -0.2900792917054178 2.2544057050466466
1761 -0.732180892399556 -1.191105266263518 0.4205630575466384
2011 1.7884959031290948 0.6555893268910999 0.4399146443013514
2014 -1.3776938828606424 -4.382236716808755 2.9254193560840567
2300 0.4199494033063024 2.0655438451389014 -2.6541470194122825
2049 -1.228007134234746 -1.6586769293840307 -5.177629464938861
2302 3.238388558689284 -5.073210068610293 2.7072849610733942
2588 -2.6697122156098296 1.85019342043922 2.836593690504927
2299 1.573664296702906 -1.74005458693249 3.503393841472347
2337 0.9296779892045993 -3.8326806096179573 4.015790483294619
2876 -0.6115676603236202 1.073169201829396 2.182445505714643
2587 2.5497843104030347 2.569731829250481 -0.012358317236558844
2590 0.4773746139954721 -0.6575067693929564 -2.819261341438473
2625 0.15267509724302983 0.7788315559926283 -0.16557911793507185
1620 -1.6104024315297254 1.0896501108533865 -1.911436972084615
2233 1.5671590452347826 -1.0081472349766498 -1.9473742049097384
1908 0.9792396066794077 -1.1178041589482566 -3.5325794128276615
2591 -0.13762464862791926 0.6709663828192542 -0.053872731290554934
2196 -1.8340785639178214 -0.045936984195413845 -2.931205349172744
2484 0.15033814533142287 0.159572793707824 2.4859331064873085
2880 3.2743022386602445 3.433142434743881 4.274457505521607
2772 1.4945224575654137 1.8630923264924197 -3.542698138716519
1619 3.716270422110943 0.19834886399984217 -3.3795086614320624
1981 -3.841225751100974 0.17109304391885824 -2.263342207668819
1907 -1.9309238477350599 0.6067933718740527 1.9020731536064448
2197 1.9909142750862898 1.011376588499355 2.2057736489344735
2270 -0.6194171918060364 4.451338479659967 0.283304917861785
2195 -1.0779458081991318 -1.4099329167900978 -0.9525689011813876
2483 3.292943013607122 0.7642635343894074 -2.8177760096151787
2592 5.8767978228199445 1.8240369504017404 -2.461651845568819
1656 -0.7415127581347851 -1.0775649896496635 0.24423740569774852
1655 2.0304487780496308 0.1277317705264192 -0.0041529426458391
1944 -1.7869329617531275 1.2180672979655853 -3.6610561183069183
1943 0.31512956079921656 -0.54647632447577 0.8262233413746297
2303 4.6921159142363065 -4.292187955585492 -1.4754576130173098
2232 0.1615045666999136 3.656023398937812 0.2213446912358852
2231 3.495038794202838 -1.377991916529319 -1.2391318126052533
2520 1.5895523086166918 -1.0144834773268634 0.6564771429015575
2808 -0.015764055288667783 3.3700877340030675 1.698610312599207
2519 3.122133450432596 -3.550069623761356 2.6758778713365134
1982 2.6431695935054744 2.2983194944866123 0.07614543502934819
1692 -1.0622492289474499 2.141258973496577 -1.433702182257192
1980 -0.7302596522052225 2.0912868655437284 -1.3145987565191217
2268 2.9572519013427314 -2.400141487915602 -1.3683577884208038
2556 3.2657324283390623 -1.3678720141314435 1.5934465104477782
2844 2.7653172801954296 -0.8634168995907378 -1.554816274158675
2015 1.9539262079547939 1.232023684701981 0.03843520758539823
1691 2.6179441688843292 -0.39567478378907495 -0.39291190251829755
1979 -1.1466195830600738 -3.5765424277008577 -1.0081168431605179
2304 -0.8304954787958567 2.652855998155098 1.9542719800980044
2267 -2.8885613059501565 -1.0477265898866572 -3.0859510235057646
2555 4.686824539597729 -1.7721265677092546 4.223959205657019
2016 -2.5243827206131018 1.7325807728524487 -1.8195859868542783
1727 1.7785354530927613 0.5999755520695912 -3.733024615867919
1728 0.6197528018024938 -2.38282714528878 -2.3263594331037423
1874 -0.021843241489695644 1.4929193069269229 0.5733523356315975
1694 1.1880508077677903 -5.380164531652858 0.42553542100612723
2198 -0.38078840073769876 -3.40967356753683 3.2400009666499403
2017 -2.7402857492680357 -2.8254216814338733 -0.28051399867093885
2809 -0.9846088720878624 2.5414533888755932 -2.9477600422956107
1909 -0.17735172992829568 0.7447425535948912 -0.08584315371828471
2269 1.096613533602464 -3.70764185158611 -3.0158731236067973
1729 1.775183223314713 4.368792614197046 0.6516873180805344
1946 -1.9321043083099205 0.14171948249015945 -0.4705762241801484
2234 -0.08199713636727139 1.9126643664843483 2.126626365931628
2845 -4.190881864283935 1.9385408440892953 -3.4299968172587683
2485 -2.7667740486181582 1.5432593762685842 3.2155656595012494
1621 1.4510740676229459 1.1959700059673617 2.677376661684035
1658 3.3493231181856107 -4.5654451989004015 -0.07525606892585643
1693 1.9466585993649603 0.6919001954105581 -2.0911959950484604
1910 2.803605153267764 -4.168450854378323 -5.434621001864655
1657 -2.5981591436759066 5.016512955610145 -1.5783620395767508
1945 -2.2714218657798946 1.5700963624592836 -4.121416138885277
2486 0.13451976346161965 2.3147635595498826 -1.8673229219366998
2521 -0.836133309111555 -0.29321709109518196 -5.2408080188401645
2884 -3.6428610740906135 0.17439960093352527 0.7761691310451035
3782 1.9147226069636478 -5.129596066624639 0.4310552637906905
3172 0.3811897110649478 -3.036903554389105 -0.2104084536982282
3460 1.610264144195343 0.36861102768092646 3.500671601822309
3748 1.0252938127797389 -2.366309243053538 -2.090517946343426
3859 2.5792620207410333 0.12218282627387629 -2.6174899543565675
2595 -3.157376310210474 2.897163529982371 2.1024971100878624
40 -0.8909852725085327 0.2749616696273746 -1.5241877697745565
2883 3.2260426688282577 -1.6423099842907287 3.789173918502387
3818 1.995492128297022 2.6473978571821215 -1.1053401421602083
3171 4.646006702378107 -0.5591253888300604 0.007358055498540885
3459 -2.227028969629277 -4.150885821746892 -1.126606006774292
77 0.6202943244306817 -4.076000472984395 5.818045003712226
3747 2.889543895146244 -0.02997867276910368 0.21936361206450994
2920 0.8306253261432568 -2.012888333454968 1.225045362510261
2631 -1.6642618030923897 2.219803617105819 -3.364587738675604
80 -5.670638424260414 1.1656259226252177 -3.7615828410167214
2919 -0.6058647941412924 3.076428865853953 -1.053413569919366
3208 -0.7071953792216805 0.8339200709201098 0.11619509301513892
8 -3.7468612366096563 -0.030393305165936153 3.056984472957241
3207 -2.980681114579506 -3.417299669257689 0.8440664554131416
3496 -2.1727705433191202 0.6383646928530392 1.4162351089463434
44 -3.2532168549648803 -4.163667075467828 -1.627645953912329
3784 1.2316176435204154 -0.5385201369322199 0.7192779555169517
3495 2.5647881477385366 -0.3131281958334828 -2.235551280666474
2594 2.81487049141641 -1.3675697548756942 1.5040610140918256
41 2.1530060714563017 0.9453992850173795 1.5592452898179445
3783 0.61487676397865 0.9940910856268227 2.776499077910169
113 -0.1240396739969421 -1.510397159724412 -1.5485471450149928
2956 -2.5096906825194933 2.8825427535682624 2.062125539570754
149 -0.3346576539142155 -0.7801706509974264 3.4163316973613513
3570 -3.4017755996489263 -7.0295839361576915 5.172920263605799
3244 -2.650771728257581 5.06598084395135 2.5239318414891083
3532 1.7688044814567305 2.2718984024191258 0.5366236957688413
3853 -0.8787650819074024 1.597058139301812 1.3721038168985675
3820 -1.9589129548685913 -0.5775411119222486 -0.5290345515566497
3893 2.219095418620769 0.775526789091285 -0.3069010767964831
2667 4.383222178834641 -3.3496439225180223 1.1761054385134173
112 1.7692884986987525 -0.9461644444161575 -0.7792078339589282
2955 -0.7547999023655748 -0.5176284315936125 -0.1056029019967778
3243 -2.6258444072906992 2.8879414001829775 4.202381353547536
3572 1.1050763037400293 2.4830893810803527 -3.072472580641284
3531 -0.052362971880368384 -0.35580534789938484 -1.0700517601859991
3819 2.790513524771046 4.501485947172704 4.635692693013507
3858 2.564502967197522 0.1546420373589595 3.3640085704524543
3530 -0.942341451477963 -1.0092228953162592 -1.1990469991213264
3205 3.42555699513046 -1.2713088506638226 -0.16346447067056805
2992 -0.9717232029304604 0.30929735403913694 2.4652091994621226
2703 -2.804898977090337 -2.640119979256671 0.3510267794075175
3280 -1.0106700931751327 6.245032750171591 -4.883514021369874
2991 -0.5998655564531657 3.368403886284002 3.4891216886905045
3605 -1.1864025710714459 4.458971078981059 -1.286793186769154
3283 -1.9734079664885598 -5.082216161790757 3.544386890120391
3279 4.097043142850872 -0.4320430086759145 -3.0696870713942865
3568 -1.2733561129853133 2.220185213612484 2.162401269882756
3282 3.080914734357855 0.2336122943389793 3.064080631727426
3567 1.4211767594622413 1.9284709282499068 -2.6668139335620253
3856 0.318524155960254 1.357308403998749 -1.1084892729066333
3855 1.4959154164083392 2.2149964029103986 -0.8962654773129098
2598 1.7022222270180611 -2.1863215835684287 1.744742077137349
2888 -0.6440379697112468 0.08326742111973202 1.0773043471152288
2886 2.1950854915138795 2.7406753363619862 -0.7648976691331949
3176 2.5667879737332497 0.6662916542678664 1.2903255704902592
3174 -3.4653192880061576 4.7455586341616565 -1.9809338640760723
3464 -0.3727322170169907 0.10234552897180808 -3.681819083542633
3462 -1.9024014472072346 0.5228795987057199 0.021673919986274225
3752 -3.967537569613662 2.698969178921106 -2.0400595502170016
3860 4.094105256643771 -0.9689160311125847 1.4934162315916037
3750 3.4114575892105705 -0.08138158326227998 -8.603439068312628
2599 1.3934297044265664 -1.2918021085629565 -0.0841299269693935
2921 2.408055792353089 -0.12986359454817067 -1.293550320498887
2887 0.03732549614194593 -0.8415504419487216 0.5688718322147999
3209 0.7099538313176362 1.5636328928944037 1.253046909454847
3175 1.3307474716446122 -0.1459690727026095 1.442743261055876
3497 2.0654920447397154 0.7597259593791376 -2.647504347119555
3463 -0.6125612978688967 -6.36060038510015 1.9182866873925923
3785 -0.5610067787116944 5.301088490104625 -2.5066869538651653
3751 2.4464724945598797 1.5027302834394403 -3.9172362862092376
2924 -0.3497796368982353 -1.8613724966463128 2.8874173436749753
2634 -1.2517434209822105 -0.5154561130249917 2.043241516600253
2635 3.043539971203338 -0.6420131293144461 2.313519969557639
2957 -0.04770250911558696 2.79086468491926 -2.0763533406052486
3212 3.320365905008472 0.6371499165428723 -1.3702564876688659
2923 -0.7307617896047782 0.48700645071564885 -0.02812222350346159
2922 -1.978260968607039 4.13065889474988 -0.594165143539368
3245 -0.5405162030786791 -1.0967534922404625 0.5332646155249379
3210 -3.2725461058080425 4.646924513905211 -0.4492579806176875
3211 -3.672864859576906 -1.0772007367850567 -0.6985014590981279
3500 -0.006324513256200907 -0.941594654273787 -5.152926839802471
3533 0.3246295014813781 1.5890770475156504 -0.776370996093824
3498 -4.560223918750689 1.0083065376343339 -0.26574306600634956
3499 0.9226070923149894 -0.6452343874464315 0.343912681513938
3788 3.104020004086729 2.670110795886814 1.2826754438378132
3821 1.5793223246489203 0.2790274385588008 3.2597312691408775
3025 -2.7073025172668905 -0.31318761467834233 -0.4386188179694338
3786 -0.3846661255294712 6.682981366128078 1.0677551801420524
3787 -1.9940425413539464 -0.3521756053720592 -3.1532765006578813
2670 4.928493436830281 -4.474758449819575 0.18669976424310755
2960 -0.5117490596339385 -0.6285324051181782 2.4950654843286246
2958 -0.8162258502171034 -3.367309830631359 0.4778432324053397
3248 0.432074008395827 0.29527943462655876 1.098218476481411
3246 2.045127550374937 3.108031502933733 -0.2173134347304503
3536 -1.4526607000058245 0.424022889482069 1.166676913917385
3534 0.21970999375376796 1.94603753617702 -0.06272837149897634
2994 1.2080414818002367 0.27100843629789356 1.3551062580216986
3824 1.5195381604636355 -1.230830581583667 -1.4503039853221544
3822 3.8224206150124047 -1.6973885051123914 1.1858993186266726
2993 -1.6126507364615468 -2.754312412280106 1.7031602315512542
2671 3.4652994180709515 -2.0857712945502715 -0.14260559857923688
2959 -4.2393061867536455 0.3427562818519903 -2.420848221413431
3281 1.1802537234905641 -0.8419153768213814 -0.1245135679374441
3247 -2.355090768739249 3.0280212645841074 1.0683093539267718
3569 -1.5471722294572305 2.683588159598536 -2.1745383725308853
3535 -2.018582199666345 0.8394861302284767 4.228647419824371
3857 -0.6931785982722987 1.6474940598539627 -3.170706864490334
3571 1.2046850629759156 2.2351768343641587 2.276227131435555
3823 -2.159644158814669 1.7767848523345613 -0.9711187356235879
2706 0.4699140873845277 1.8054852078114787 0.7607069113429928
3029 -1.9096770763068678 -4.318626455440888 -0.2312785606659397
2707 2.448184750070588 -0.9591243462818634 1.705638658201891
2996 1.4223059044422321 -1.460926000447329 -2.6963029682168416
2995 8.586666225452692 0.3383536017800854 2.499557306107563
3317 -2.2668573149944304 -1.3298845238541763 1.6806228438141133
3284 1.2659620940743515 -0.38407313656069414 1.0960022902692685
2917 4.975152327977728 -1.4710257208079427 0.6085896174253457
3565 0.44225237671531814 -0.3484914803661091 -2.5645265260127292
3854 4.8986493916714124 -1.9330715656365758 1.72838878516636
3493 -0.725608100781533 -0.6175608615989903 -2.1028310454273007
2990 1.5174317424378112 2.6157947047285326 1.0291058031686473
2989 2.180352311663679 1.4733248443610563 -2.4339709946997967
2882 0.14659250215430836 1.0455791530108371 -2.369385399355572
2953 3.4520896032421535 -2.9412822761745843 -0.9549987518812126
3242 -2.124148875202901 5.85161985564004 0.6732947482914791
3277 0.7114063243269202 1.1882955459166975 -0.18599154428527095
3529 4.636248756057848 -1.0783969236611506 -0.3551602177476783
3170 2.9257486810131357 -1.9269064317274722 2.395713973518542
2954 -3.4678501273335907 -0.06192549689060905 3.845978949180225
2630 2.004263716953041 1.72294465070927 5.446604198955484
3313 0.45907238548531193 -0.13382637086070107 0.3144943102106425
73 -1.2401527109731771 2.719773857378635 2.47578238063607
2602 -1.3541536761209572 -2.479127569421524 -2.0747788857246703
2892 3.1678586399352358 -0.3832458721451003 -1.3399859616951642
2890 -2.9211394611530785 -4.980103289804535 4.296609137661429
3180 2.327156537941937 1.7885509551482386 2.432700614535882
3178 -3.259678759502549 -1.8331922107461478 2.2041097986728566
3468 -0.013088089689982683 -0.45098775390504253 -1.8595800347774067
3466 -1.468410749827942 2.3546570089666425 0.7240272116048979
3756 1.4901078595261867 -5.139916620280351 1.1722807147492054
3754 -3.4463200476990266 3.239430769932628 -0.3435485941199519
3866 3.521039855757407 0.7417093890154126 -0.348449391247264
2603 3.669166402067064 1.0812255389174612 2.8096712838704154
2925 1.9484863704200186 -0.8632885960943703 -1.953605279961747
2891 1.245226209874079 2.2134039054682204 -0.6694221719441504
3213 -0.6512822396685272 -0.20220853640216382 1.0196241906073262
3179 -4.486556442553703 0.24528474961449898 -1.6897878717066226
3501 -1.3534002281431061 -1.0408569746115057 1.4883840893931146
3467 -0.9951685200930058 -0.4843366503905922 0.6026157816750205
3789 1.3568127760299742 -0.7513010784270271 0.2836163382813521
3755 -4.433330993697749 1.7527390701344985 -2.9176480601227013
3291 2.3495271594542047 2.116049187887592 1.1348747282620921
2928 2.411366388275897 -3.123792315758914 -1.6698859725917141
2638 -1.9540132113910051 4.5483728891625095 6.69240811358164
2639 -1.4730149432383677 4.196968371831067 4.12826577357434
2961 -0.36102397935225633 0.6934586541949483 3.7325324116383376
3216 -2.033058424866639 0.6523603332563702 1.4582493922619428
2926 -2.040956412385413 1.649548313843302 -1.5219622077806059
2927 -2.2363299852802507 -1.3311502699202933 -1.5011353063455113
3249 -0.48679867080587125 -1.809728899835712 1.5645480364818598
3504 1.4923403839576173 1.3113607698349248 -0.06289219967779432
3214 3.9963292801837103 -1.0216247127332962 -3.254292979952426
3215 -1.7378524486932998 0.3210936961434975 -5.150641618857447
3537 1.3282806321059653 0.2650197372614959 -2.5334576600291823
3502 5.735496407767544 3.1921679237840843 -2.5094142241746913
3503 2.8296139606214354 -1.904341645813942 -0.979253683218325
3792 2.28352684188301 2.3715710172947517 2.5111275196545177
3825 -1.7975666338212857 1.8472085390179955 -0.7091535799084072
3790 1.3779284634024462 -1.4034453662935118 -0.5281201441362448
3791 -0.07225246388089276 0.7871966107730258 -0.8268623015578
3867 2.727034369731837 0.3983417012713644 4.748993683780665
81 1.7113523179377415 0.8525186240553201 1.3121805652216492
2674 -1.6465615807985556 2.3868825365938044 -1.2244398784172554
2964 -2.076001458336842 2.218349522003557 -3.2494667852486514
2962 1.259791673487209 -1.312572199933519 -2.5062187507056737
3252 0.4656560376264899 -1.8891791242226292 -0.8511987906725662
3250 0.7335934744572872 1.828458066914657 0.6798453623263926
3540 -1.2739165687653367 -2.0458262639988667 -0.22622333767465055
3538 4.503478295559712 0.4942711329451482 -6.7389334381484804
3828 1.4776074325752644 -1.1960983981390647 1.5195522772341832
3826 1.1366011063301207 4.9955400372993815 -1.9019405806373817
3578 -1.8377037998315862 -1.408688480727296 4.544559080641957
2675 -0.7936533308817465 -2.3926603757653258 0.15927166464188797
2997 -1.1915703215155176 2.322869807795393 1.0157755118963843
2963 -1.4977059654221851 -1.649909552287979 1.7023908558567455
3285 2.181904841840826 0.08680460841874323 -2.3185480805698413
3251 0.4016285812012293 5.292909778525511 5.769302045179469
3573 -1.6096225533828667 3.2965566192870845 -3.185388790354558
3539 1.2522683509627621 -0.1832638320978024 1.9829507817662364
3861 -3.971702940774923 0.051488997454895276 -0.9530569716280322
3827 1.7682729247185405 -0.7548031064951477 0.07574388837224245
3033 -2.6070356562712704 -2.6646998663596095 1.4026004357546986
3000 1.5613258573433215 -2.1622536218878765 -1.1290849667634104
2710 -2.3169498024016772 -1.5246290624097545 1.3288845541030652
2711 1.379835882193982 0.7409911977766439 2.146296586911223
3321 5.059018805370952 0.7913427960509672 3.9123419841202005
3288 2.9770282328906026 5.664348942977897 1.9787476738838683
2998 4.523925096467215 0.8600251845499095 1.1770445153489506
2999 -2.769381041700955 0.20246972007082265 1.8039872711270906
3576 1.4465392526803762 4.145786817087643 4.968063621594586
3286 -6.285790987989403 -0.46337356774026034 -0.5591035874905711
3287 -0.7413989712696503 0.4651357503043497 1.1491928268341138
3609 -1.4569454716144172 1.2694420453989 -2.0889355096261624
3574 1.932949263828072 -1.5675878921532682 -1.3760179031086162
3575 3.2946835039186615 1.7913898218802464 -1.6988557915546918
3897 2.3452126170435066 0.649119727000789 -5.478254087715541
3864 0.915841795793675 0.18063142047867312 -0.12120122268034203
3862 3.710903981711218 1.0919514004109296 -0.7053971586063958
3863 0.001320926759053346 5.057049313476879 4.914212105290666
117 4.148670960287048 -2.339792256940144 1.6210957860634374
2606 2.5163698035388196 -3.558610277352182 -0.6879845467123353
2896 -2.1564184443837178 -1.5693174912209369 1.6373708803544016
2894 -1.174054696548295 -1.7487383866583235 3.6633284131343977
3184 1.5478951340458342 -1.8401561944907885 -2.653987581498779
3182 -1.0626934276351656 -3.1370348196697924 -4.293282970965229
3472 3.6226515370732937 0.4459995125090728 1.8073333501766045
3470 2.8675552138607214 2.3057725775397766 2.5538377682856512
3760 -2.274055094382129 -2.4172523774312262 1.3458428668769873
3758 2.908378307419065 -3.399338837019086 -0.8336982065405154
3579 1.7911910226124321 -1.2881153464107193 2.2485776006083444
2607 0.8929428611639765 3.9604126343211306 0.06876295092452162
2929 -0.6658559780230616 -1.1614952207865104 -4.794668694555131
2895 4.1320329556308995 3.3863543755245855 1.3251410317179977
3217 0.4719733089672863 5.122066766160221 1.6661768395414738
3183 0.14888214742382158 3.5756030859689076 0.5038095879183802
3505 2.3836209029802884 2.0878190147350137 -0.12874188125304353
3471 2.8462164738195366 -3.304523232823322 -0.782706561517843
3793 5.013821768590146 0.3946110604095482 -0.387857976261851
3759 -0.8385045443020953 -0.4193801043825363 1.9776931595114635
3901 1.616829456778183 -0.23764340663059605 -1.5174996763068154
2932 -1.8148070907703848 0.43148510629164183 -0.7412600874698891
2642 2.1387204984672374 1.9422968007812014 -2.7753732290441437
2643 -2.5376054290882695 3.678690304508173 -0.6224683640970854
2965 2.612442483623496 2.673516741070028 -2.129692698452808
3220 -0.6383076703928412 2.367081719945266 3.011058910382175
2930 1.8612391933706267 0.882141206570851 -1.3958935364559146
2931 0.674632219584967 -1.8089883287959045 2.7838555496298425
3253 1.4697166724270285 1.3355910830039013 2.160590914682004
3508 1.1699280979061364 -1.308025515120289 2.3056949525532877
3218 0.043572830597643865 1.980144132399303 -1.5127836194496915
3219 -1.8081134904936327 -3.472207973962594 -0.6745549718964663
3541 -0.029126884929022923 -0.7144460285188077 1.1863824994142056
3796 -0.9039104012725363 -2.8525419513656067 0.27378625493558195
3506 -1.2615017684741734 1.1879932261832251 -0.7837382341941492
3507 1.4783882785360627 -0.6723111699488715 3.11784198939138
3829 -0.9268249108405539 0.662856665052416 0.5039322965058881
3290 -1.0950622539369657 0.20981516013363308 2.5740144654937134
3794 -0.8396295621741561 -0.2725515663258549 -0.9175573261960854
3795 -1.5343943043878894 -0.22607485445420833 -0.08385910126579348
3868 3.406731773086528 -2.26491252018569 -2.1678511786947863
2678 -0.8876298513296204 0.4749539957842905 -0.9788672731725166
2968 0.44492933008015595 2.969307983609307 2.23241060191438
2966 2.0370469770326514 0.08002618453052117 5.644731781410364
3256 1.6645839458916558 -0.7944878850435024 -2.019302435911962
3254 -1.9109280824242978 -0.4349860537707705 -0.4228491622907351
3544 2.901226716234093 -0.527773692005404 -3.7586753846349485
3542 -2.0455270525673326 -1.0269231351803974 2.878961401570597
3832 2.6478168603966887 -2.9248139643014834 0.9584455698628823
3830 3.531774115058908 -2.134166803451947 -3.313127922922879
3580 0.2184830457576014 -0.030947515494631504 -1.221730032370047
2679 3.647829087087017 -3.694303029503602 -3.0287460524630356
3001 -3.1330984052729183 1.089165595166217 0.3472778447334572
2967 0.46927305461843744 4.9442258311800495 0.23140825035255547
3289 5.076971050498397 -0.7748714267647502 3.8808551758609284
3255 2.417468352146024 2.181797386741911 0.1314442508820706
3577 -1.0059176569236574 0.9075109929421027 -0.9749797263250062
3543 -1.717607208390708 -5.10938221253968 -1.7844231472708378
3865 5.261498775408153 1.4304377338506384 -2.7189680190856427
3831 -0.25390223238930676 2.9444131070322848 -3.2289932137156487
3613 0.653818430917016 1.1091054761157 -3.8716622626873742
3004 0.1547111613317468 -3.5556335189200676 5.618715498325139
3037 -1.3834973090763476 -0.5226852986620133 3.456292974609699
2715 -4.125465932157602 -4.1342111400692945 -5.155244393335919
2714 2.4465770689200554 2.0156576696940998 -0.4414340741372267
3292 0.09232600194594144 -0.15871318710535914 -0.8823578579826661
3325 -1.587095174757775 1.146810742328935 -2.2981695377598825
3002 -4.19455141615042 0.4403421318168075 -5.389996858983502
3003 -6.470528745753674 -1.0855469378334948 -1.7003018078610719
120 -0.12292574708292779 0.37340454224641745 2.347513808017322
88 -3.135480169668572 3.912002872244509 2.089946575003946
52 1.6732843584938035 -3.460800793357106 0.2500986823618881
12 1.2465326881024839 2.007628305768499 -4.411372176053697
153 2.068238197102538 -0.13513271101733718 -5.41873595634537
121 -0.9966498904031618 1.598593269561388 1.1203176469452516
45 -4.066837434215461 1.6519959758000269 -2.1634900940905135
49 -0.044150458935733654 3.528282013147125 1.0614408476693853
84 -3.4922864838788517 -0.8264141442603932 -1.4961669090238108
48 -1.9711731729173245 0.21685700037942096 1.5393655302155325
16 -3.6914708787188286 3.336379311115165 -2.550259049036557
2610 5.784728214418508 -2.978241707206178 -3.8041510383710886
2898 -1.060082745778749 2.8320980180621778 -1.743019928831392
3186 6.5944516058734655 0.12061735768279692 -2.137518151839565
3474 -4.698194500423539 -0.9989666086328615 0.7527639547038124
3762 0.158627335897649 4.234325013716491 -4.463271958099499
161 2.7240142621723145 3.995439265530504 -0.5978786384880493
2933 -0.8653974030588835 1.7739855165608118 -2.831401950973277
2611 1.0433934784185523 -2.189611275043388 3.2028945259938904
3221 0.7685789416321406 -2.4131334955497072 -1.1360830771727073
3509 -0.39677993763717473 -1.6434121092763276 -0.6574324834165931
3187 -2.269828682661021 0.6996439743887093 -3.1754808322887724
3797 -0.3581706299030464 -0.32036009598443577 1.0152659800091866
3763 0.8564134021284684 -2.30659048786337 2.672921689543237
3909 1.2332995165991893 -2.7754706771874726 3.775392775601788
2646 0.5277335128830534 -1.5285465479530076 -3.521533926536358
2969 -1.1604676658868864 4.572387349901597 -0.3533093774296639
2936 0.14379908075782719 -2.018492147062965 0.6685594752579067
2934 -2.970889912996389 1.2870391573719024 -0.6428618025625122
3257 0.21258930064308854 0.6040924978407761 2.8936560425607767
2935 2.386688791764806 -0.7255758699405392 0.6973021111410357
3222 3.2027952289433914 3.1854214254619966 -3.975307685613576
3545 1.0776250823586804 3.9588799994030834 -4.81701809187636
3223 1.9859562827135708 -0.5014193742198674 -1.3225075923769731
3510 -3.1134791931881503 2.506758453875541 1.9123921146252718
3833 1.4347875428667198 3.0117178287264075 -1.095674861139896
3800 4.314582004453793 -0.4145716671258106 -0.35111231910784924
3511 -0.8467422778989318 -0.8466953374001835 -2.0697189529039135
3798 2.512749165366819 0.44867311445060154 2.380080873329386
3871 -1.4921180663942757 1.7051146672276267 -1.5177485610477677
2682 -3.8420072939940377 4.523029926699366 -2.901194958834978
2970 -2.0265605353294402 4.386078468780252 -1.6444611130387097
3260 -0.8189747652097225 -2.7630505113864383 -1.6648769413266638
3258 3.996313257935241 -1.7568146487812855 -0.4109542385864746
3546 -2.9729065285164182 2.4522976913734738 0.09494014115970914
3836 2.8497509507720467 -0.528542304126892 -2.298923419363791
3834 -1.4820159555606092 3.2403926767580566 0.25570395130811907
3874 -0.36109250195673304 1.5837046418818481 -4.592654856522461
3005 0.2674047733768429 -1.0443527738786171 0.6633470236280042
2683 -1.953557742533492 3.549981150075913 1.8257270832487664
3293 -0.03676960441830191 -0.0987577111785575 -3.0357441469748174
2971 2.597802076750794 1.0552224457746906 -0.51920914496933
3581 1.678667720477886 3.707879888720428 -2.8242251180276465
3259 -4.235044166043563 -3.003358492512814 3.088490418013212
3869 -3.2749279007423078 1.1815720577552313 -0.04840827766119587
3547 0.20449217077561835 4.256336285928656 0.730563340939249
3835 -1.1467498088512968 -0.673364869958918 -0.5282694184943812
3041 -0.9913009367599221 4.856234999268478 -4.608804063411356
2718 0.192135080363295 1.1366524947299028 -4.341448712256386
3008 0.06344864799660603 2.804930765745261 1.3870699718149897
3006 -2.347730810691475 2.2311647944653425 -1.2810219120606485
3329 -3.1685212127284954 -3.4468080182784466 1.8966634573519836
3007 -1.085140784747834 -2.134316921230661 0.2628104071832791
3294 1.7198865088916628 -0.16598078705537933 1.092312875930951
3617 2.4405710835001893 2.7461313001710117 3.7006096142960123
3295 2.5001838949889263 -0.4976156289899235 1.0156604646433092
3584 0.5969969779471586 -2.7797947537629484 -3.714061891175765
3582 2.898670020752208 1.5290048153249007 -1.1449481599436035
3905 1.0483729016294263 -0.40931216152608896 -2.8653363382579284
3583 0.11883047493874488 -0.5003044477778896 1.5437640445918879
3870 -0.45389345324781577 3.177611726429256 2.222032670179738
3586 -1.940458299176668 2.1310395621951286 -1.6038176900521433
2900 1.12423091880871 3.7795861509066184 2.6552670132721485
2614 2.6918858011500015 -2.2145519866883623 -3.7292168970525257
3188 2.915241890810271 1.2898536887941678 0.3111182518346305
2902 -2.2009685362670908 -4.163802763504788 2.776504013610239
3476 2.865003338595133 -2.840017911202317 -3.268341607183701
3190 -0.8604999883793368 0.3345248714372829 1.5594513006002606
3764 0.38293547766821123 -3.2446975061207532 0.37068495479309377
3478 -1.929741355442996 0.9314861168293498 5.14198448982067
3766 1.7687984200132303 1.3107286693865348 0.6233288706881149
2937 -1.3355822563524822 3.139175376460551 -0.28415713608317694
2899 1.25702521333841 1.6457838795532105 -3.035627957938582
3225 2.5346373161114673 -2.751775124271944 1.4858331724453318
3513 0.4510634811679446 2.377728363038043 -3.631763441805728
3475 2.4990304723509174 0.726020300732828 3.1515926274605817
3801 1.343162382703456 2.5287692564247486 0.995163793376639
2647 2.6121655747927317 -0.6972868267011134 -3.9466127758200393
2650 5.3899240305471166 -0.24061716685782783 5.623383249907194
2973 0.954129517674461 1.4697716531252125 -2.1256462025511684
3224 -0.8750903506527874 -2.915192213720129 -0.7706656365504847
2938 0.2890015617240181 2.966642213632612 4.583645510726328
3261 3.3975900465789364 2.7788287823591467 0.1953971576735589
3512 -5.069481368586796 0.6178674117408671 0.8322755778350586
3226 -2.0675898734896414 -1.2463844539980005 4.529715193049217
3549 -4.5784223345659125 -0.9350541396360328 1.9198081458129848
3514 -2.151724998799556 2.357604403752508 -1.6285258014731308
3837 -4.238514416004423 4.63336612526046 -3.5262269653017118
3799 -4.6518239663519125 3.5412367290696625 2.9518212926024394
3802 0.6614937826702751 -0.40636236665627723 2.184780180263449
2972 -2.702041241556184 -4.300461216228543 3.1524850119068524
2686 -0.9175457092805003 -1.1101779908327396 -1.0676420130273383
2974 -1.7615559010322 -1.231943029261809 -2.043913068439649
3548 -1.250774410825438 1.4545271632386 0.028109718041219513
3262 -1.614541787988515 -0.7303229407998268 4.28329687283197
3550 1.4219989392471877 -1.7575018136836187 -0.005460593631369986
3838 -1.884894915414452 -2.1807276679640846 -2.110572632946189
3009 4.190217790531442 2.9393892506950925 -0.6502508610039753
3297 3.7158374466372552 -1.0227484356891916 -2.53838946566386
3585 0.13901894557034525 2.8528439134593566 0.04007961812573636
3873 -1.434845383972129 3.3200399213387533 0.6540487337034799
2719 2.498037951008171 5.276667742617717 3.6324787109065446
2722 3.274722655938672 0.8083389213758577 5.186685127569885
3045 -7.487460347374612 5.128966264557943 2.711253475618392
3296 -1.5196352519452954 -1.5982321594725424 3.124218846382123
3333 0.4961164775961455 -2.4643441636518975 1.4753400084216692
3010 1.2854274786741229 0.5042596412917224 -3.1221261654323342
3298 1.655051477210317 0.6517502300332078 -3.713416913544193
3621 -3.720001348132341 -2.6592736442845295 -0.5728649706424388
3872 0.5162163632265843 0.0891224644586827 -2.3073489314826823
165 3.050628199426372 0.1074461909261738 -0.2163400273289222
129 1.195288623652572 -3.044622686774988 -0.9636554400332241
53 -0.6737447374546902 0.9019350903605914 2.144741553993808
128 1.4744378593245855 -0.4521141646824357 0.3742283672270526
89 4.135773287632822 0.11990005255368831 -0.9798553041825119
56 2.5116130467859414 0.06591297703885472 -1.428709146964042
20 -2.023222649707108 -6.785647041750335 -1.2756236107398624
57 -1.525344825492957 2.215735899873278 -4.482347481159053
2618 -2.129764081365755 -0.5258149089143213 -0.15739430701759433
2904 -1.283991472703463 4.155911662299678 -1.0205853662053173
2906 0.5433766768624113 -1.1952822862481247 0.4652571415476436
3192 4.6511503469817965 -0.8796377740516894 5.730538718974164
3194 -0.09107666900194505 1.778755576685444 2.151407322028283
3480 1.5880019621560089 -1.7090070203349699 4.379069757287273
3482 -1.467592532957296 1.177772373236268 1.3384506252401953
3768 -0.239095036723777 -4.095127742840617 2.778582436067201
3770 -0.5741682357568456 -1.3706921146827604 -0.20289905868323685
3594 3.4002530606056225 1.0774505977415405 -0.9075375630613959
2615 3.900352065442479 -2.1167816879899988 0.8399145604525946
2941 0.028066769891549437 -2.7231528108023992 3.2736611421841912
2903 3.6892938188078324 2.8705349486499285 -3.0218657477422752
3229 2.681790656383789 -4.077068577307816 0.23317593865188316
3191 -1.087576126753111 0.8511675589748161 -1.5574438000977329
3517 -4.171663614607221 -2.134504436606776 0.9378822825625556
3479 3.7319411214331337 4.536678675392536 2.3912362187711502
3805 -0.4976591584203937 -1.0211680089997446 0.9715985840280078
3767 -0.902257926873351 3.9778015570885716 1.4549773726233979
2940 -1.0871221768710637 -2.135620297536957 -0.9994844045774043
2654 -1.5215817946005532 5.357043545116659 -1.7658504824560775
2651 1.9972913767481781 -1.2203089139201895 0.12553270250800252
2977 7.3602925882064305 -0.7688575110541432 -3.870595809288119
3228 -0.6154815179434598 -6.705467674374043 4.244709510279699
2942 2.605807625108223 -0.02515008677278153 1.542340070488007
2939 -1.7482191208352325 -0.08510026466123434 -3.709403937305342
3265 0.33245101544633876 -1.8920341622511274 4.041117257881988
3230 -0.8586908824347546 0.9456586733518784 -1.9383187703032574
3227 -1.7272331845848399 2.2739954463459995 -4.999217015505032
3516 2.913744524446411 0.33025649833614934 1.7600910135111993
3553 2.4224363611320596 -3.151463062706546 -0.32793712526762175
3518 -2.3851511182811036 0.9025780786068109 1.2751879642354085
3515 0.6834081713636153 -3.98365576751403 -0.12653511634500908
3804 2.1999794150237255 1.3355807148187555 -0.7340822597480061
3841 -2.4356905332426613 1.4169354329700654 -1.58069660454013
3806 -0.6972596817524039 -0.15145790934894043 1.8457957686313604
3803 1.821953324535879 1.2368963490352747 -3.1267289835922494
3879 0.6186213469022352 -2.0765185262475883 2.354178706385589
2690 2.5881341842915178 -2.572752987796166 -2.157040967151677
2976 1.81144691057037 1.8963786741862716 -2.2036319859766595
2978 -0.7164830089369715 4.264713133275687 3.486045843678766
3264 0.5114018866035533 1.8768309627765227 -2.9615997238300373
3266 -3.6326105084177627 3.1180464119950075 5.838449618950302
3552 1.8977316573976142 2.4620279118415436 -3.1021514238449606
3554 0.016703328615549212 4.62115850118191 -0.011123395664563131
3840 -5.792635165094129 5.473703164520408 -0.9955662825737717
3842 1.462826568660367 1.5869041002093263 4.79405963800697
3917 -0.8981683777369596 -0.8930512421048639 2.6819083874683796
2687 -2.362123505778711 -2.156556533141413 -0.8135514889281961
3013 3.0012093448547943 1.4715267096148252 4.091818558405632
2975 -3.8301336455015855 1.192575648921786 0.6141955577190386
3301 -1.3983870818861344 -0.16184873317547735 0.35285884852751614
3263 -2.1303820009675998 2.3317598177842167 -1.6655845294466582
3589 -2.7536843494421435 0.8532948720676999 2.363703219860197
3551 -0.6843390061973249 -2.599043089168226 4.345257073011697
3877 1.1113102496197678 0.12796329108095936 1.6502807789691976
3839 1.1313255970129967 2.427203129417398 -0.9899559023954995
3012 5.410237329204216 -2.314494192367699 -0.091996991167862
2723 -0.4915625769644289 -0.4316455994779764 0.7565832625085898
2726 -0.5124862073717777 1.2427126980093726 2.080856162061238
3049 -0.18740234963621386 -3.781557616987394 2.0914642050405745
3300 2.602914905569022 2.432118269130853 1.7351780159243144
3014 -0.7132121587506384 -1.5592348109716274 -1.2954377208146612
3011 -1.6709684411482362 0.6194951096819189 1.3665299210086896
3337 -4.974670854083705 1.9960700398236904 -4.460686138569698
3299 -0.8775711333249343 -1.4221348659197022 -0.6067657510380994
3302 0.48419244874270034 -1.642261259743164 1.251265354854384
3588 1.9149975784668327 -0.6831587485898452 0.4371974755752619
3625 -2.775531277620251 -1.7526974211223718 0.8285631912335316
3913 1.3988210993178933 -0.8908845415338602 -3.250390102273396
3587 4.537729769483969 -1.6414288661117742 3.095168155743953
3590 2.226709922409862 -2.302444486345277 0.11195819184575385
3876 5.197082633607919 -1.605041417480864 1.8210448872780576
3875 -1.3214625119282088 2.0310517516066673 -1.7346022526760123
3878 2.7698060906648543 3.448344207634105 1.5675226111595555
3882 -1.3187465458145335 -4.060188277172059 1.5838206357942388
2622 -2.069918484262326 0.8188306084129796 -2.0404254394105568
2908 -3.814517470295228 3.767138250390102 0.5151025843621194
2910 -0.6132085045357111 -1.3929699560271795 -0.017743259525455524
3196 -2.6539010852188203 2.6903807192824964 -3.780838974427706
3198 2.8363409970414915 0.4367361990720496 3.1022603527158017
3484 -0.6358202289479696 -1.32468743006484 -0.5567063233813411
3486 -1.4855119428963606 -0.20359608923519035 -1.2911949772231375
3772 3.6984873487385848 -2.610840089767578 1.134341329456771
3774 3.0342840794087804 -3.6178587198556564 -0.5363122261909449
3880 -0.029696297743501292 -1.17710220879486 1.8073148382593849
2619 -0.5395429363203029 0.5666418339420013 -1.8203311637331625
2945 1.601846740442982 -0.6375233454623114 1.8389107109506555
2907 1.5260767581979635 -0.8408539980163218 -3.0394995100782674
3233 2.0809215878809937 2.5280418299279486 1.0781626607734571
3195 1.3930160560512783 0.07842271299832627 2.739351959582883
3521 4.583710633912508 -0.9154273047846274 3.66837684507956
3483 -0.07032481113905893 -2.5835129633858327 1.0384777864884864
3809 0.016078617175239483 -3.1473736584609298 0.02833672224076836
3771 -3.0172320754359587 4.043002418007267 -0.9005361900630426
2944 1.3595089637767555 0.8893575617593127 3.6093279586119666
2658 -3.568855886716934 -1.5619788192628599 -1.4629025110561542
2655 1.6850038674309311 -1.9584247091024478 0.06916142616233262
2981 -3.3492167158513046 -0.8939677795721166 -1.5806704809671217
2946 0.4289143766185493 1.3947150046600365 0.20103166772329267
3232 3.1599862320122245 3.6319338298601664 -1.2764532837922777
2943 -0.2797638459330386 -1.1852013004827575 -3.5292205081821653
3269 3.9846925397246573 -2.4526332625826743 3.9963525197205874
3234 -4.45541928313339 -0.3190553212983478 -2.0075693505991445
3231 1.0149803570642697 -0.651384763720803 -1.8355853678418372
3520 4.886504837234028 -2.990299985012197 -2.356841757042246
3557 1.2306405804449492 0.14413459854761487 -3.4303648696798366
3522 -0.6001596186232462 2.2601164074767013 1.822770699422543
3519 -2.3138181347850697 -0.3753300522988614 -0.12976599124566982
3845 5.621672054401897 -2.4048540454721863 0.1287517568700249
3808 1.8289635328565463 -1.4019884739404782 2.911711298687196
3810 0.6436269713112291 -2.5280797274720537 0.14536028277937757
3807 -2.4306273494582427 -4.343890995941791 0.15778865452036542
2694 0.3940211692602347 -0.8947054950536467 -3.718909088638302
2980 -2.4049136344706774 2.1764584198575054 0.5606415831353498
2982 -3.1035619496122324 -3.7932578505683194 -0.6911492706878714
3268 1.2255265908315776 0.2575971553090863 -2.5454896973633456
3270 1.6535357995513553 3.0790305550512453 1.1137442781982092
3556 1.3014611165555419 0.6368668146324113 -1.5129408433363525
3558 3.287220540755802 -3.877656559183158 4.267156807907463
3844 -0.44919438749504303 4.7072971757319895 4.256042060940043
3846 0.7923687890364222 1.486497978000727 -0.8888163921857263
3591 -2.9784109368638947 3.821701290779052 -1.9624002475652471
2691 0.3053439713785601 -0.755060881863573 0.3657443942139446
3017 0.24707897197580375 1.0949542239453125 2.2161149732017384
2979 -3.1155069766229317 -1.595211614591325 1.0549997562951672
3305 -1.6307715313403863 1.069531972642218 -0.6313530657400376
3267 -0.5054547563733883 -1.18684950365461 -4.064251283732623
3593 0.6299466841642759 -0.7563993089056958 -0.9757037270317044
3555 0.08439174330778093 -4.450474000919344 6.8811122906166595
3881 0.12168042526833756 -5.2439111325381065 1.3720401458507983
3843 -0.13078618780020415 2.1729278243916847 2.5654764323242887
2730 0.909521252657578 1.6504577680078443 0.5168819230476053
3053 0.866790894597868 2.2542387136426876 -1.7356724693234835
3016 1.0005053428337436 5.264175945151098 -3.0991386685943008
2727 1.1492896631865779 1.396023042920601 1.4239758159010305
3341 -2.260963785242094 -0.02786798652133439 -1.3824083183398816
3018 1.6797579168076269 0.7667961250907765 0.9943829408601544
3015 -3.41919525903021 -2.6268981376254277 -2.443161909505885
3304 3.675879346775227 2.6911166350547426 -1.8639004682780858
3306 -2.7361509699872038 -1.9438374134457503 -4.5209732827992015
3592 0.10151655995932332 4.134349779957495 1.9973232449521523
3303 1.399468763614414 1.7007833739111098 0.45296866740373204
3629 -2.861944812644204 3.0609639605746772 0.7909016424261313
132 1.2729535896740514 -2.7278362785888697 -2.0084449152123143
169 -2.042760609603164 -2.4945303657830156 5.754338412122964
173 -0.4672668313099489 -0.9708957162665539 -2.1788515292937367
100 0.07347483530170093 0.38785911744910423 0.27397983313785024
101 0.4055183781657949 0.0959113012764012 -4.691451628927403
24 2.6542498822394833 -0.7851217039744435 1.5243852661893227
133 -0.6827153751514249 -0.7819845110848733 -2.4842896658819678
2626 4.174481630313502 0.25653855012590426 5.001914249610733
2912 1.3731961667589638 0.5957516378354009 4.694836082184666
2914 -0.6039076177324187 1.970943066016695 5.065123789088384
3200 0.7520408794401422 -4.816130780819369 -0.16327565350493778
3202 -2.8361001709745737 0.6177747877071127 -1.2288753924231735
3488 -1.0769715607007948 2.888508390635343 -1.6323240229901033
3490 -2.7836012749349517 1.7550583820593764 -0.6243732149420866
3776 -0.8194576663454923 -2.6253694989673764 3.352653008598472
3778 -4.29176167817728 -2.4687976020491096 -0.9590530276868099
108 1.6936497005288498 2.0888588340451086 -1.3711767385432747
2623 3.2198132743165635 1.8574053766320975 -0.774146320400487
2949 -0.5505922909822034 3.126580036143814 -3.1370027596383556
2911 0.7219315075018385 1.3614971352388963 2.3880012021039967
3237 -2.8374513874158467 2.178234906338436 2.256051551192991
3199 -0.8114394999585194 -2.645298386686015 3.255885697598004
3525 -0.3999514017302313 1.5283763135080504 -2.6973502148703092
3487 1.467895182553887 2.7761153206793217 -3.068942962288345
3813 2.4068747424652956 2.1418730837601783 0.09861749486656458
3775 -2.6421595625526333 -0.6010854172130067 1.2850462767962991
3887 3.8053031114344686 -0.8149681758154468 5.01457568012489
2948 -2.0471000125828867 2.057360682988097 3.5776227058393513
2662 0.2439937372169723 1.8818504891193994 1.5883940341472156
2659 -0.6513634681895385 1.2724334420519614 1.2666067882891738
2985 -0.9002902881775408 0.6363989648905868 -1.434271613922278
3236 0.42895524438652316 1.4702910647651632 -1.362545558183426
2947 -3.3125935006783265 1.5852086034108197 3.6316476689784936
2950 -4.352810605540016 4.062504308376957 1.908925529908599
3273 2.358214172358195 6.23834885409423 0.19021970362877724
3238 0.6753226421076375 3.9143360551870154 1.7010787665058869
3235 -1.0110278666085726 3.0220458699039168 1.314869576494428
3524 2.9506729613764597 -1.3646204133299231 -0.003420034153069068
3561 -1.3968092196417659 0.21768431354032175 -1.6267585103644486
3526 0.46869932845257184 1.0511398174352728 2.109125549036025
3523 1.9349252152648988 -3.4701401533783494 -0.7799545816593175
3849 -1.958384045194515 -4.317619970463117 0.13873114798298383
3812 1.4370114150039754 -1.2929018202784734 -1.632394122005742
3814 -4.854451792944364 1.6299719598265272 2.3100604335855524
3811 -0.8054165042954754 -1.0610881891945727 -2.7526809558731817
3599 -1.9219219928949256 3.016729232181795 -2.4761196415475557
3494 -2.2555736922783254 2.299114314475703 -1.8210801730048631
2698 0.8476059636179702 4.619323460138237 -1.6674547861029387
2984 3.9069183508581165 4.663331403298275 0.6054536387504111
2986 -1.9334620583483233 -5.584702014903233 2.956203020707977
3272 3.1649030884436926 -0.2084030174043915 0.8800969705190723
3274 1.319973081559191 -0.7839046888989392 1.1155276501189941
3560 -3.1822093348870535 -1.5935781183594384 -0.46916752222455926
3562 4.288163093957214 -2.310901997961495 6.038594067378988
3848 0.29116400930321246 -1.5068998030833496 1.2896466013449686
3850 0.6960911178623377 0.4278560206698497 3.3481367648608025
2695 -0.978223806559213 -0.011968328018880694 -2.201697501099673
3021 0.58825540686577 -0.944325605935838 -0.5746217984670288
2983 -2.5309876057878506 -2.0788309645918295 1.1766094450801312
3309 4.290871670641519 -1.9085618401263615 3.6094040003567645
3271 -0.9820658112076973 2.053154700953779 -0.49626224331286223
3597 -0.46244464269549723 -0.38749448973432676 1.6827377427223675
3559 -1.0269237693038311 -3.204437911457325 -0.6849171110282172
3885 -3.9849219183609623 2.6579721998151493 -3.5742148495293318
3847 -0.35800534378960563 2.3087958377856 -2.0910084617965836
3020 -0.6782555668715524 -1.946752631368651 2.4163266591061126
2731 -1.5481009517164126 -0.8759791401233048 2.9762542959930665
2734 0.5070634160431381 -4.029557316538714 -1.1259929281356904
3057 -6.407394134740842 1.1797148019198727 1.0442942472835701
3308 1.7487767036410204 0.04973529844551808 -0.8292189032740919
3022 0.2056036111321306 0.38635570827646876 -2.9926697741547055
3019 -0.6738865848446918 -0.8460584023272383 0.5593957590471607
3345 0.7820151769302974 1.3664559310880309 -3.071291409944722
3633 -0.9856795916125369 -2.8311667359195485 -0.33575173936350766
3596 1.272998124399287 -4.661975812927768 0.6980637223813592
3307 0.7002620531574557 2.2963220009855876 1.5885336850084053
3310 -2.5978373995939377 -1.226502581050356 3.2231070567226343
3921 -3.807210235140902 2.3608183993998315 -1.7469097883943272
3595 1.5105458912026086 -1.3389222067258602 -0.6068818368985317
3598 -0.9650230416541118 -1.030571968952723 -2.040220884392793
3884 -1.4474757503604612 0.4192930595144724 3.517104155781799
3883 2.5866872730316293 -0.5125220876000525 4.838020880483305
3886 3.983551305668678 -0.4939180045895088 0.934063637832743
2916 3.9119536506473085 1.4253193552131591 0.47279808848685106
3204 1.2206217853004757 1.0589371932335043 -1.369158298937527
72 -1.3186141723869944 2.8823106460059926 -2.0389638191392616
3492 -2.559714829911157 1.865037715032098 2.8407830212902385
3206 0.17731881706755084 0.15578840715680045 -0.8534694957832786
3780 -2.1633496058538495 2.3805887437132536 -0.8238817997264868
141 4.803018029861835 -2.733920562702812 1.3914291500349656
3781 0.680306325604897 3.7704643868911956 -2.221627668952923
3817 -0.046618798595959965 -3.886957889102819 1.492885208523918
2627 2.669237991476636 -0.6656025816138789 1.3801580518583911
2915 2.659377639998937 -2.868428881026496 -3.211732294554307
3203 -2.68051767205431 1.602402289786362 -0.33826420153251663
3746 -6.641858381843011 1.8585136769538637 3.1772855083999625
3491 -4.5231374666488895 0.9808002857118893 0.33935817537924295
3779 0.6974674413750703 3.2003269707157123 2.91512102216433
37 0.15753976371767864 -1.353886119981792 2.7584918825644094
2952 2.605372055818652 4.95611937449172 2.4318984148143525
2663 2.0955420626857904 2.1570598221042054 1.2974526313463763
32 -5.139055301820114 5.7830801130114065 3.375403271627542
144 1.1528408298395296 1.2855609749641626 -1.6931843034323386
3240 1.3147794087945712 1.6877552260968571 0.377184242102598
2951 -3.278589950637717 2.7885144299178704 -1.4317180557851739
3239 9.750112542493921 -0.28424619260909695 -0.8827413548579809
3528 2.1063964706333382 2.4872610963967623 2.498245080742017
3023 -1.8379087200094362 -1.3200326022761613 1.9888083013815008
3312 2.985348381931315 -0.6190710217698759 -2.381991382698579
3527 -1.1491454124999283 0.9238618815486348 3.066177879777334
3816 1.5872508817442497 0.30251378549092867 3.9551002807479274
3024 -0.34447233739460087 0.8276479214366133 0.3030019840299637
3815 -1.0040350148038393 -1.084813034090654 1.6259079706110586
2988 1.170625103904006 2.7518594589246437 8.175604264966983
3276 1.1402712756795776 -4.078042306735614 -0.9624234952438075
3564 -5.424007196917972 1.7099717197192221 -1.4563777978259027
3311 -2.7598202803370073 -0.5003218710022116 -0.4989145519036957
3852 -1.033364137081428 -2.772810390074118 -0.06235539462671773
3888 7.011244328251867 0.8054780197541263 3.3981826960930555
2699 5.48169887488983 -1.6876233057530514 9.70526635903861
2987 3.6113730028051214 1.446571492321617 -1.6340177001271539
3600 0.7198798995999353 -1.2033268458047661 -0.3560309757438303
3275 -1.3079557062714695 1.05066768303591 5.599705773723688
36 3.0957343717526844 -0.49832039797263267 -2.28786202608544
3563 2.467210562369828 -0.8170921966138986 -1.5884190683336727
3851 1.3991789275489863 -3.4144416008004774 -0.8143230909688401
2735 3.567840614414307 0.08639105758413165 -3.010474735242191
2918 1.146734695656057 0.9582878734112317 -1.0508072884350963
145 0.9443347386688106 2.6252922309151354 -3.101644766310116
3601 -3.9974746357397724 3.5806656988548236 -0.2265183795783928
3458 -1.0236735511943431 0.23507441814650987 1.1871145373608099
3889 -3.3202835994132913 -2.8537645441927704 1.4055904555246543
3278 3.2182484108750393 0.7153039475154568 0.4744194350645245
2702 0.5443201002171568 2.890797280370501 -5.03522011216485
3241 -2.7004929361760333 0.0753875472186344 1.7620394302216429
3566 0.06294383842760892 0.7342402082372347 -0.9243703136788235
2666 3.596625257816009 -0.6826056406088193 -1.6854256332972564
3028 -2.488196469481949 1.2924042459753275 -2.1684938910988816
148 1.8027912813248699 -3.830504300731266 -0.6965736691795352
3316 1.6209916069679093 0.1803441989036052 1.7076345577924288
188 0.2966986486319631 -2.4644637696273466 -5.571253498251269
3604 -1.1322401790607772 -0.08771900909258269 2.3617643028724213
3892 1.5934808384849077 0.9770941134973559 -0.2701028758772869
220 0.579874133599659 1.1557652584361586 -2.826912345857328
2739 0.3256411630240314 -1.5638429927469168 -1.8391920270117372
3027 3.211152981053094 -1.8210167704008158 0.1425593699328445
257 0.30693044231971717 0.8529329648034211 2.9655664912308226
3315 0.8883603843674865 0.4587577689266314 -2.393018429065697
3997 5.0627074683722135 1.4568564093011018 -2.029112304996647
3603 1.6966051054101363 0.18065555277721737 -5.802020629951577
3891 1.1039249311781953 -1.9252800034142794 -1.274795258829966
3064 1.4614762528052134 -1.7593193537924834 -2.3717635556907273
2775 -0.1610342352097972 -5.448673365873197 -6.0021900126797645
3352 -2.219594862469563 -1.6078734118688738 -0.9413654787849216
3063 -0.0792231078295542 0.3292158414583951 -0.39226133626639587
3640 0.3009091545274312 -1.5461266109846314 2.2200692703792266
3351 -3.1565418331086996 -1.1840497222554647 0.25112205748683425
3350 5.1979906036046515 -0.8355208120915439 -3.6231413907461696
3749 0.6903909479984961 -0.5724359487154007 -3.116964172205042
3639 0.09555342339183065 -2.8066006451765144 -0.49686799685827815
3928 -2.113730414446813 0.24926955233448123 -0.1790333343047784
224 1.1269409237799448 -2.7547905594825703 0.8650562781422255
3427 0.586389039477283 2.26122497250519 -4.048101321170484
3927 0.9287349517074185 -3.6732106955765427 -0.5916267719250665
3716 -1.04727193903479 -2.8663035413638314 -0.1703196692537734
4003 1.1517074787926418 -1.7956241014798788 0.20945228750971762
3100 -1.214226431131867 1.7336235020136066 2.100718519796412
3388 -1.2543285233541286 -0.3939934992991115 -1.9983820249193263
185 -0.8574263389071398 -0.6758407748096588 -3.877942139879112
3676 -1.9410456131553129 2.8518109385420765 -1.6654338833284832
3426 -1.0119084194290253 3.59140865344681 -0.9083182816946352
3964 -2.2034975972831243 4.823265189764113 -0.8690292224636621
3715 -1.2827475719962704 0.2467140812999765 1.0150427254827104
2850 -1.576951774727345 0.8934790293926856 2.7522787718756705
184 1.2381236481292452 1.1458820070142142 0.8918145216448735
2811 0.7298813885752449 0.01834972325700425 -3.522665930049222
2738 1.379795486103968 0.35875649981464425 -1.065158988548175
3099 -3.557379801768857 -1.7877861662193295 -0.36133295499172136
3387 1.010128390783142 1.1851099454567018 -5.764178095343308
3675 -1.7863216362009715 3.8633542808645442 -1.5090323421015617
3461 3.548583611036483 3.8318857632478562 -2.098055637504944
3963 -1.0064359993553458 -1.417662874555227 5.307267616455604
3136 -1.0634958433850987 -0.5465974475055382 -1.9517358278524257
2847 -3.6065528001245917 -0.2633965061035549 1.400165344938319
3138 2.979146040686314 -4.578509929500809 -3.0152448348499217
3424 0.6854756981389005 3.0238870569803957 0.7245047034489842
3135 -1.8275646650217783 -2.3632703245113342 0.5305235702992285
3714 1.0274185193550949 2.2951887082191567 -1.3220918681660838
3712 4.8229042870539365 3.477558358383533 1.5079165409210704
3423 -3.375415575082548 0.8751342507416148 1.7084277832837877
4004 -0.8108099679265552 2.5924080050050424 2.126468400401454
4000 -2.8348112069995874 -4.603697279267164 3.790785828120454
3711 -0.8385987428189413 -0.9784941732399127 -5.8089517761521545
3999 0.1963263034469579 -4.305156623305106 -3.3928610691550634
3139 -1.3144329101904655 2.1113722078580364 1.553135437871177
2742 -0.04999025002018028 2.835304093288831 -2.5707987206568466
3032 0.3096167407637387 0.40722171506140403 2.229374219360721
3030 -2.2899029381007376 -2.075438956905457 1.1148780337045483
3320 -1.7684365000514872 1.7694005511373447 -0.21982388617333418
3318 0.47273626375016414 -1.2328724474971717 0.2487371279170549
3608 4.310692146715582 -1.6549884992673567 -0.26666147370912285
3606 -0.2784544686326084 -0.5307667414791796 -1.8778932854425385
3896 1.2566123037610561 -0.8505879358175816 4.292462766372332
3894 -3.4211659334240636 -3.094848945966125 -1.762674276699981
3065 -1.943095238716308 -4.724097492664762 -1.7749501450309078
2743 -0.8401292496418318 3.360528656615645 -3.826736971787811
3031 3.859457453725407 -2.249181653292377 2.478468184084161
3353 -0.06744894130285405 -2.6771427342779544 0.05482516526722658
3319 0.7168358931691561 0.07100850361895061 -0.467179194029134
3641 -0.10058525354994052 5.473027360678421 -6.771420173968672
3607 0.6411784160950128 1.2251206302363573 1.6498771761293687
3929 3.0072889595561825 -2.8617482360947455 -2.165665601592438
3895 -1.24425489644223 2.8908507027202446 -1.67203322728152
4002 -1.9914564888212265 -3.3103237260799334 -0.9901827839626177
2779 -2.244598988499254 -2.469418216336607 0.9131002627623959
3068 -2.8061629981391447 1.9546884160713656 -1.8857870295964885
2778 -0.2981582202260195 1.0342469037711888 -0.8407880898649555
3101 1.1486934206122656 -0.927266679428839 0.1842009413930413
3356 -6.416082228149469 -1.993415953692194 -2.7461772838749563
3067 0.896158153675144 2.4865122792863676 1.763702833288406
3066 1.5129404283000367 -0.5100132934493515 1.5237338764749124
3389 -4.901696553961245 1.1563785033980771 -0.816399140261859
3644 0.2537098274035252 -5.104570671129742 0.5415461519789307
3354 2.443082348453539 -12.960455703250423 5.965777491160385
3355 -0.9635826783801849 -1.7884327314969755 -1.660081110874866
3677 -4.882136306807234 -1.8944527405549945 -1.9936743006820303
3932 -2.8833792311822144 -0.7374520615413415 2.849010144139343
3642 1.4435848388316272 0.21050132146380707 2.6284326083315754
3643 1.848473133397556 -4.012770011179338 1.9359852077095496
3965 -0.6670567466556007 -0.8559029342244927 -1.028779883449555
3173 1.4272538469655751 -0.9311845208066328 -2.901190620348063
3428 0.8044097244797964 -2.6343429473082094 1.9376064947037321
3930 4.8320034107998575 -3.9171200838937925 4.954489181383313
3931 -1.5051394439512769 2.0139913388016417 1.1753366108393777
2814 -4.845683796410092 -3.845709239233774 -3.4609179529019247
3104 0.056437445068387514 -2.348958527735331 -0.1685416032562939
3102 -0.641570185224284 0.39519286830405803 0.015179879571701912
3392 -0.3892000029346002 -1.5650458857779161 2.3772043711058433
3390 0.04319219743888989 0.3839269960654926 1.2686471290374894
3680 -0.865611294957381 0.4081156844074895 -3.862790772990663
3678 1.132732062472551 -1.4491116289804113 -1.1393648903611537
3968 2.9868555663745977 1.9623423119798393 -1.047890554285506
3966 -0.4770119234226091 -1.398210665331667 0.7695828157222012
181 -0.7901221274168351 0.05835624194362802 0.8013507065102441
2815 1.12752037326497 0.838115558670637 1.023052429907899
3137 -2.964287912713876 1.0717893221140493 -2.2450944216576927
3425 -1.8870592040687086 2.0118004179596665 0.05235053624256191
3103 -3.562521502058648 0.5140238769796368 1.7282323423852226
3713 -0.5712346796583918 -2.5731533630681 -0.7928472665884537
3391 -1.0347862945911 1.036943346996238 0.9851184759880479
3679 1.3004621061034767 -1.5229243814555127 1.6954516988577655
4001 -0.9465332286144107 3.5482302241215127 -1.8843302438197131
3967 -0.6702807254051482 -3.2179760464807092 2.2519848981738853
2885 -1.930035481253165 0.8101974276873266 2.028961772676966
2851 -0.6372436127269179 -3.504724842478176 -3.2685459960648733
3140 -0.7934242472368757 1.4662293766495493 2.1392870495379666
5 0.1155120124610204 -0.31178125343040697 0.8587627309561826
3890 -1.7425940971604592 -1.2410224098656413 -4.2427615873038125
221 -0.9852355278565809 0.48426967443447677 -2.174537906322843
256 -2.791395684532294 4.009402084466523 -1.6151371956916833
3026 -2.814954781548162 -0.6792150408189074 -0.33859035730115283
3133 -1.0440123642911876 -0.8347366067383201 3.051346082931301
3710 -2.9162267693800694 -2.5324557203364124 -0.5937485077542427
3709 4.296848654801446 0.9997143912128803 -0.23110049399828683
3961 2.0530009647542995 -0.7278478460590262 1.2291193384619339
3962 -1.1276104168164522 -0.6536693871192804 2.059350702661373
2881 -0.725362353325341 -5.071251606210577 3.854789372554595
3925 -1.6469939159480356 0.7970930592779717 1.9087888926945604
2746 2.4010259561803737 -0.2139515476686527 2.1254159232414356
3036 -1.454184319799482 1.6716809680925382 2.6315070082945686
3034 2.244168226194095 1.5588959602833632 -1.0769678435546552
3324 -0.051031785956742085 2.9668661561545724 -1.1954265670048474
3322 -0.4508607596499036 0.5881654184975911 -0.7949016770036473
3612 -1.3077661078594525 1.1461950061654587 1.3629969442377041
3610 -0.9525466729764994 3.90214402554632 3.7971892510096645
3900 2.95603698673218 2.3067733714585756 4.098935182075394
3898 -0.37520597234885844 -4.65999836518062 -0.030407853650104576
2747 1.9450705779768733 -2.565511159012317 -0.042643814486525676
3069 0.31067730571917596 -0.7059369427076779 4.241048185515608
3035 0.496482467173242 5.016520412377429 1.2984898934099254
3357 0.49838862452899974 -1.5197138204659706 -2.507443713164931
3323 -1.7564823435568244 6.4892339623999575 -0.29989089918163636
3645 0.9494601013950973 -2.360111155872152 -5.945828096135884
3611 0.6155191396686144 2.62831096528075 4.351963483010809
3933 -1.2068257085046972 -0.39844222472212715 -5.537757932309262
3899 2.692050273635379 0.6118450035467345 -1.896234324996983
4010 -0.6426146631451125 -3.6822257287076647 0.5360690145391926
3072 -3.396461007468132 4.851544692808219 -2.2312213174831705
2783 -2.002263355380218 1.0046184144323798 -1.912825065696023
3105 0.27519767293718655 1.754860908640393 0.32247193724517353
2782 -3.31559358150806 0.8689052613362159 -0.10953475994366649
3360 -6.104380129252067 -1.4415178315853971 -1.4269301292020196
3071 -1.571361205746881 -1.02666713365941 4.413280765798336
3070 -0.6747962874043588 1.4586478848636286 0.7436321103010912
3393 -1.5282320472659208 1.0320719654510142 -2.6853790743944104
3648 0.30476007401670796 -0.30738292811430185 0.11604882287628625
3358 -3.3255922872303674 -2.910698411045727 -2.3802136932532543
3359 -5.2965597323285944 0.2729356736270172 -1.092570377415169
3681 -1.2450487720012942 -0.24546550176881443 0.8929475011998538
3936 0.21402556887834995 0.5162246223610732 -1.1656722991817337
3646 5.373165851568269 0.2543284745251367 3.6063867825878155
3647 0.9955085432792964 -5.165056618305119 -0.4586999465527125
3969 2.0863635016616007 6.476250779533735 -1.0955979245886454
3934 3.0860551357406885 2.2876709324180577 0.4648529579316422
3935 2.127073190012425 -1.931328433854535 0.3900435653472253
2818 -3.1253784322978935 -1.665413723766595 -1.9136607053442867
3108 -3.494036405133293 3.181673788080594 0.3821520527484247
3106 2.034316040233001 0.6874083475358137 0.45727922651450315
3396 0.1642133751403971 -2.8125445359345402 1.4753720788354538
3394 -2.8594603478974654 0.4331269479369218 -3.0423328936751224
3684 0.4145371835825037 0.4413002584380727 4.164304164816572
3682 1.1039762407949074 -1.6308010994779543 0.08794253857003684
3972 4.868362737835212 -3.642129035448773 -2.2233845070733316
3970 0.5670957019284042 -0.03508817936121819 -0.9076026342135641
9 0.7628921737726139 0.9437671004454881 0.7760764863163615
2819 2.5441253572777836 0.22640433734378096 -2.4073641721050727
3141 -0.18493652923650925 -0.07780919374282153 -1.0530857677187384
3107 -1.1825043137291351 4.100456550419979 -0.6327499715039461
3429 -0.40714858998174636 3.985774568222196 -2.3238949689216315
3395 -5.055110186160169 0.4189677199021322 -1.6082507731112965
3717 -3.8652022336436036 -1.1402435886019404 -0.18340625688738427
3683 -0.6432809364617039 -2.8938406821233893 4.8482210153757705
4005 1.10532438242375 -0.652015573792781 -0.555701830672388
3971 -2.259021682433245 1.8616574390994132 -2.2327316369843127
3722 -1.8837605551329775 -2.040219215374814 1.3308205593218616
3144 0.24717411736672223 -0.5147867305782272 -0.41196059295879894
2854 2.6910965465207193 -0.8814188020964577 -5.233767828656275
2855 -0.6364068672613022 -2.734011052477532 1.5406310415644464
2889 2.7106534980735275 -2.4526579570224807 0.9142897365088047
3432 -0.4959733913318892 0.5744058375090438 1.9640355140139218
3142 -1.4673301813541413 -2.3327721910018586 2.8326045831399207
3143 -0.799307290703977 2.021474544166783 2.6941106284528424
3177 -1.7602965951954619 4.075724611835895 0.4598195798104068
3465 -0.28431705595213547 -0.25198830309273024 -0.949370391996836
3720 -2.214345256496002 4.105676382261486 4.916834974107253
3430 -0.8728453390582023 -5.197127417686897 -0.4941070414925529
3431 1.6634049079391529 0.06664511458709745 -6.401864675958146
4008 1.3355864915752662 -1.012882818659188 -4.015019026682092
3718 0.9222301593956607 -1.9314663826757161 0.5642375926419361
3719 1.6253372525423748 1.7658362543055948 -0.905088106142387
3753 2.1706790749092617 -0.5956340601412163 -1.0085350680226093
4012 0.8454218725913215 0.7738236380013804 2.4755040747160066
4006 1.8447738883963287 1.093422029899588 -0.5593899291340608
4007 -1.5306239845633114 3.901728685422786 3.1017295417209017
2750 -4.73878884681083 1.1440521533967047 -1.1084793038805192
3040 2.530684936330516 -2.211484181131772 0.8325398336060551
3038 -1.0672148586994248 -2.9345804432340907 -2.2422565842925417
3328 -1.3386735917494101 -1.2963970867821808 -1.1625968337835924
3326 -3.3270403050705277 -1.7880584363699255 4.094276977564863
3616 0.3077218502294949 5.818128575955449 -0.9158326157149871
3614 -2.071081025427836 3.876514845815518 -0.17916665991776942
3904 -0.08175631904505767 -0.9756442426922601 3.578026722880665
3902 -0.33936868652978236 -3.20354848341662 0.916927324422389
4011 -2.691663565506515 -3.4864564582013404 3.0482135350921573
3073 3.026976927629395 2.316388884878069 -0.7184770965678582
2751 2.335325519168286 -2.167972730577328 -1.3140717153147832
3039 0.21779824074187984 -1.174478652652502 1.7566854427893128
3361 2.8121370798350567 3.091938133807575 -1.005776162144248
3327 3.248395149879825 -4.635056219035276 -7.369167461818068
3649 -1.8374316691674242 -1.311734693123413 -1.575462438420697
3615 -0.7893937348325234 1.5800947624553268 1.3074637192834897
3937 0.33645608511525216 -0.42094650709949016 -2.0116468702194283
3903 -0.8023368955171893 2.225620328576796 -2.2429856016380083
3076 -4.567148648161031 1.6506203487913056 0.1827413428633704
2786 -1.039797982800473 -2.6332902949322756 5.646899092754404
2787 -0.25562468500213875 0.1470924065891456 3.6024555640279043
3109 -1.9409266352393582 -1.5772007192398332 0.6111727512475488
3364 0.8408441702410931 2.649261864390441 -0.8077058547460297
3075 1.598483267569049 -2.2200260634109825 1.6900515987148654
3074 -2.580041632452011 -1.754615382299227 -3.4062265035043806
3397 0.2409282544572927 0.6223350766269383 0.8961530183434576
3652 0.2756018488329497 3.044832424768318 -5.223415920603713
3362 -1.4236534134863024 2.4831204054802947 1.033023283101108
3363 3.718027529484151 -1.6879247534910542 -0.793148999184254
3685 -1.8533121788315816 -0.6392836336054759 0.7749916191256143
3940 -1.2137498147313825 -0.777757377228204 2.7164694852419426
3650 1.8976679778573349 -0.27047931306026496 -2.3058414429557463
3651 2.583084034984125 1.7869773149786332 -1.0991229528939772
3973 0.3084252934016686 -1.1471331068313069 4.092915910819286
3938 0.04197811808832735 0.7686937395005365 1.001349111112147
3939 -1.8195035053584598 2.2013276691872243 -1.901990039571118
3723 0.2053241195704258 -2.901684143563037 -1.6622264887873035
3757 5.440085226659163 -1.367273996549408 -0.20996994296438778
2822 -1.5948317374664696 -1.3522003805059368 -0.7061100520748262
3112 1.2420537868298358 -1.208230432084212 -0.13803923809787577
3110 -5.334032409977304 7.40828184226851 3.27708081756269
3400 2.490382448711373 3.3667042743557416 0.21841965309622238
3398 1.3618156320604886 -2.322973734383302 2.0961769334357063
3688 -3.2701372458265534 -1.9178383614212362 4.247980025700472
3686 1.1903490571303406 1.8210928632475503 0.7792926552408799
3976 0.8196034983022291 -3.5750207700082175 1.6600302900578208
3974 -3.4083705912580897 -1.1641033973100314 -0.12042000496216919
2823 -2.3685386793414063 -0.47251635748885584 1.6636410739356964
3145 4.123195002355384 0.42524280291527466 -2.2369715695417365
3111 0.9517834703708776 -1.9179865040998494 -2.0556186882495804
3433 2.3083080299687246 0.07421210733537448 -4.671206088639183
3399 -2.1207356042989356 -3.2860782162331237 -0.24334238377201745
3721 -3.6092532945680773 -0.4139243158433875 3.811961642866315
3687 -1.7882555491534429 -2.346725536702968 -0.04554008843512232
4009 2.735550252134066 2.2011682860859922 -0.12720149754202312
3975 -0.1411095941249787 -1.232215075429089 -2.1327439484785917
2893 -0.9453695468666322 0.36217183760406 2.780682949975046
2858 0.2655587182730168 2.243889592610636 1.9977958097187178
3148 1.6644270891545676 8.3063719348816 -1.997172869969123
2859 2.5036055238028174 0.09855078952062003 2.254213323979511
3181 1.4794111680572941 -1.238986389147231 0.46535098744707015
3436 0.7954400937736739 -1.7840912197067156 -1.360951599248899
3146 -0.2292138532604434 2.3375034097205223 1.3113291649316752
3147 0.6203137593732692 -5.958252592977842 0.3389047026768198
3469 4.072461518073649 -2.945636511173821 -0.6550826317259757
3724 -0.05700393347919664 -1.5620391026129654 -0.9764017000974627
3435 0.0055962470297629754 2.882206408104841 -0.3432042687711434
3434 1.0569198655363776 -6.759877837350222 -1.4036899217683847
228 0.0734373836435146 0.19486469814916973 -2.4255126517595067
265 -3.272228688059097 3.5559899718801242 -0.9032136481697915
264 1.0667005670311642 -0.594573581424805 1.7636255509920926
268 -0.2464580613410308 2.2401361588218425 -3.11056413359171
2754 0.5002078668265716 -1.8142433598350525 -2.7185980004192527
3042 2.2988472390270136 -0.6989102802743805 0.731402901400507
3332 1.1195428112628791 -3.739034197416454 -3.2608031620868037
3330 1.5345163751669793 8.048002052298497 0.6120506605293152
3618 -5.6770368118484535 -0.9716818521591862 -1.4652453367378302
3908 0.7439437978572335 -1.3680839698011702 -1.8909770915201751
3906 2.721162018692795 1.4730639763127849 2.8327905643171367
3077 -2.3521864282710285 -3.349357698867971 0.6498363825574137
3365 -5.225613326715379 0.6120252858248527 -0.8997177747038883
3653 0.672197754284444 0.6286088230735041 -0.5663368066342097
3331 0.7386598322704127 -0.9555021601354456 0.15697403676252344
3941 0.09204651696941017 2.4446774042397097 -0.7551132805128916
3619 -0.18983441604775705 2.7665326389400913 -1.588545622998848
3907 0.41761376077138745 -3.4920427538197747 -1.7694617223336406
4015 0.3055405011479117 2.1323082583868835 -0.981855018147806
2790 2.7653867086921218 -0.3362145394631419 0.2165032018650068
3113 -2.656509182789224 1.2409390014893487 2.4699304341847013
2791 -5.284980832900955 0.39392156322129784 -0.9037319688091182
3368 -0.33485824878590903 -6.059443285672958 -1.1602184801047382
3078 -2.8763491447250593 1.7793401893544245 -0.09625505779369611
3401 3.380433982974891 2.2033173263173724 -0.7941538990020313
3079 3.0618818783252735 -0.49080260242586976 -2.0310747256991633
3366 -0.5998536894479816 2.437420652847659 -1.0910980330399702
3689 1.7580924400814129 -0.4463401831932705 -3.0118053683217734
3367 -6.698495949551482 -4.304845894032139 4.103706386972908
3656 2.231331746616908 -3.873532629597553 -0.5581898268523952
3654 2.333458474255907 0.6779607628228028 2.6027421984220065
3977 0.3980096650057293 -3.328925449594586 -0.6736352956123078
3655 -1.6223762384484226 0.35279190407100375 4.200495151479328
3944 2.594540484131041 5.2516768132972 2.5466493898697777
3942 -4.274837476112472 -1.3733349239545516 1.9755758803847467
3943 -8.20615324056773 4.562086618672138 2.9277467528783307
2826 2.259689450393557 1.674051053211819 -1.61720524899838
3116 0.3348060586527323 -0.08641543124873706 1.0331246446521178
3114 0.1390880981404372 -3.6141976413925505 -1.8807474593521196
3402 0.038947662489863824 0.48144333009516144 2.0450322793730797
3690 -2.964121521194758 -4.675173945031153 0.5687920158213835
3978 -0.7872704050608692 -2.330741111412076 2.04879044421156
3149 4.448933467931177 0.35029049397617856 -2.3122968234300423
3437 1.1450864814164465 2.5173324803176693 -1.8850871459026852
3115 1.4606533576102785 -3.7124290795795716 -4.427287252429783
3725 -3.0077585214866875 -2.390484093812044 2.2048494806620345
3403 1.053156786502096 0.36806637316569124 3.1935081197296675
4013 -1.288614635895617 0.5834789937798409 0.8160297429039804
3979 0.8725035223589275 -3.3393606498793993 1.7540355228384876
4018 -3.265607754542383 3.71301373053272 -0.37176411518467095
2862 -1.0886660231470906 3.091392687244984 -0.545777955242233
2897 -2.3831127448226344 -3.431370277233227 3.045252886825911
2863 1.2814032963409352 -1.302533985458625 0.3611191213146697
3152 1.5611097749430185 -1.7817277970408014 1.195181405409148
3150 -0.7649205292162856 -3.6914942855546884 -1.3870244415042996
3185 -0.7116316396824008 -1.8358403365888634 -0.01954109192451724
3438 2.572330586276035 -5.940677754466489 -2.1320053222814206
3439 1.4621238623832284 -3.0356868002303052 0.012431710012766122
3473 2.2626001351109144 -2.5178064088687826 -2.5641062075669483
3761 -0.9972526672958902 -0.7335734771411363 -4.391370158609017
3726 -4.5725206541642835 3.165058528457276 4.357883014858659
4014 -0.52593749370683 -2.2662192903733853 2.372039077814137
201 -2.4238485195820907 5.014680519430544 -2.539992311844015
3044 1.325030820518978 1.2342529301857268 -3.0723101405482005
2758 1.2371266011595683 0.9337698731571024 0.40185510941812025
3046 -1.0121480484601908 1.5424925126517268 0.9378719254719456
3620 -0.8726727647720284 -6.093859841332298 1.7761629933368634
3334 -0.8799817399836751 -1.6099331745066683 -2.6383095564820676
3622 -0.0334585290596994 0.9977843448304704 -0.4424029397585302
3910 -3.6192874389288647 0.041976790472425904 -1.2144737674576536
2755 -1.9546093331576557 0.8502750204689565 0.4290602849383003
3081 -1.9857008889961345 -1.3980239277263298 -1.6971174557924258
3043 -1.8116840396905656 2.05360577106987 -3.838024098918304
3369 -6.591424830545507 -2.69133899560421 3.4376521180991624
3657 -5.101022185429952 4.050927613136916 0.2685444926874757
3945 2.586282613679413 -1.5016010003801614 2.023257477086107
3080 -1.0426041821197602 -0.45099095018285196 -2.2231414511040968
2794 -1.9617458118470898 -0.7081812687910436 2.186781857744078
3117 3.233333346090228 -1.7002015487732691 0.5041950214229872
3082 0.5713347666013188 1.7084149218870632 3.15149209984453
3405 1.1463707390593245 1.5289491328184575 3.2056316339472106
3370 1.2341782904616678 -1.2260143570615352 -1.3888734723103655
3693 -1.9216645467528861 2.199648173692289 -1.4368251491418456
3658 0.01025711014753777 1.62628429098273 -2.648013975208468
3981 1.6331699725619064 1.3462950263478037 -2.208414764971566
3946 -0.5209862684160085 0.28139432889775434 2.8731410954583616
2830 -0.4711284989544659 -0.9449866686286326 0.8574573882567782
3404 -0.8873160361886375 1.1916102524826084 -0.8991200259516181
3118 0.19860971850673043 2.8863334318324605 -0.867583822174134
3692 0.16789740099810976 3.353347697317612 2.7571566485573418
3406 0.9203096705054613 -2.590393002896363 2.459791442221415
3980 0.12671029900998482 -2.9640281358419363 -0.7542928565738525
3694 3.3397609199646046 0.6921392605686855 -0.06757401195646154
3982 -2.207031872612655 -2.05631651357368 -2.038758980106998
2827 0.09286509146552814 -3.902931783455457 -1.318745284396702
3153 -1.7025908054974928 -1.3965063773744462 3.1344424581931185
3441 -0.05435271708370234 3.584694144798233 -2.9167237452242696
3729 -1.7863762502255747 1.9406563347209635 0.5023688513140693
3691 -2.201189817569846 0.09846764627307837 1.9286051456084412
3727 -2.887525072628054 -0.8301385505273944 1.4823618232309987
4017 3.709840175973468 -2.3026656211242305 0.556153129679459
4016 -7.750503687461664 -4.213714342351446 1.1858933241517218
2866 -2.3742606257445633 -3.3812827412779725 -3.3215014165120915
2901 -2.7323776200090566 0.48998946796003806 2.822596590389429
3440 -1.3343550769682144 1.6565748353304868 -2.325172458222002
3189 -0.8512083116402891 0.48045229113968013 -2.5426785830985175
3151 -0.43707645021920544 1.74196271329216 -1.803142473995922
3154 -3.1566304698001213 -2.4465834106260105 -4.009655344018478
3477 0.276348284685511 2.829415088125418 0.5633035672051379
3728 -4.941721399478687 -0.7561828458457125 -5.798743611186285
3442 1.1101533832498818 -0.95834272564821 -0.4537498547612854
3765 -1.256358822556936 -0.78362600188084 -1.8344214180632534
3730 0.9289049527148615 -0.4001133871186057 0.9216785280294776
273 -1.3625802481664477 4.162109970917361 -2.194905590994811
272 2.716520062170516 -0.48077698823890475 0.8949496158347694
17 0.43329616693751666 -0.9628918694516789 -0.43482094192527554
197 -2.9931068777160768 0.7062729269686703 1.754779078517723
233 -1.7689747028112648 -1.154509078202535 -4.602256647576028
21 -2.0086155492282205 2.323365122500212 -1.8282635943796708
3048 0.5574833090826333 1.3865232694091214 -2.1530774281408656
2762 3.829443110931816 3.8061470315802666 -0.6301819356424806
3050 -1.8611081159325202 -0.8616270259836245 1.5067918692341224
3336 3.653433443412023 -3.3231313864091865 1.689925898869863
3338 -1.8398257587642366 -0.5942548394228147 0.6599384593950384
3624 2.3106723539338 0.6964091704005946 -2.6577691470813987
3626 -0.021038519717417985 -5.051380452189085 -2.1439051693759144
3912 1.357737684034687 0.08105261198522193 -1.139356520651928
3914 -0.11382154520110598 -3.103382014402722 -1.1660191891131744
3735 -2.7099768728510925 -1.0962377169007416 -0.09315351308840036
3085 -1.9631434956357363 -0.044111465692823384 -0.5515906923416267
2759 0.37787802526275965 -1.8295050062096465 -2.4338002894109056
3047 -1.5811752916544202 -1.9797620052273257 -2.0014892480315676
3373 -3.304618267089194 -2.145615299653874 0.1387793407265546
3335 1.174938913708014 -2.6727942746182305 -0.827636764783118
3661 1.5362719407036398 0.896976102896371 -0.21903505440453488
3623 0.12920501605217677 -0.6664215779693884 -3.211097573739935
3949 1.1312273049369614 -0.008950430791461315 -1.6742560475722632
3911 0.09201183856315628 -1.2109917162887238 1.8973949682556643
4024 -0.11252996303401554 0.3018917543297144 6.703763995408841
3084 -0.22465238793532308 -0.8123622580575379 -0.9830694477778404
2798 1.531675567376482 -0.5096314951569267 -0.9908180690925146
2795 -0.9566392272650117 1.0568763206273657 -0.34027124015517557
3121 2.437157900960932 1.6534642588943858 -0.9214183580578498
3372 -3.375370130935256 1.3005050983874855 1.1077071536386176
3086 -0.24347033160131687 -3.7262664747485577 -0.40382319389989996
3083 -0.5607660072124242 0.4408467555906022 -0.20344898482008475
3409 -4.127303314195088 1.2123502171156286 -2.3064071545553233
3660 2.880465611098893 4.089778671923901 4.73976340453514
3374 2.058812345903509 -1.4180531870267867 -0.07396857379912156
3371 -1.8662029587580633 -0.7735431077287679 -0.8858417274915075
3697 1.1499123186504916 0.8994761577177787 -5.670616575539119
3662 1.5466331392743782 -2.4121547521271967 -0.16711066332707594
3659 0.08179554923935402 -8.584635959101353 -3.66059570795008
3948 0.983499186858775 -1.5065399119362812 1.4185909417705829
3985 0.8061353619427374 -1.8956204544706465 0.4669559713142604
3950 -3.008808433429335 4.525083663373379 0.15653671459722152
3947 3.370882716510861 0.7001522708147043 0.2889762977272195
2834 2.077998234614952 0.19405400552220434 1.966759263522281
3120 -0.6948625879963641 1.9989575823835246 1.2450332483399358
3122 -1.9496191983139746 -1.1903697593672797 2.7885967232466857
3408 0.7758259757018912 2.879752951897165 0.6158386327480095
3410 2.9254198940411498 -0.2935803494738306 -0.6466001018124883
3696 -5.084108580304369 2.6094927454762487 1.6540803588008428
3698 -0.155816274036653 1.4020557378337324 -0.028863752938940307
3984 1.3789639929896658 1.6742055009892463 -0.9667950820606619
3986 0.6391167506339078 -3.2667151847075186 -1.1525064465614832
3773 -1.053300961437453 -2.7535469447227277 -1.1968655892198414
2831 -1.0632484647068412 4.515126956382072 -1.0684137267477678
3157 -4.023110760824362 1.6957606453306249 0.2833636486599506
3119 0.1954637540522732 4.431518997812868 1.0477983004780738
3445 0.8199754695206403 0.9066645764502195 -0.43828766284484477
3407 1.5531079784969581 -0.21950322140817574 2.046805088253132
3733 1.1723474216756171 -0.941772623044555 2.2892537625791216
3695 -0.17806955742549063 -1.0663772354836178 -1.81541477676804
4021 -1.4722384239736277 1.2252711237490281 2.086086678189251
3983 -1.1166440820512522 -1.3527999518087512 -0.8737058595110577
4023 -0.27938965416759165 -1.232760112759205 -2.130442916065904
2905 2.575705981439881 1.2539973991304803 5.700390048920387
3156 1.2931595925217871 1.7103559685018899 -2.4395375544414044
2867 -3.2150106150373117 0.05722987204106666 -2.1527492771392254
2870 -2.9164862486695378 0.4948825788191908 -0.46413696936249
3444 1.6170781739022897 -1.9216041909629193 0.8159677621381302
3158 1.3680146346415496 0.11862959986560259 -1.8423288504488795
3155 2.2713122902127956 -0.5579558067488358 0.32692269755295056
3193 -1.4844004205288948 -3.3279156616667747 -4.441591855273237
3732 -3.5779110391588635 0.44627430538647384 0.7645522954847481
3443 -1.8191727861859655 -1.166675100064694 3.405179926292942
3446 1.6991181630737207 0.49657121218243494 0.38426665061240206
3481 -2.983645985638958 0.21340723591813737 -1.5246530424516835
4020 -0.3609506690240446 2.0295237200984237 2.16318266223603
3731 1.8499321327368152 3.0866544031034535 -1.258058570600579
3734 0.940651996433743 2.3458713038133303 -1.3786254216014435
3769 2.6989596642411935 -1.7241244959086763 0.6737408688716638
4026 1.3747973610039945 -2.2252006500641817 -1.2796113985411257
4019 1.099115931101363 3.0666227267100963 -2.214112053150765
4022 1.5127679079926835 0.8291223511360922 -1.9873002352340792
2766 -1.5130529905457584 -0.9687474487607586 -0.6845306135864498
3052 -2.0322554206523575 3.279744944401427 0.8419715221303468
3054 2.943021187467126 -0.40001086548455006 -2.6172807007168455
3340 -1.1000238355444434 0.2119210137476382 -1.385528303414777
3342 5.509349862947753 1.5380968328148943 0.8812426076311396
3628 -0.013497519843830618 3.0752576040479176 0.44473639385475117
3630 3.319460108482115 -0.7269738866934808 -3.2478633092159916
3916 2.146310003243616 0.8093200347846877 -0.0234307129356383
3738 3.582869048723192 -3.16060316586325 1.3378320539200768
3918 1.3780841930787049 0.04269501496990187 -0.5569429434008556
2763 0.2059112264139484 1.580554802029013 3.003670359905883
3089 1.2409950055865047 3.650614884034649 -3.481675865143298
3051 -3.2946119171631847 2.4221497637438474 4.689276284006804
3377 -0.2724061922302177 4.930083366816501 3.1489253057687527
3339 2.3714909497866903 0.17508419130846636 -2.106924090916468
3665 2.1986731017226164 1.0697456691201028 -0.9767557982161477
3627 1.7854024474210162 -1.2915640758807911 -0.399199793284554
3953 -1.7120049507884216 1.0693073598627798 -0.6272707102266368
3915 -3.660288004993547 0.393423652994597 -2.118552040047112
3088 -3.1255922147509816 -1.6068574387230128 2.91311495002722
2802 1.0727245961414145 0.41468068216863674 3.5659930489844185
2799 0.21274510799664165 0.8600475765840863 -2.5253351024081985
3125 1.2986495612221232 -5.6637582790685395 0.3006956183909622
3376 1.597557230805741 2.296191019170499 1.7346587560231783
3090 -0.2531208077061999 -0.7611037968051871 2.792366822835358
3087 1.7424154857394274 5.858440562928512 -3.0855010631793283
3413 -6.36965321436399 3.302101769271721 1.8359143333436576
3664 -2.3468623445446015 -1.1506719221133073 1.115693505583528
3378 -0.45029262290730887 -2.3036202822282283 0.5390685310547497
3375 -0.6237328147959328 -1.5185346679391387 -2.283837364642043
3701 -3.036881356536789 -0.41820735917003654 1.932918676850612
3666 -0.5772144969714417 2.4662922672146594 -0.32863093114804515
3663 0.40948720378149217 0.3974117262316891 1.8608442770034643
3952 3.3784433813530446 -1.7956326750987988 0.6828967629449867
3989 -0.04537245946343374 -1.3265400933292268 -2.503309057118295
3954 3.5791311086904734 -1.0628813956077898 -0.4955056191950715
3951 0.06304089508673924 2.13307788867416 -0.7182249400468332
3736 -3.2350264584690405 0.7391652627038325 -0.44022764611393733
172 -0.5486564795465656 0.6196401834834461 -1.5405315029773243
2838 1.6828733353475271 0.05783144704654142 -2.070908244692494
3124 -0.6780370015463648 -3.5452198227238547 0.8089984725768212
3126 1.3484998943135882 -0.3440652713918116 0.8464776060350623
3412 -0.6601178188865716 -0.9237732962280922 -0.5749158069650381
3414 -3.7330132331388652 -2.5038915514486684 2.2539707727768814
3700 -2.061261992160939 -1.8379412519361338 -1.4713030208787694
3702 1.6234765011561314 0.15279358345895636 -0.09012283168601262
3988 1.0278391180765036 -3.335885615014316 -1.7603915070753158
3990 -5.639954275345685 -0.5052475948432962 2.3413430357628973
3447 4.288439424100442 2.148779719175062 -0.6951677657071974
2835 0.9077739774336875 -0.6337562812288882 3.856680330655949
3161 3.606562128204797 -1.6515545579416306 -2.447892286411814
3123 -0.4564943367168495 -0.4477398795869779 0.8390884799446218
3449 0.406066008506666 -3.283674541796446 -0.15391311724223417
3411 2.867693598408565 -0.03170509166019445 1.5745636838783557
3737 -2.27235042289839 -0.0549730394345438 -0.9803165512718957
3699 0.851190129547524 1.4400243484898079 -0.2761154087552814
4025 -1.0945578411598318 1.700641440060821 -1.6532977449038166
3987 -1.7382568730864676 -4.629629299254161 -1.5817115116843794
2909 -1.3623601168895874 1.3328258079880797 -7.444306509457678
2871 -1.8564769000650907 3.1059612307969315 -2.023872348461704
2874 -0.4019577746687107 -1.4981261698540096 2.7066267954453465
3160 0.12034026270255986 1.1410055796651228 0.9969506539702813
3448 -0.4948082590865625 -1.8826558589169438 3.892845439583369
3162 1.0839016638617758 -0.3969570830163764 -0.583471213560379
3159 0.5105895335201148 -0.7570887752354835 0.15197315085136856
3197 0.5483448103973646 1.002775111444212 -4.495785916732428
3485 -1.4938479382362988 -0.2984691274298504 -2.4992401227679735
3450 0.13481973073103876 3.586276693953273 4.093447769894459
241 3.1708934829183217 9.16009433879234 3.7495846705876597
209 3.2242379807555124 0.12896404349513452 1.2577478135694975
240 -0.8533364280405249 1.8191798737866256 2.487236491424775
2770 -2.401640653152537 1.3164937106620072 -0.9094509770457972
3056 4.578674025508012 3.1769006067681747 -0.15552494892764937
3058 -0.08212589337093605 1.0575356611389624 -0.12199141760029726
3344 -0.9190104651487611 1.5371079032535322 2.1271850684698044
3346 2.10041866576015 3.1689656307020075 2.732614888474123
3632 -2.556667660639622 -2.1442214950828595 -0.14402408334459219
3634 -0.9279678737783132 0.32607492961224765 -0.12078485933644334
3920 -1.61652557404383 1.038196310872598 1.686056574618218
3922 -3.1324396363056364 2.220354057341623 -0.6010491226058444
213 1.1428317662823306 -2.9456794538408624 -5.221394036097288
3093 0.5419733553161007 -3.147782872270051 -0.873682885299989
2767 1.848573877660288 -3.2314028035920686 -0.6046488241872503
3055 -3.0960396527770664 3.4935947598378765 -0.669645457619561
3381 -0.4530587625565402 -0.1210596660452126 -0.11364824102393743
3343 -0.37023253959808955 -3.1803095211415306 2.4079468363065466
3669 1.2907346428747697 -0.48660873812114874 -4.4640952645037775
3631 -3.725442466754334 -3.5536452109782983 0.21075043139123464
3957 2.524779253590588 -0.487747104684746 1.7895993747196084
3919 -5.411515464410804 2.531184782806138 2.814431152444201
3092 1.413996022505341 -1.576816295391866 -0.24346854585557837
2806 -2.322625821880995 -0.24468640682491458 -2.936044297712178
2803 -0.3329364012756195 0.38026438308894855 -2.8186015045655957
3129 -0.16465176956059271 -0.737319879826084 -3.596225212671861
3380 3.3155204665986853 3.0069105871919852 -0.7614436048186235
3094 -1.1029860086164567 -5.1525138350414315 -2.788266245853594
3091 2.538578307256583 -4.542531732552491 -2.5712808531206677
3417 0.4510228984080331 0.3155446776442144 3.095470559081255
3668 0.2162155974791805 -4.710424170782161 1.4659972109681747
3382 -3.070890013123732 2.6808577154782154 -0.10360194283888034
3379 1.1795930058474404 -3.50627876608645 -0.10110873102767766
3705 2.4038713090743515 -1.3578965658397837 0.5519197452888709
3670 -0.09645134427160752 1.1869376165741732 0.1933302193990013
3667 3.532300297291255 -1.3888542244454563 -1.1029666774277458
3956 -1.8416951669411863 1.2442252043929851 0.2918208271053057
3993 0.20115154740851923 0.9532391695847491 -1.6245636639919505
3958 -0.8529406814428646 -2.694823331155801 -0.6195645652686197
3955 1.8331051238860645 0.42360545712125786 -2.014212918959751
3926 0.18436777272516028 -1.9845269822905962 0.4065858455447352
2842 -0.07288003853329209 2.5918154090984737 -1.2768218854533344
3128 0.9622788588237048 0.7404461709822755 2.0087512510477272
3130 -0.9174360388224787 -0.35984853030462943 0.36029482640607424
3416 -3.4686872935841415 0.21429964297295093 1.9251962485936611
3418 1.8119684112849455 0.5393667431831253 -2.7944510387320847
3704 -0.5171803411739725 1.0358312768279008 -2.26761256622186
3706 0.9501902115867504 0.9158355487022742 -0.2524153812330952
3992 1.6980312243777063 -0.7033540707242323 -0.8521582503271707
3994 -4.171420379361316 -2.0532854777464427 -0.03079776271312343
3134 -2.7790918960655384 3.797660332835078 2.3001125195429144
2839 1.7451270080867893 0.9150348221594538 -0.8810423086053147
3165 -0.6154799509994894 3.5141754662803733 3.7738478860645084
3127 0.8893173696121652 -2.637427857751512 0.29835917142094315
3453 -0.37529505688184794 -1.143731866144332 0.4743181804030158
3415 -4.254551976005901 -1.9273379070241365 2.8074293803899293
3741 -1.7072017987345967 -1.7950204712785904 1.5874214104186721
3703 -0.37038829932030126 0.20187564933637214 -2.9182826892907956
4029 -3.189930161489415 1.2541700458122431 -3.3460807494217106
3991 0.07616166027403548 3.3866893891072993 1.7453333047073192
3164 -2.4813635657200863 -1.3285795012492094 2.037119812698643
2875 -1.5007454279766654 -2.8114268961617994 0.6130558405612115
2878 -0.3441570272291262 0.8491704241090027 -2.2806103429726154
2913 0.40029183470698615 -4.092481886917186 1.478570565412049
3166 -2.152313136288374 -1.7643469311511257 2.891214945280564
3163 -3.4256563452265847 -3.0421590487295 -1.3156911302795142
3452 3.679214404803746 1.1083331542241146 -0.24409671241805436
3201 1.7771149816951493 -2.1845943518125206 -4.407302292504969
3451 -0.42526796017694996 2.8976753204654853 1.0396075951394077
3454 0.9314436407515206 -1.5905832246078047 2.835657900215214
3740 1.5283777781677819 -1.1184190893967996 0.5109609980319215
3489 -1.37484300696858 -0.5316607779928114 -4.731160978759797
4028 4.010605907826672 2.744342302352684 2.3612144217807365
3739 -1.9250212666017634 -2.287033810339484 2.6196766556182194
3742 -2.086436538321836 3.251925238945461 1.317813385969134
3777 -0.5138622263206404 -3.4026589356142147 3.830228972418539
3421 -2.836753523440635 -3.2269663664265043 -2.2666447924012676
3745 8.015340526409448 3.156904096777748 5.161303544456242
4027 -1.6068887509669498 5.11890870493216 4.595627742237771
4030 -0.9150258958727502 0.1877216189262855 0.18440181653583326
3060 -0.8364664216060059 -4.119105862900116 -0.1212789607324195
3348 -2.5245566806517163 4.682809479848328 2.554701974017717
3636 -0.9999653989959385 -0.4003020140697864 -1.1344045734197319
3386 1.9867360173707078 -0.31868971408189506 0.09696984219943999
3924 2.499166043610176 4.562037337066733 -3.7898217147671986
3349 3.537775847836313 -0.7041472543477931 2.16942071729391
4031 -3.822329976388902 5.655622216771856 -1.4800874675431073
2771 -0.828689772605467 -4.245784242035098 2.2848750439828596
3061 5.262200026125003 -0.8009504931024205 -0.35048845831805386
3059 -3.4940973818971908 2.833426375064511 0.9680620784648886
3347 4.7366243926468545 5.69225281281158 0.8242149952907929
3635 -3.2861000159946867 1.2010115468633122 3.4745060100494918
3673 1.0995449273081623 -2.114509658635395 -1.281345604278597
3923 -2.386296771120816 -1.0555382676150598 2.0405188026064014
3096 -4.38979846645514 -0.8122114595811518 5.73744160980794
2807 -5.259519875930196 2.0150468439754023 -0.6397807538272173
3456 -0.6420714703722742 2.0145370828578453 -0.8367682499645309
180 3.302291164271479 2.5551068316605865 2.140472048166817
3384 1.867069281775529 6.130928941304405 -2.8466741396162054
3095 0.2166286947523896 -4.048706757247111 1.3953469886967924
3167 1.7922558967722462 -0.06984548568933036 1.4347540657822513
253 0.5439694536511908 -0.8113816859468497 0.46195018509425817
3672 -0.784776361794067 -1.2705775286095247 -2.999360192291955
3383 -0.37250413531870796 2.415926497825 -1.8667961471053025
3671 2.792607251619246 -3.09115750458593 1.5671746065220111
3960 -0.48450324669976996 0.9804982015236199 -4.203882895298044
3422 -2.2657476862099526 -1.8426406659658165 2.8510559367390145
3959 -2.94356286856583 -2.5049399480531935 -5.11992577316353
3169 -0.36813937311880995 -3.124937172734411 2.0888201285369434
3132 -1.9118372910153312 -1.494666451979992 1.8903186568990775
3314 0.634409338515119 0.11704832431864147 -0.8412858296192374
3420 -2.846444037228394 -2.6144985178597326 3.6520068290829757
3708 -0.885104812444359 -0.15325949019573507 2.7967901020634724
3996 2.3538616588198065 0.3516700877517732 -2.01253794453784
2843 -1.6245363098940462 3.030775770581896 -0.32423341774102804
3131 -2.4509135024939033 2.172922938880799 1.9814268837248057
3744 0.15671238041864735 -2.7549116518923342 -1.6974281980169044
284 0.2007005570794085 3.7946710854386656 4.5776053794791745
3419 0.12084297781035697 1.2741271047314555 -2.2893079759792148
3707 -2.1265404868778623 -1.1212810322237052 -0.08608057718215573
3995 -5.21771356202965 -1.9428715581238776 -1.3094584980641322
3455 -1.327147240145678 -2.087395586225285 0.9503907785809993
3743 1.2327097032886705 0.7811575590783855 1.4036078615609229
3168 2.0614728321763818 -3.145025348127841 1.7162503681706232
2879 -0.7958328355512865 -0.5494943914586377 -0.1330199531496311
4032 5.233216341330689 1.4302574406246136 1.1410706717795636
3457 0.6973567391652761 -1.720113699291891 1.961914259818573
3674 -0.24627198066833852 1.253317733395985 0.11317779951149132
2810 -0.9525180873198141 0.34099180897067966 -1.669361808796687
3638 -1.9754732683158478 -1.2187097087580325 2.8129625032005943
216 1.533622182347403 -1.9192452941646534 -0.42808081921588903
217 -2.9564560167630725 2.2732364130930436 0.6566796224075866
3385 -3.0994397656706423 -1.0798506343096084 -2.117751142805809
3098 3.5155248482210624 2.23682609428987 0.6343057354261503
2774 0.8811746529774289 -5.675126035053604 -1.2966939920777616
3097 -0.1790681638512024 -0.9409666827979389 -0.5074073590620323
3602 -3.4163439193168483 -0.007725587081907734 -0.5969309136251147
3062 -2.3083833518413868 -5.225480301490737 4.3220091310001685
3998 -1.6484061110014132 3.6881523499959643 -4.530768299321286
2846 1.6069658950026298 2.825117348899107 0.22072671770286448
3637 -1.1194297137522715 2.383496117900176 -4.1149631312526465
