LAMMPS data file via write_data, version 22 Jul 2025, timestep = 50000, units = metal

4032 atoms
2 atom types

0.006587294567427904 41.041412705431846 xlo xhi
0.013507041094349859 40.6134769589042 ylo yhi
-0.029972820264870137 42.18597282026626 zlo zhi

Masses

1 47.88
2 26.982

Atoms # atomic

292 1 2.8779410430033527 1.7173183064053457 2.2196546955746532 0 0 0
979 1 10.434085671953829 19.46070980332575 7.1098197999013975 0 0 0
580 1 5.818160874145711 1.598060392489267 2.323818862963409 0 0 0
868 1 8.724508908570753 1.8303382733252458 2.245829908276618 0 0 0
40 1 0.15475342535741987 6.770157763224484 2.2660918829940084 0 0 0
1156 1 11.637363755774853 1.7197863879661492 2.329291184830716 0 0 0
581 1 5.815717413583117 0.03127339179056321 4.71689189465955 0 0 0
5 1 0.018804129205203447 0.11570959346902286 4.568689728326762 0 0 0
3 1 1.587806873894594 4.263622819952359 2.287484033598318 0 0 0
1013 1 8.889695247444292 20.24333632585306 4.644424819255865 0 0 0
291 1 4.287908027291874 4.093491196973567 2.3582128860097966 0 0 0
616 2 5.913760560409353 6.7468368946500625 2.2203530461284013 0 0 0
973 1 8.800578982262296 15.113100668373459 0.049465443387557026 0 0 0
579 1 7.403959072471202 4.349900391276324 2.2985359336073277 0 0 0
80 1 0.006802661222408801 11.846473703543491 6.711832262206309 0 0 0
867 1 10.175700351029336 4.320508922026489 2.230178492426677 0 0 0
1155 1 13.21106966691152 4.309663849454479 2.3303176199171327 0 0 0
328 1 3.0635162339407023 6.672376644454393 2.268834561521257 0 0 0
39 2 1.5234310950839929 9.286613030775976 2.2146512162304353 0 0 0
327 1 4.412646596979266 9.332909753620003 2.3070849310454316 0 0 0
1157 1 11.597996014196857 0.04379411049340831 4.6607078771263115 0 0 0
904 1 8.771120340607256 6.847702727978906 2.3199847589503717 0 0 0
615 1 7.364499356042721 9.31919567300573 2.197482661844147 0 0 0
903 1 10.259811890728482 9.350883090069004 2.2005216157738747 0 0 0
1266 1 13.25383999884835 17.76529994557658 4.608306625379888 0 0 0
978 1 10.306051793466237 17.838482965472238 4.7244280898264845 0 0 0
1268 2 11.815046745392232 17.055025058733687 7.163396650280706 0 0 0
1192 1 11.784306930269056 6.940814215848149 2.2080618372402676 0 0 0
1191 1 13.328922379136174 9.41000154817279 2.198357962042012 0 0 0
149 1 0.07815571040785467 20.299724798922135 4.593487252531111 0 0 0
364 1 2.9358182458353337 11.822473707512291 2.2009404607760352 0 0 0
41 1 0.04582882087498774 5.100213342682375 4.608174762241783 0 0 0
652 1 5.857053556747199 11.757191165190322 2.257251450694459 0 0 0
940 1 8.898579881397536 11.826086674031439 2.3347199309786943 0 0 0
110 1 1.5385410927124885 17.725921617163596 0.08259680211522781 0 0 0
1228 2 11.716827587729727 11.932076826434 2.2658159114910594 0 0 0
75 1 1.4032465147954942 14.387764508296238 2.2996430391801232 0 0 0
690 2 7.359965162795344 17.82449155817824 4.674063597661652 0 0 0
980 1 8.8205008761885 16.88528255582698 6.937029871882111 0 0 0
363 1 4.282039001979907 14.432724277387997 2.2130976784330274 0 0 0
688 1 5.788563749282673 16.934565258465963 2.3793152637067934 0 0 0
651 1 7.2229249925817305 14.244315018240318 2.2943805612859554 0 0 0
939 1 10.377264433512048 14.508116283192743 2.2874379122566615 0 0 0
1227 1 13.330653936028677 14.411512689064024 2.4039999916806787 0 0 0
400 1 2.8538178559346723 16.86112581415728 2.5068188996783825 0 0 0
111 1 1.4316294236770881 19.477967085777426 2.317034337153023 0 0 0
8 1 0.061818402144481865 1.6800670749617062 6.968815265795525 0 0 0
399 1 4.419348581073727 19.448126250768976 2.2414033420176764 0 0 0
691 1 7.387761790725188 19.59646125931663 6.9881737367132315 0 0 0
113 1 0.05483754466261582 15.288842913365327 4.795795918656945 0 0 0
976 1 8.732429567977482 16.865404949486543 2.2995821539076546 0 0 0
687 1 7.431029792364331 19.427152862391797 2.3910744096389327 0 0 0
76 1 0.09180132334570601 11.857795417003 2.318766261496495 0 0 0
402 1 4.459457244696804 17.804081179026667 4.636593497040993 0 0 0
1264 1 11.693373781326873 17.04038855794488 2.4770439832003617 0 0 0
975 1 10.246841390833094 19.60693176201264 2.099050865339433 0 0 0
1263 1 13.150209756540024 19.670386322270343 2.404256622215747 0 0 0
115 1 1.5630319002682025 19.510946040524694 6.966777701416331 0 0 0
943 1 10.357558004149613 14.636296410198392 7.049599681854455 0 0 0
114 2 1.5166016175843908 17.916185637565484 4.6659975985265 0 0 0
655 1 7.286381046909077 14.254647343682363 7.052545248596445 0 0 0
6 1 1.3827924719083777 2.6972872488321618 4.770277991194936 0 0 0
296 1 2.9546129099305243 1.7286471181149154 6.813150329131335 0 0 0
1231 1 13.312134359759673 14.423272349276312 7.102179765708901 0 0 0
294 2 4.327273766937559 2.5657741731158827 4.578162273782584 0 0 0
584 1 5.809809947591618 1.7880846091487546 6.9290520424899755 0 0 0
1265 1 11.83988538217421 15.369516166627173 4.970588409013973 0 0 0
582 1 7.46128717210874 2.5327161211985154 4.77686967726943 0 0 0
872 1 8.806769834754169 1.5513499075240822 7.007295493321693 0 0 0
870 1 10.329653943331575 2.5252196577531394 4.63077548889141 0 0 0
1158 1 13.208675273989705 2.464554805147847 4.725996980153271 0 0 0
1160 2 11.629298424529802 1.651483481815242 7.08169711154145 0 0 0
7 1 1.4442235376604224 4.173417505231289 7.198078395276606 0 0 0
329 1 3.018647792276096 4.9944293226162975 4.641954374231773 0 0 0
295 1 4.41128986338094 4.3521131375337045 7.00545624133979 0 0 0
617 1 5.858071475565624 5.083256487435715 4.588178324768444 0 0 0
583 1 7.319624140437899 4.332447906587023 7.034148922685578 0 0 0
905 1 8.934746108044271 5.145315549433511 4.563431986636323 0 0 0
871 1 10.334770588124476 4.241490772070349 6.922591662819813 0 0 0
1159 1 13.114136278835216 4.236353129775194 6.986005662281972 0 0 0
1193 1 11.790441115125113 5.123784819547292 4.49498060954744 0 0 0
403 1 4.559910840154331 19.53227530346223 7.049967220907027 0 0 0
332 1 3.1473578014600103 6.8596349882198995 6.966465446658248 0 0 0
42 1 1.5074456989155522 7.661023043348628 4.507999921082095 0 0 0
43 1 1.549380984017296 9.183752283783159 6.867615477967352 0 0 0
365 1 2.968106139571831 10.269941169968686 4.683957829014486 0 0 0
620 2 5.951824085690092 6.753654333354051 6.951541179612042 0 0 0
330 1 4.425724451734048 7.767702253922096 4.6654615920650055 0 0 0
331 1 4.663486944460162 9.400708074164358 7.004796341138609 0 0 0
908 1 8.850996287215123 6.8789121687072345 6.91315650454707 0 0 0
618 1 7.215188744564865 7.571745566046201 4.578187474803821 0 0 0
619 1 7.4850281435861294 9.356991739104753 6.85689086762661 0 0 0
941 1 8.766776691936284 10.232654069306932 4.608871064877627 0 0 0
906 1 10.289187503351043 7.770660832205434 4.613761889989436 0 0 0
907 2 10.258383891094226 9.447080121512641 6.971674136466011 0 0 0
1196 1 11.678332218200413 6.899546057513735 6.894991037319405 0 0 0
1194 1 13.15363681137052 7.758667880786808 4.62177934654304 0 0 0
1195 1 13.129180159462807 9.224370543795697 6.957294419017031 0 0 0
78 1 1.5958889975022643 12.713152809302983 4.551991108128487 0 0 0
368 1 2.924933292718624 11.766231859216132 7.015910901544205 0 0 0
653 2 5.9876277680411985 10.118597443535325 4.514228496742637 0 0 0
366 1 4.427621412276337 12.600923705466986 4.563855295251393 0 0 0
656 1 5.915444828414116 11.852644914952082 6.980521972539038 0 0 0
944 1 8.877398875007037 11.892671607640695 6.888290641185933 0 0 0
654 2 7.288279237959506 12.63205981868569 4.5905963218413195 0 0 0
942 1 10.275127773718173 12.93678486305409 4.60368244849891 0 0 0
1229 1 11.61251504126546 10.285638782826739 4.49205583384293 0 0 0
1230 1 13.272712182692118 12.705681191523583 4.686677451522517 0 0 0
1232 1 11.719648087091716 11.93985978387663 7.0110587338191666 0 0 0
1267 1 13.221949807234278 19.519854466183894 6.960912969774117 0 0 0
404 1 2.9954424614893336 16.826480584567374 6.970323929885681 0 0 0
79 1 1.4282018955985643 14.321355764431049 7.043900303133324 0 0 0
401 1 3.039726836249314 15.227283163778392 4.671996383746674 0 0 0
692 1 5.925317495902089 16.81171763513517 6.895364494205571 0 0 0
367 1 4.305920866123886 14.3688787721394 7.033289325578946 0 0 0
689 1 5.940678768928658 15.130166851633684 4.665548885660052 0 0 0
977 1 8.776323468505677 15.345039668570974 4.662868602063034 0 0 0
112 1 0.18977661991364414 16.86301357179571 2.480790366470667 0 0 0
1154 1 13.279129882723462 2.653705435275001 0.029686433053142308 0 0 0
721 1 5.91051656359902 20.24918072434915 -0.004467352588977753 0 0 0
116 1 0.02771115250971938 16.98883485869249 7.042357641825875 0 0 0
77 1 0.09697120179984346 10.036027864995013 4.514020875829169 0 0 0
37 1 0.022578601721442874 5.150343979362691 0.03155176249330793 0 0 0
398 2 4.490254082417533 17.65974728275966 0.1006616686157571 0 0 0
74 1 1.4733582915005534 12.626119040124562 0.054727616173764204 0 0 0
866 1 10.236034512185418 2.6583835639539446 -0.0014182836174256863 0 0 0
649 2 5.889919847346494 10.141022064610661 0.015604414007441392 0 0 0
686 1 7.302266665156051 17.73315350523404 0.005380066607102663 0 0 0
10 2 1.6316648351164342 2.444070313110837 9.418438009498054 0 0 0
300 2 2.908802754636989 1.6503142870195406 11.742971957479522 0 0 0
120 1 0.03226785471895255 16.96002198169104 11.82056675599158 0 0 0
298 1 4.485031388978067 2.608058931476451 9.328318710241547 0 0 0
588 1 5.911279394166382 1.7447378510400633 11.58375834622041 0 0 0
586 2 7.413505811628911 2.508808199679261 9.282931604290827 0 0 0
876 1 8.758621248949598 1.7714719196867121 11.760152184589167 0 0 0
1305 1 11.75286532678883 20.272613354698525 9.502924367017942 0 0 0
874 1 10.242734380814293 2.6088303432165207 9.323937857017777 0 0 0
1162 1 13.234751389902797 2.4816645825505157 9.234902932773691 0 0 0
1164 1 11.692665660635049 1.963091301966006 11.528684293048896 0 0 0
11 1 1.3840848797839636 4.431555976178034 11.579687158489566 0 0 0
333 1 2.9602161336672457 4.914564789981905 9.34024375389822 0 0 0
336 1 2.93031510026271 6.745421221094655 11.711227755454917 0 0 0
299 1 4.339420695140158 4.194058093000723 11.7602156039936 0 0 0
621 1 5.800894716932662 5.046045443551915 9.509647699711506 0 0 0
624 2 5.875475658868925 6.736853529989907 11.531833363229453 0 0 0
587 1 7.5119856402721 4.20461204490541 11.472205515044582 0 0 0
909 1 8.771751615933626 5.082324664120538 9.253978777916247 0 0 0
875 2 10.300911882969112 4.282928270729874 11.666336782313868 0 0 0
1163 1 13.219661111029325 4.315833217342858 11.731989223540733 0 0 0
1197 1 11.532785861606117 5.182563112179478 9.40133528113507 0 0 0
733 1 6.034846251905199 20.27040211753577 13.876410653166413 0 0 0
46 1 1.5171163100656913 7.535735829134721 9.275906471630194 0 0 0
47 1 1.326456358293599 9.236280104262319 11.575376549235973 0 0 0
85 1 0.2547204335303188 10.177970888911958 14.110310695685184 0 0 0
334 1 4.469798758008661 7.731497471854932 9.327583901225045 0 0 0
335 1 4.542192999355113 9.16452936066211 11.765902376740284 0 0 0
657 2 5.856789481667737 10.115754763197343 9.416517727942471 0 0 0
912 1 8.81991063346196 6.740695846144653 11.573576525938245 0 0 0
622 1 7.25763199314085 7.641312453141349 9.222063053555082 0 0 0
910 1 10.243489566503174 7.746978847926986 9.210180531501674 0 0 0
623 1 7.227327332287711 9.26798018038156 11.744404960497826 0 0 0
945 1 8.82620752645867 10.270350266504538 9.377547212124151 0 0 0
911 2 10.239080061547684 9.298188296833878 11.670429435476645 0 0 0
1200 1 11.759285011011935 6.842743209408986 11.63586554237585 0 0 0
1198 1 13.187809148170457 7.56166427024045 9.310705296347722 0 0 0
1199 1 13.208613614799289 9.30730699789232 11.62624047988928 0 0 0
369 1 2.9001758039362975 10.042934628376948 9.361944944581653 0 0 0
82 1 1.527352206296825 12.686821384521625 9.267307950889467 0 0 0
372 1 2.9018042746060666 11.761252072137118 11.766421726421987 0 0 0
157 1 0.14133180038958384 20.16888210255599 13.901484179352494 0 0 0
370 1 4.301586768960913 12.491062823907043 9.371186959428307 0 0 0
660 1 5.855240047849187 11.879495829942616 11.688438742093599 0 0 0
658 1 7.287474292334051 12.573917420559022 9.321428355294866 0 0 0
948 1 8.782584564962443 11.783908692765289 11.758503773850013 0 0 0
946 1 10.298927665716915 12.727651367809509 9.447107477372729 0 0 0
1233 1 11.729290458144478 10.219691165755654 9.217861209080446 0 0 0
1234 1 13.247042639136048 12.690929404732854 9.338845817432034 0 0 0
1236 1 11.69645797642133 11.861011368989777 11.699439838532275 0 0 0
83 1 1.3911557000827772 14.263764102255177 11.568961358856296 0 0 0
405 2 3.0059731700850274 15.250958872493408 9.359903652775651 0 0 0
371 1 4.362292684103896 14.358112782216832 11.605352818288267 0 0 0
693 1 5.8655983002712 15.293634724208522 9.332601072681308 0 0 0
659 1 7.269299637050612 14.35644406227605 11.664441019940236 0 0 0
947 1 10.182186271417628 14.325052352151575 11.775329699263523 0 0 0
981 1 8.782769712908047 15.232696971151631 9.446107523089205 0 0 0
984 1 8.784512593865397 16.823412197546787 11.812476796910621 0 0 0
1235 1 13.342394202935699 14.436145382462103 11.737618035564523 0 0 0
1269 1 11.882308114535727 15.11564645546841 9.355280921316583 0 0 0
1272 1 11.73323175052191 16.958566807237244 11.722980563314671 0 0 0
408 1 3.00677206870896 16.758531444665397 11.538920600586207 0 0 0
118 1 1.5775805339314064 17.884017622348992 9.346574832580885 0 0 0
119 1 1.663043933889476 19.370759366636207 11.617678628194682 0 0 0
1021 1 8.809040039527941 20.14849958448234 14.012952657909343 0 0 0
698 1 7.332246610707469 17.704242378173042 14.183380712749207 0 0 0
696 2 5.8918295510781515 16.880023424404005 11.551744832420768 0 0 0
406 1 4.5450722325932 17.730875239578214 9.27862733585892 0 0 0
407 1 4.477090197847791 19.277372569310884 11.676457934734492 0 0 0
988 1 8.779573791931606 17.044282606564796 16.44496812351532 0 0 0
694 1 7.24612274579785 17.772666007026338 9.191173431484625 0 0 0
695 1 7.408568564661532 19.198233346069713 11.656206217383538 0 0 0
982 1 10.316157205865776 17.720511455066585 9.475975351631638 0 0 0
983 1 10.355958039253474 19.41416154405326 11.635401800998997 0 0 0
1270 1 13.201900560976824 17.71717178886141 9.259934839038896 0 0 0
1271 1 13.310784632545174 19.432885554578156 11.640348837023707 0 0 0
986 1 10.363312244126492 17.72243617834807 14.01550637825174 0 0 0
14 1 1.4580445800166293 2.577484562861526 13.931381898944693 0 0 0
304 1 2.8984032407214535 1.7705608225028986 16.448157908357544 0 0 0
987 1 10.157412741739543 19.520754921697254 16.356623837348955 0 0 0
445 1 2.985569111555448 20.151628545926187 14.18151425190853 0 0 0
302 1 4.468072942713366 2.554402467806229 14.034558206102089 0 0 0
592 1 5.824623229572235 1.6161305889895565 16.389961735393474 0 0 0
81 1 0.028973311025319966 10.12292990838904 9.22240756255661 0 0 0
590 1 7.343808085671062 2.530652218779902 14.062398745318081 0 0 0
880 2 8.712259946394086 1.7856825092125321 16.383622102796693 0 0 0
88 1 0.2313969611298587 11.773469918787784 16.324719657868275 0 0 0
878 1 10.241098501691493 2.551165194231891 14.136555699437555 0 0 0
1166 1 13.193690886765067 2.4236479212861965 14.016377795935453 0 0 0
1168 1 11.596608316172722 1.6251744784875068 16.43462124757545 0 0 0
1276 1 11.756654112980096 16.8272592565855 16.35047078469861 0 0 0
15 1 1.4385349962908376 4.260844359172261 16.316597494588176 0 0 0
337 1 2.9805880811701075 5.068476596492236 14.062261823177584 0 0 0
303 1 4.353313092878951 4.3019963097374925 16.37727322153633 0 0 0
625 1 5.943669408633376 5.032319155123637 14.183091309298801 0 0 0
591 1 7.442271849207606 4.240858764507168 16.31549054325859 0 0 0
913 1 8.82092220380328 4.915140575326431 13.910454591282411 0 0 0
879 1 10.145956981811917 4.164704097121798 16.44728247264104 0 0 0
1167 1 13.021539138530223 4.142030090290502 16.283539401998553 0 0 0
1201 1 11.818180376010023 5.113912925263741 13.993366887127548 0 0 0
117 1 0.0973889425778396 15.438414097204117 9.387274879304051 0 0 0
340 1 2.857691262005886 6.775095977444108 16.38893769181285 0 0 0
50 1 1.4397959831720222 7.684831088411426 14.052359234738468 0 0 0
51 2 1.5201719457818388 9.297076387069575 16.4859693058255 0 0 0
373 1 3.0251174766189304 9.994055324431018 13.989578751886993 0 0 0
699 2 7.330718950451703 19.682288749083423 16.42477629024462 0 0 0
628 1 5.8752357988059725 6.734291760046149 16.45101962484 0 0 0
338 1 4.534616977726867 7.555603090255417 14.02378362288471 0 0 0
339 1 4.418816404575044 9.11250915919789 16.279927473694162 0 0 0
661 1 5.839835563276121 10.090539842389513 13.942608038046892 0 0 0
916 1 8.941260290675254 6.705065709882107 16.304937546995713 0 0 0
626 1 7.386749252788397 7.522662387547572 14.007204922843894 0 0 0
627 1 7.395021043456484 9.259798336706424 16.39842113724751 0 0 0
1204 2 11.707337680874442 6.942795336376109 16.412048158358935 0 0 0
915 1 10.286213250239067 9.315493314165145 16.387484455737546 0 0 0
914 1 10.35454374195036 7.641941359712403 13.924835566635409 0 0 0
1202 1 13.281994238802515 7.495660235255121 13.94887129769309 0 0 0
1203 1 13.182549706513006 9.38720362279802 16.29236820171013 0 0 0
1237 1 11.735460721838011 10.141894392300397 13.953719783776735 0 0 0
1275 1 13.05198446445984 19.374634416405403 16.372789377837766 0 0 0
86 2 1.5871653324862876 12.753644486162269 14.108125978200846 0 0 0
376 1 3.0405136655609373 11.777229644922503 16.30292991046994 0 0 0
374 1 4.338011611648348 12.738847719666106 14.145334808206494 0 0 0
664 1 5.9240635039673375 11.820348291143082 16.361121445299556 0 0 0
949 1 8.830763705229366 10.192227445967188 13.982973024158444 0 0 0
662 1 7.360021543198992 12.775670491465412 14.164714255892271 0 0 0
952 2 8.870957740638538 11.74369905274183 16.407234027806105 0 0 0
950 1 10.20323318302481 12.70008591698634 14.19861697534156 0 0 0
1238 1 13.173252892148628 12.76364695883567 14.09090855322013 0 0 0
1240 1 11.691308481818192 11.935640120618054 16.401602195653165 0 0 0
87 1 1.4264390257493915 14.532502390500216 16.545197996135535 0 0 0
409 1 2.7285565914785668 15.188887660253355 13.99443293600769 0 0 0
412 1 2.9122283929411155 16.853346596577275 16.434328490813247 0 0 0
375 1 4.327822367171179 14.437874854555888 16.329506743598056 0 0 0
697 1 5.86984649562048 15.299131873620249 13.851570899919047 0 0 0
951 1 10.256200404820733 14.372696184880105 16.401133515684574 0 0 0
663 1 7.38732965922283 14.436149538774098 16.27978779977115 0 0 0
985 2 8.871476019504657 15.298007212763522 14.076688376673934 0 0 0
1239 2 13.22920558833792 14.295412163489756 16.561629904563908 0 0 0
1273 1 11.661318454245023 15.216221363363285 14.071300960611186 0 0 0
122 2 1.3263186187408302 17.673111740791313 14.176246779582085 0 0 0
123 1 1.481476536569531 19.351374601207947 16.371140297370427 0 0 0
1274 1 13.235797604662535 17.701702188027266 13.821354836085634 0 0 0
411 1 4.445160818242219 19.359553963618527 16.346985052462617 0 0 0
410 1 4.432562646763888 17.6399783907625 13.85461448914727 0 0 0
700 1 5.812577632549152 17.10595103181246 16.293244975723447 0 0 0
585 1 5.869701957258183 0.04967146185578031 9.337572185517594 0 0 0
1161 1 11.683239782974008 0.07014343696357628 9.25418945219842 0 0 0
18 1 1.4642056742344514 2.4571241727051065 18.831002705168814 0 0 0
165 1 0.1338836488185623 20.204491956624725 23.277614058797955 0 0 0
306 1 4.320817725694018 2.535740062213402 18.74964485191528 0 0 0
594 1 7.331957919067972 2.6111591566570964 18.752266523095958 0 0 0
882 1 10.284464221431024 2.5091914343661674 18.705255622772594 0 0 0
309 2 2.809492486962411 0.03563060731468587 23.400413912221335 0 0 0
1170 1 13.091291361386807 2.622177244934035 18.76929200071849 0 0 0
89 1 0.06607172525350746 10.152606865095592 18.71515325332687 0 0 0
1169 1 11.704398054253963 0.15834866888603763 18.888253311853774 0 0 0
341 1 3.019279174804205 5.1366685918097374 18.660638481839065 0 0 0
19 1 1.4711390833253926 4.28380549854743 20.949649476225584 0 0 0
629 1 6.012394221905995 5.116202141123536 18.758453741599677 0 0 0
307 1 4.420441321863431 4.29108835532526 20.99937428834872 0 0 0
917 1 8.759880479406561 5.04981091210497 18.869443419861817 0 0 0
595 2 7.269799217967111 4.202807685647104 21.238524951836595 0 0 0
883 1 10.293384031299277 4.217707167987871 21.068110540218388 0 0 0
1205 1 11.706289591632704 5.217156790278605 18.61542425552662 0 0 0
1208 1 11.657895307648413 6.9275464473673996 21.05366641934378 0 0 0
54 1 1.3687586617616978 7.578068089565238 18.722232746039875 0 0 0
377 1 2.956638374942126 10.001986252438257 18.759310735894758 0 0 0
55 2 1.5179421564266953 9.286109348974332 21.07478729378871 0 0 0
991 1 10.38153434505644 19.46507773996611 21.138546794680114 0 0 0
342 2 4.448440492492903 7.431365348116727 18.64506539973323 0 0 0
665 1 5.764045557646194 9.995358689591969 18.798087050250953 0 0 0
630 1 7.367063577779968 7.605187163861695 18.823002212936153 0 0 0
953 1 8.70475150207671 10.152792751674594 18.802837575070313 0 0 0
920 1 8.753778746633152 6.8334357699510315 21.122505572107123 0 0 0
918 1 10.330051470859857 7.765922376132701 18.754826373271055 0 0 0
1206 1 13.115523829660791 7.544143926222992 18.687744676963682 0 0 0
919 1 10.338002103053798 9.434649530236488 21.091728049449884 0 0 0
1207 1 13.452983176388017 9.204125043845652 20.898033850596224 0 0 0
1280 1 11.722191760167963 16.845446996010434 21.22105005104834 0 0 0
1282 1 13.13648572629503 17.86080306713438 23.497808141029285 0 0 0
90 1 1.7121997003917038 12.83811234489915 18.662726432229746 0 0 0
380 1 3.0309300103571117 11.684643511909128 20.854891960738026 0 0 0
378 2 4.48259885256399 12.705556292746095 18.684175208893645 0 0 0
666 1 7.4887020581723975 12.671841739160447 18.605951604174557 0 0 0
954 1 10.30152675717182 12.5799483288307 18.755025683728242 0 0 0
1241 1 11.778604821855538 10.334650009612442 18.784571772598753 0 0 0
1242 1 13.338195133533151 12.654987410116286 18.755231047419944 0 0 0
1244 2 11.846615326588982 11.802947606718256 21.134266249638998 0 0 0
413 1 2.999942207948861 15.176997033587107 18.731714976177198 0 0 0
379 1 4.348743742289948 14.351615726453932 20.988068403112777 0 0 0
701 1 5.81989044331912 15.187107813363175 18.605905763536093 0 0 0
989 1 8.782174483267383 15.031132817649985 18.841860585235647 0 0 0
992 1 8.796643538160438 16.789114278585103 20.956751939732154 0 0 0
1277 1 11.747199779865584 15.303800013179272 18.679129338175986 0 0 0
1243 1 13.182075110035269 14.374786406697535 21.068405018469427 0 0 0
126 1 1.424892308302899 17.670650882315783 18.653334154202796 0 0 0
127 1 1.4913263557521588 19.33804976745544 20.927883104062143 0 0 0
414 1 4.330348984242109 17.744312147484333 18.78419132084536 0 0 0
415 1 4.459213456977465 19.39140390448839 21.164861377103907 0 0 0
92 1 0.2635547583878548 11.759293163737956 20.958448866754768 0 0 0
703 1 7.371176164826188 19.578828700550414 21.018390332720692 0 0 0
702 1 7.429935080038576 17.81672617851085 18.65896010674736 0 0 0
20 2 0.03208878863593265 1.7053865845288043 20.966694802616356 0 0 0
990 1 10.279138317516193 17.713627058509715 18.83373814426153 0 0 0
1278 1 13.221270785615777 17.888528434936294 18.939110188608574 0 0 0
1279 1 13.10023972524077 19.544115042519373 21.191137663879704 0 0 0
308 1 2.8605311998879333 1.622278635374354 21.10121927032683 0 0 0
22 1 1.407996465441324 2.495997302131084 23.43218497877388 0 0 0
1173 1 11.764529885154472 0.21837583521014645 23.52660394432286 0 0 0
596 1 5.826753884281345 1.828396266364865 20.88649455202108 0 0 0
310 1 4.3948172865626995 2.4718890211162057 23.501923437599167 0 0 0
130 1 1.5007386337056459 17.753154914261597 23.4310094163463 0 0 0
884 1 8.721775927244678 1.7215602316136243 21.114889829665827 0 0 0
418 1 4.567485565581281 17.65579067962926 23.42593006293357 0 0 0
598 1 7.143799672398813 2.507620545804635 23.34737404316646 0 0 0
1172 2 11.870780046105073 1.7327148361429474 21.115993936677306 0 0 0
886 1 10.238106087280471 2.555696500780269 23.46919785034041 0 0 0
1174 1 13.28671157841319 2.613296828127243 23.454296241060625 0 0 0
93 1 0.12350810904432657 10.217390860285711 23.314751726814833 0 0 0
345 1 3.0208023439438993 5.07014858460718 23.53043123871494 0 0 0
344 1 2.993416024200055 6.680513044867248 21.02131565908472 0 0 0
994 1 10.221789375340725 17.753223937928247 23.439435477488598 0 0 0
633 1 5.823244568378834 5.155141376457228 23.437547006408202 0 0 0
921 1 8.746858946453766 4.979764380166127 23.42160557142267 0 0 0
1171 1 13.21554153512889 4.31426688892032 21.09759243121301 0 0 0
1209 1 11.676136452800113 5.143191969105921 23.444814113683044 0 0 0
58 1 1.4005662462099575 7.630886735346773 23.356443491565727 0 0 0
381 1 2.92697411739744 10.20976064020377 23.31216228921784 0 0 0
632 1 5.9502138518755 6.9004530332221234 21.079093613493328 0 0 0
343 1 4.434346799674075 9.172261921815489 21.12052993692985 0 0 0
346 2 4.329103347725464 7.589650930531738 23.402729039421192 0 0 0
669 1 5.910237429066624 10.32654941128293 23.450009082446172 0 0 0
631 2 7.428528984236325 9.411336873408212 21.104257685352458 0 0 0
634 1 7.22009061678331 7.7165888138430425 23.43132906509815 0 0 0
922 2 10.230571544303745 7.693870109461856 23.47819580422197 0 0 0
957 1 8.884835577122795 10.115441873090832 23.37219950730615 0 0 0
1210 1 13.238043933234174 7.583231866306259 23.35166550778988 0 0 0
1245 1 11.973543626871363 10.04528938844467 23.464903629832605 0 0 0
706 1 7.281738232395994 17.89802990377342 23.29161429283401 0 0 0
94 1 1.419357556776384 12.701526182738055 23.411973672080187 0 0 0
668 1 5.842441330750642 11.863935760294636 21.019969473945032 0 0 0
382 1 4.499973615255438 12.805873960204027 23.269325425513397 0 0 0
956 1 8.910221342742243 11.978542662677041 21.062010734805327 0 0 0
670 2 7.540446546784608 12.68508240009365 23.445682065520536 0 0 0
958 1 10.5256556506383 12.672301176041884 23.444201170290917 0 0 0
1246 1 13.242783547625049 12.708244551517335 23.346935921320675 0 0 0
416 1 3.0131063520154577 16.83088392803637 21.190779201889256 0 0 0
91 1 1.4802222443351358 14.362991142337867 21.144749760361886 0 0 0
417 1 2.8515672884361067 15.225588712941695 23.47077001833278 0 0 0
704 1 5.8222352459174935 16.830228501044836 20.992203252424112 0 0 0
705 1 5.979976769236346 15.11463592991349 23.449644364218283 0 0 0
667 1 7.295071288087528 14.365363474994394 20.98630073312065 0 0 0
993 1 8.818703886312894 15.275297662842373 23.377934218602707 0 0 0
955 1 10.394199185429743 14.328958470084979 21.037303687458756 0 0 0
1281 1 11.814636803910918 15.31552433930324 23.557597891609177 0 0 0
741 1 5.8634742092297625 20.210454159922378 23.433722377816903 0 0 0
305 1 2.965592353286519 0.03413254368095554 18.666486859256068 0 0 0
453 1 2.9827849696202997 20.287230936139874 23.40436509605508 0 0 0
593 1 5.798831201567123 0.026938688058852404 18.671169410021445 0 0 0
128 1 0.08725952835375417 16.96776238460568 21.122931184188015 0 0 0
57 1 0.028680248201258588 5.0421197325614875 23.556584224958776 0 0 0
737 1 5.715003816746622 20.291370030674273 18.645470327254003 0 0 0
1029 1 8.765995881025814 20.2487845850895 23.43534478203343 0 0 0
26 1 1.5416526308552287 2.530556702923054 28.16145183464709 0 0 0
312 1 2.952789310585054 1.5771672002056392 25.86465858599717 0 0 0
893 2 8.739512982835391 0.09716930498449078 32.83260158656623 0 0 0
314 2 4.46472882352966 2.453096080344016 28.128271201279095 0 0 0
600 1 5.876947210044648 1.7214756636095476 25.7946750985046 0 0 0
100 1 0.08514108411235118 11.736104207650108 30.397798008588147 0 0 0
602 1 7.216309496000641 2.6087854214284154 28.1857677031622 0 0 0
888 1 8.764237802796323 1.7188254926459237 25.747365750519382 0 0 0
890 1 10.237262114817296 2.738624194054398 28.053328313135964 0 0 0
1176 1 11.713717668572246 1.9861385543119014 25.837814133012294 0 0 0
1178 2 13.278471094808106 2.6027490977492165 28.08470522716941 0 0 0
137 1 0.05560980585197228 15.102430015379722 32.85074407325604 0 0 0
23 2 1.5266885171024678 4.224755086525817 25.801878838424884 0 0 0
349 1 2.786758340727471 5.034728370106042 28.05518984889647 0 0 0
348 1 2.8649306112406125 6.79528129552723 25.693803767275064 0 0 0
311 1 4.201150740283566 4.161178640471116 25.91277444183168 0 0 0
637 1 5.766609093811725 5.126342021378526 28.03976965839594 0 0 0
599 1 7.40806550995866 4.1592656604571285 25.745862771090064 0 0 0
925 1 8.724425026805223 5.081077486146511 28.12270844479848 0 0 0
887 2 10.223536375274788 4.293913832191758 25.748804452096557 0 0 0
924 1 8.901671035372308 6.596887752394167 25.70826704493425 0 0 0
1175 1 13.212044431185895 4.373889651368417 25.84034490718785 0 0 0
1213 1 11.701788642558727 5.053428408395878 28.022928118200632 0 0 0
1212 1 11.835546472534157 6.852451756854622 25.659133135061563 0 0 0
62 1 1.3934488533433094 7.735490751869882 28.066972948391616 0 0 0
59 1 1.4951705495518357 9.383971348093407 25.68142410946956 0 0 0
385 1 2.8357788004584243 10.352693622953078 28.226070840932547 0 0 0
636 1 5.761893377684564 6.791069040558579 25.699214746573116 0 0 0
350 1 4.236105066951451 7.817770447629732 28.04889373987431 0 0 0
347 1 4.27939675730895 9.304093577413918 25.71334653722265 0 0 0
638 1 7.394584872486862 7.650605125341629 28.079706404321072 0 0 0
926 1 10.319089621654202 7.589958843068066 28.03692754751107 0 0 0
635 1 7.319122524527112 9.09942724155667 25.773611313178865 0 0 0
961 1 8.755158754413825 10.179805401047421 28.08558467544088 0 0 0
1214 1 13.259646296763192 7.526218828522763 28.150921413234062 0 0 0
923 1 10.41332561104323 9.300478637447535 25.778069227167865 0 0 0
1211 1 13.401078057429675 9.207411002327387 25.79348122665971 0 0 0
1249 1 11.79032637870535 10.28256616307152 28.139105310053186 0 0 0
98 1 1.4540376037383942 12.602379323464943 28.11626426449748 0 0 0
384 1 2.9600234730422406 11.982899635871616 25.683743147405078 0 0 0
673 1 5.851497875659846 10.11847823191576 28.19479187395366 0 0 0
386 1 4.55756885916075 12.66302086244962 28.081318083953278 0 0 0
672 1 5.956333162295719 12.032085824789533 25.730113613727443 0 0 0
674 1 7.381620168837614 12.746637387205357 28.10704587157118 0 0 0
960 1 9.031658006464765 11.88567102959861 25.722414346811206 0 0 0
962 1 10.343919895041235 12.67152649191557 28.016749206848694 0 0 0
1248 2 11.922968405355578 11.617100844001891 25.747359413508054 0 0 0
1250 1 13.31562560729539 12.648163038553163 28.171349481436483 0 0 0
95 1 1.5003928796188584 14.256046782205667 25.808715631185013 0 0 0
421 1 2.9753015061727233 15.215693446063124 28.09740878486216 0 0 0
383 1 4.4138181891390005 14.424132973711355 25.734695840819434 0 0 0
709 1 6.00291573524322 15.270880293404225 28.12091292495547 0 0 0
671 2 7.402269473222695 14.42743488100012 25.764320526955416 0 0 0
997 1 8.812208715238981 15.20643485010499 27.939774587178345 0 0 0
996 1 8.738519079016008 16.93669127596026 25.673464860104485 0 0 0
959 1 10.287431493105315 14.228742474621571 25.721050182629458 0 0 0
1247 1 13.160864815865759 14.326107118726817 25.799113334124176 0 0 0
1285 1 11.704279396707228 15.323583315594481 28.017103340555686 0 0 0
420 1 2.9129161257055616 16.943078573093597 25.800800161511063 0 0 0
131 1 1.4518166936009083 19.478249290613007 25.78015947434755 0 0 0
134 1 1.2158541130421243 17.71570931902693 28.115583194912098 0 0 0
889 1 8.927861355004458 0.16560472403177703 28.028460503645494 0 0 0
708 1 5.963031657385437 16.93417282755963 25.70272509054456 0 0 0
419 2 4.41619604726746 19.500996339443514 25.748232940982433 0 0 0
422 1 4.381789625087884 17.850737500320825 28.004825579207914 0 0 0
707 1 7.337694830141433 19.402957605920598 25.804757481298022 0 0 0
710 1 7.348182622254157 17.888591335357727 28.185681819670986 0 0 0
995 1 10.270215344301587 19.546493952705237 25.714766074428308 0 0 0
97 2 0.08077749572944981 10.118825666909258 28.004453620264517 0 0 0
998 2 10.185989897638045 17.804801889883617 27.981534710278904 0 0 0
1284 1 11.735869062992018 16.927945738177765 25.820241105469332 0 0 0
1283 2 13.119872314587107 19.50983597732919 25.77401385697016 0 0 0
1286 1 13.104073412176609 17.972849669916183 28.074328651819553 0 0 0
1288 1 11.81176705860401 16.96385058115772 30.456277164383014 0 0 0
30 1 1.3445459713658061 2.603924044606247 32.65419965689935 0 0 0
316 1 3.002539306885725 1.5973418610756365 30.412332281237063 0 0 0
1002 1 10.316687548232796 17.694412273413693 32.730915265410715 0 0 0
1181 1 11.739315639677235 0.034362919944649434 32.80695352677516 0 0 0
318 1 4.24610405871891 2.4848826153093473 32.63943929088356 0 0 0
604 1 5.859443646273776 1.6575758191615282 30.413435301431857 0 0 0
606 1 7.272391412812131 2.6244347008800797 32.734974361789355 0 0 0
892 1 8.827930244673716 1.7743146268024312 30.516130075423135 0 0 0
136 1 0.03124936322168992 16.70530091417763 30.565782842480267 0 0 0
894 1 10.217889748609826 2.5942372623426366 32.77280391719164 0 0 0
1180 1 11.696859527320942 1.7108587638416435 30.347340019679226 0 0 0
1182 1 13.261616366155616 2.5173069069265934 32.9007231722249 0 0 0
1177 1 11.750794028977072 0.04857842603068417 28.098811665005584 0 0 0
27 1 1.4616796146296738 4.253861059081661 30.473600517396527 0 0 0
353 2 2.7831603915859695 5.054660338921053 32.72446122587721 0 0 0
352 1 2.833661039263242 6.734866296427671 30.47852289532415 0 0 0
315 1 4.264836210905768 4.176931800248497 30.282639796967548 0 0 0
641 1 5.76086124122871 5.282449874989763 32.70325623684769 0 0 0
603 1 7.357134112188068 4.293584108123004 30.417886641287048 0 0 0
929 1 8.752323937093863 5.063709239019301 32.736398149741476 0 0 0
891 1 10.323888049422989 4.2822099211184 30.440054620480346 0 0 0
1179 1 13.219530633981618 4.21959362328899 30.397295678996127 0 0 0
1217 1 11.818602561676263 5.065306422940573 32.841038077683436 0 0 0
66 1 1.4012283116878308 7.559460185678972 32.8224245805648 0 0 0
63 1 1.5890603995015662 9.313914206666027 30.433193570118522 0 0 0
640 1 5.967101538816578 6.999597374797031 30.444886080539376 0 0 0
354 1 4.228810737307439 7.548212535959497 32.88822003752752 0 0 0
351 1 4.315826971169484 9.40509778474777 30.573316029903577 0 0 0
928 1 8.847906429659252 6.8757644560388895 30.60306783279707 0 0 0
642 1 7.321136627945094 7.661804944699579 32.70617611248902 0 0 0
639 2 7.388918276775203 9.433490512972663 30.416495518423808 0 0 0
930 1 10.238076565204995 7.66446503738608 32.814346164708766 0 0 0
965 1 8.762702999723237 10.110552250982515 32.69457221654905 0 0 0
1216 1 11.81267318573197 6.712931974538519 30.417300485384718 0 0 0
1218 1 13.218052626124148 7.643228307336768 32.72496799114188 0 0 0
927 1 10.389834823488854 9.51375729829887 30.431077915812754 0 0 0
1215 1 13.334060880740669 9.301816386384546 30.514553673893303 0 0 0
1287 1 13.275383575977736 19.572579796076457 30.42760857519486 0 0 0
389 1 2.9822403616048097 10.25130401440746 32.91415912798804 0 0 0
102 2 1.516524350835366 12.756186477195712 32.79383448755931 0 0 0
388 1 3.0653475521044986 11.848098199384202 30.628804250615385 0 0 0
677 1 5.91909625443986 10.190857743001143 32.79555751800771 0 0 0
390 1 4.522258619423134 12.760593382236728 32.87169515384305 0 0 0
676 1 5.9029465399511265 11.831383519440621 30.56532410960577 0 0 0
678 2 7.363402390789663 12.765286110912031 32.79837485898972 0 0 0
964 1 8.797799579509311 11.855436722932545 30.44687101725971 0 0 0
1253 1 11.780570071658524 10.250629663296289 32.68594186014835 0 0 0
966 1 10.293251269355842 12.815741602332242 32.710552107153035 0 0 0
1252 2 11.786763766405892 11.877369762208689 30.460205801571675 0 0 0
1254 1 13.33222742114553 12.833389718537784 32.77813893482994 0 0 0
99 1 1.5618670443707987 14.273874752654855 30.492156059811137 0 0 0
425 1 3.1045782699646627 15.221926268097894 32.73246471167218 0 0 0
424 1 2.981876646014928 16.96530085232767 30.39275564753316 0 0 0
387 1 4.495596459704711 14.359371309337737 30.401433040056226 0 0 0
713 1 5.832711874253043 15.192939868580288 32.865309664790914 0 0 0
675 1 7.319006648078177 14.270754412283914 30.46534255367742 0 0 0
1001 1 8.855664952546105 15.321202479379355 32.68315111121501 0 0 0
963 1 10.13422221933156 14.408531887729998 30.332964548639346 0 0 0
1251 1 13.10805390353513 14.405260051872599 30.38917095621123 0 0 0
1289 1 11.761989978407279 15.233192412154747 32.86637562156638 0 0 0
1290 1 13.19278672437229 17.798383623045797 32.7833998618991 0 0 0
135 1 1.5031135041796597 19.356780607883444 30.413682330018794 0 0 0
138 1 1.472752795686019 17.53431863614105 32.68949884727442 0 0 0
101 1 0.059717489753233766 10.273915394453823 32.799702082787974 0 0 0
426 1 4.307536403518159 17.97728049239271 32.611669567824364 0 0 0
423 2 4.366067677771532 19.495021646746707 30.326387149635607 0 0 0
712 1 5.988871404312121 17.06346532428589 30.430951736933803 0 0 0
711 1 7.2353166171055525 19.622573048493667 30.4984186006307 0 0 0
1000 1 8.92321117023965 16.851120135860416 30.259805510292534 0 0 0
999 1 10.127706363399042 19.420672239537492 30.37196561692223 0 0 0
714 1 7.457860367517393 17.636466535465757 32.85255141497194 0 0 0
457 1 2.7438614024780184 20.31000455426599 27.95555936721653 0 0 0
317 2 2.8611983186749956 0.09687005607569432 32.78799329039978 0 0 0
601 1 5.899276397202361 0.06543212847486046 28.039967869077245 0 0 0
1321 1 11.799213898032693 20.296296422194338 28.11960400048823 0 0 0
29 1 0.07604048356114318 0.08996167297098623 32.92180887785803 0 0 0
461 1 2.857234651192168 20.29691436035404 32.813642133602386 0 0 0
34 1 1.4593599358270177 2.5140493389408873 37.380952139242595 0 0 0
320 1 2.821574647658728 1.7688235223261881 35.005312663829756 0 0 0
753 1 5.895801640590792 20.3081257416283 37.4386591116607 0 0 0
322 1 4.438223202368124 2.6464125647537333 37.481583456817305 0 0 0
608 1 5.820270001102189 1.7856384347028398 35.09655679940511 0 0 0
1189 1 11.679074134176206 5.228901437741437 42.12223779930413 0 0 -1
610 1 7.270597436490967 2.590319969257612 37.490443103693195 0 0 0
896 1 8.828294402608828 1.8170594117604806 35.0127122978095 0 0 0
465 1 3.0226112988477265 20.26058113392633 37.42542637819558 0 0 0
898 1 10.213893658328004 2.5765188028815365 37.613168879185025 0 0 0
1184 1 11.680230420029682 1.6841601628130831 35.11774515209321 0 0 0
1186 1 13.218713069945888 2.5687633104745156 37.58466408588946 0 0 0
897 1 8.821122626519003 0.22875056319206755 37.576180163822784 0 0 0
31 1 1.4587846925716739 4.316857027608392 35.07289724838364 0 0 0
357 1 2.8426207264252636 5.091978648243957 37.453163733871136 0 0 0
356 1 2.838918174113862 6.740077166284301 35.22728545087085 0 0 0
319 1 4.3993175105200795 4.426147865186881 35.141968254405555 0 0 0
645 1 5.712433656267959 5.157071393469087 37.407328877007586 0 0 0
644 2 5.78932147315527 6.711738758468922 35.10487068933435 0 0 0
607 1 7.30277145027692 4.254924640391949 35.10625836110472 0 0 0
933 1 8.74483769371586 5.122411313523947 37.35767462705847 0 0 0
895 1 10.321600046121812 4.356791463751231 35.071498854474484 0 0 0
1183 1 13.238229688048644 4.327964183101771 35.16429808580814 0 0 0
1221 1 11.756031801654043 5.0609446539660174 37.491696959948726 0 0 0
70 2 1.4673725911078221 7.722334965638234 37.53093571191182 0 0 0
67 2 1.4939625926671427 9.291837499112734 35.197137288613504 0 0 0
1296 2 11.673479262421594 16.92830497774842 39.84781649157108 0 0 0
358 1 4.353378746337978 7.607447987723269 37.50234829447355 0 0 0
355 1 4.501409360519539 9.311754281175054 35.09915535123595 0 0 0
681 2 5.936304198590006 10.203076320565785 37.45623109331649 0 0 0
932 1 8.694369983397223 6.876854591404837 35.14697783703741 0 0 0
646 1 7.120635654372817 7.6240626253587855 37.23700230213731 0 0 0
643 1 7.443087597860891 9.342734867873737 35.08945409725547 0 0 0
969 1 8.853216606563949 10.107142234389809 37.37542829663364 0 0 0
934 1 10.235494584196154 7.620525484803689 37.51258265998031 0 0 0
931 2 10.332682053640356 9.20211905290721 35.11485840440375 0 0 0
1220 1 11.745711525054174 6.76675764596856 35.153072528123076 0 0 0
1222 1 13.210477333501904 7.629677678517655 37.478095911157595 0 0 0
1219 1 13.024878126744712 9.19851679599301 35.1488063598687 0 0 0
1257 1 11.606835444987645 10.177683255094161 37.5666566110649 0 0 0
393 1 3.1022679008315324 10.149384959738594 37.365788901938046 0 0 0
106 1 1.4476515665134062 12.677747988338657 37.416734500035886 0 0 0
392 1 2.766840438205658 11.7165691478018 35.15801135486757 0 0 0
394 1 4.362201494358151 12.581295840539864 37.45290794947941 0 0 0
680 1 6.015934642041286 11.81802788399011 35.214545382838466 0 0 0
682 1 7.4810871186201915 12.594318178013037 37.473362158021615 0 0 0
968 1 9.088212482599591 11.788900051112535 35.0292716753148 0 0 0
970 1 10.338639571835486 12.714416561701917 37.4975126585166 0 0 0
1256 1 11.735047175709322 11.849668701236135 35.09366346246016 0 0 0
1258 1 13.259717558753144 12.812248111579855 37.42941202167522 0 0 0
103 1 1.4296178013415903 14.304611687306169 35.14390067376402 0 0 0
429 1 2.8724571673139176 15.171832207990851 37.423710872558615 0 0 0
391 2 4.464866748758107 14.436133306119947 35.22607306923193 0 0 0
717 1 5.882469507756944 15.138270201265929 37.53745559253248 0 0 0
716 1 5.790301698888021 16.888104307362 35.16986764798661 0 0 0
679 1 7.289097463502509 14.310518498313805 35.181408666035466 0 0 0
1005 2 8.818778788878625 15.152992700913197 37.50450867560927 0 0 0
967 1 10.244856962431085 14.405314254933826 35.052420797408004 0 0 0
1255 1 13.19573966567655 14.465828280331129 35.25164593875695 0 0 0
1293 1 11.652654486059312 15.283757052629479 37.42417486688446 0 0 0
1292 1 11.783355271275571 17.02235695962852 35.05882246830528 0 0 0
428 1 3.0902615564505402 16.909244331685912 35.09369631084073 0 0 0
139 1 1.4012204959340113 19.400234793266765 35.18550226249795 0 0 0
142 1 1.6100757881476329 17.734722172408567 37.34705446628725 0 0 0
1295 1 13.056046827294901 19.50061952373575 39.66919880962968 0 0 0
427 2 4.290922894523889 19.490676291686643 35.09831521472505 0 0 0
430 1 4.459274082803922 17.778418596787954 37.532929895015926 0 0 0
1004 1 8.740983502561118 16.884984184957485 35.227258148942354 0 0 0
715 1 7.306209219294091 19.271544327798523 35.085430486249976 0 0 0
718 1 7.284812903931535 17.605265116257204 37.502489850164125 0 0 0
1003 1 10.20771332829625 19.334874192794093 35.17814927223135 0 0 0
1006 1 10.200738542594898 17.7657893099757 37.447594615927756 0 0 0
650 2 7.405466403550483 12.570192601134607 42.16649636008485 0 0 -1
1291 1 13.214781599717556 19.59131880155887 35.130755643007404 0 0 0
1294 1 13.178695967103504 17.751358472786343 37.46355711208855 0 0 0
324 1 2.8949528770994415 1.5976273141883879 39.79278532643059 0 0 0
1225 1 11.647904568263543 10.156606572410134 42.12697912811343 0 0 -1
901 1 8.764574257441197 5.123012085666683 42.125954264520075 0 0 -1
609 1 5.85725879600992 0.036906883079765355 37.33168938006469 0 0 0
612 1 5.768324324070816 1.7872462056470195 39.82494077289542 0 0 0
72 1 0.04300392184974555 6.709548930437293 39.77573446718321 0 0 0
69 1 0.06625037797434535 5.192003309544933 37.546843327762204 0 0 0
1041 1 8.663056175485044 20.21810110219743 37.4783030300336 0 0 0
900 2 8.694406013637412 1.8331124588872427 39.894215006998735 0 0 0
433 1 3.009040607190935 20.195933700228508 42.159905523621006 0 0 -1
1188 1 11.686473635054739 1.758161257079461 39.77950059823928 0 0 0
35 1 1.4556896742111363 4.121214528927289 39.9588209817838 0 0 0
323 1 4.242194976807829 4.196374667658878 39.71624735518968 0 0 0
611 1 7.228786174246499 4.4088623229876704 39.726860617122384 0 0 0
936 1 8.811258906544824 6.880639585706443 39.68499830683753 0 0 0
899 1 10.299307687726303 4.294736460073861 39.7896519999196 0 0 0
1187 1 13.154653628620986 4.317465297427685 39.86536642226663 0 0 0
1224 1 11.603865599796942 6.711600857380776 39.79472307594337 0 0 0
432 1 3.0264614425414247 16.919524830956536 39.796344164788465 0 0 0
360 1 2.78565176259176 6.73929549865087 39.82114987169156 0 0 0
71 1 1.4556275965211756 9.35334038965751 39.9138952165806 0 0 0
143 1 1.433543831158727 19.387018390215434 39.9104628028483 0 0 0
971 1 10.407580302964545 14.485983213142296 39.85265405033354 0 0 0
648 2 5.710640675798247 6.826631322657694 39.859090142763904 0 0 0
359 1 4.380331827368907 9.350308997136118 39.732380864953385 0 0 0
647 1 7.22023593693473 9.313147853628928 39.72590676332038 0 0 0
719 1 7.261309380006185 19.34751104507141 39.96387930392629 0 0 0
935 2 10.153623566070136 9.345626174274987 39.81785372639747 0 0 0
1223 1 13.072704775973456 9.273732739089095 39.90413683260587 0 0 0
396 1 2.8242665963674 11.798068654034541 39.74518630192004 0 0 0
683 1 7.429537425106211 14.222495577985388 39.927465222316414 0 0 0
684 1 5.872171316967313 11.855273855932083 39.797764715840174 0 0 0
1259 1 13.255301712596063 14.53259567944389 39.74816577508669 0 0 0
972 1 8.79642551571946 11.686771995617095 39.8181394534289 0 0 0
1007 1 10.213929445692141 19.39117282557598 39.756621263627835 0 0 0
1260 1 11.757875652035123 11.958642181215833 39.84871105489951 0 0 0
431 1 4.304625600933663 19.414267256025145 39.88137347054017 0 0 0
107 1 1.3886490526489228 14.308196769420437 39.77628981750095 0 0 0
720 1 5.851382246460185 16.89509734875048 39.80082099326593 0 0 0
395 1 4.406110860702209 14.216745713884574 39.76692873006189 0 0 0
1008 1 8.804342097306177 16.80155663768276 39.784192888047855 0 0 0
326 1 4.37094096067378 7.637329258560723 42.104310382322424 0 0 -1
141 2 0.054116248066066075 15.208729773076989 37.51832990691061 0 0 0
104 1 0.19794781757096302 11.688141392326596 35.07443908139929 0 0 0
144 1 0.1281249952881467 16.78084173497787 39.79709857708218 0 0 0
2 1 1.5424104200113569 2.5726532596798526 42.17382282647402 0 0 -1
1261 1 11.74894393704318 15.27937110040568 42.17971204315779 0 0 -1
105 1 0.06616958928477581 10.236774710402042 37.544253756924476 0 0 0
362 1 4.40324877298395 12.557327468999631 42.086109861995865 0 0 -1
68 1 0.06667849376411539 6.749398336035769 35.22312828886935 0 0 0
38 1 1.5861191468900677 7.60548007557489 42.15994844054586 0 0 -1
614 1 7.208275081005062 7.50776610416509 42.104570343410316 0 0 -1
974 1 10.171531871992208 17.795039835130677 42.12859778262995 0 0 -1
578 1 7.275173955924273 2.547817297124662 42.15192691204217 0 0 -1
902 1 10.141807276341137 7.686164591084883 42.147135191468394 0 0 -1
1009 1 8.74185771532649 20.30920525109545 42.08844138412263 0 0 -1
361 1 2.899932564824098 10.233403207840647 42.096700069636086 0 0 -1
938 1 10.199387702990403 12.664322244779713 42.1586257823309 0 0 -1
865 1 8.649920108407246 0.14605053885712072 42.037355200738034 0 0 -1
325 1 3.1193201861147912 5.050137969250038 42.122398649598054 0 0 -1
397 1 2.92271211222245 15.200797941683142 41.99876804406945 0 0 -1
290 1 4.38403094271787 2.47180430586272 42.150338583376715 0 0 -1
613 1 5.9573895686925855 4.9971727054312245 42.106304104584744 0 0 -1
1262 1 13.11982334079082 17.798313494798148 42.03907853882992 0 0 -1
1226 1 13.194508742924233 12.710452231778262 42.16822032705161 0 0 -1
1190 1 13.208558807681301 7.620108183098605 42.169695266192754 0 0 -1
937 1 8.638647077275229 10.077443541514166 42.00449806889366 0 0 -1
685 1 5.888576767854147 15.164731381369759 42.14540594558287 0 0 -1
436 1 2.94258387617061 22.11388907347098 2.263422374153181 0 0 0
256 1 0.25719201996378194 37.28841416255746 2.1918795567703153 0 0 0
724 1 5.9488987072467365 22.00464554991597 2.2182348368055798 0 0 0
1012 1 8.781548441936566 22.077526460246368 2.2706182485408246 0 0 0
506 1 4.4292441610573485 33.10149743245543 0.12878092250743053 0 0 0
1300 1 11.704429140484585 22.15923022009558 2.188546571087813 0 0 0
147 1 1.5615208316653728 24.580963590230013 2.2227908921330606 0 0 0
152 1 0.12744274088908014 22.102149216155297 6.9323482387086495 0 0 0
435 1 4.494635337728762 24.63257797882655 2.407758729691093 0 0 0
760 2 5.865939673928159 27.082369039692562 2.3080136729655867 0 0 0
293 1 3.0807874976876377 40.555968731222166 4.5637334678959895 0 -1 0
723 1 7.277216550816881 24.594236801824312 2.181636149389583 0 0 0
1048 1 8.886441214740756 27.16466289840599 2.3096131825291826 0 0 0
1011 1 10.234551301964913 24.589552015440766 2.3626638372144417 0 0 0
1299 1 13.155310963180808 24.743353735404817 2.3951196624911195 0 0 0
437 1 2.9725426976275098 20.418692174022052 4.545284613828598 0 0 0
472 2 3.0005521451756274 27.061027424363793 2.3321496656432594 0 0 0
183 1 1.4632299655276015 29.59347480201105 2.317464316576073 0 0 0
259 1 1.561004058658671 39.741731006586306 6.872697935547562 0 0 0
1410 2 13.270729553326886 38.15627405294105 4.490033646330345 0 0 0
471 1 4.384814867210869 29.445028054117508 2.3217844082233934 0 0 0
869 1 8.833038113206374 40.53974867924743 4.614861168473055 0 -1 0
759 1 7.4723031274561516 29.67240106041967 2.291141203265407 0 0 0
1047 2 10.296611626492489 29.62077493315433 2.2416614391546745 0 0 0
1336 1 11.690946930382479 27.33816789621164 2.218385546289479 0 0 0
1335 1 13.162838411105403 29.698858990102956 2.336921856996966 0 0 0
1375 1 13.204222329709987 34.597986145328505 7.0056965794566 0 0 0
508 1 3.055004908183631 32.071283743277256 2.381434601200749 0 0 0
1411 1 13.133769523304634 39.80519915164163 6.913866240620922 0 0 0
796 1 5.931560821990328 32.19297791145266 2.3297100303410674 0 0 0
547 2 4.3067056363403 39.723758817931824 6.950930131960054 0 0 0
1084 1 9.048608836897804 32.23040183372943 2.2809089056180016 0 0 0
834 1 7.4682449636280674 38.04599264062878 4.578377200755524 0 0 0
1372 1 11.685296097524676 32.30495039832898 2.080419179884836 0 0 0
725 1 5.821327394161211 20.42549347491876 4.595588973728247 0 0 0
1301 1 11.664210626984639 20.39496774601304 4.715216377988166 0 0 0
260 1 0.09600612539826159 37.28560823172198 6.9092049558904 0 0 0
219 1 1.3325422220070888 34.74129028544285 2.2804906509928906 0 0 0
1123 2 10.163944689580159 39.838426874416534 6.866887068370955 0 0 0
507 1 4.362697082184564 34.71237900790486 2.3372856492181286 0 0 0
795 1 7.522571434183914 34.68793999092322 2.195696899530391 0 0 0
1083 2 10.368556468055163 34.710030160109575 2.334429190847587 0 0 0
541 1 2.8507147667516226 35.663777403717596 0.00916150243762457 0 0 0
1371 1 13.163636620503311 34.792280755764104 2.1571575756972394 0 0 0
1409 1 11.82888420161425 35.5581471555302 4.67615663256216 0 0 0
544 1 2.933978580267468 37.31416151608795 2.3069712755246132 0 0 0
255 2 1.3760950328586188 39.83702340574511 2.293465590705121 0 0 0
835 1 7.242285936910167 39.75584558968921 6.94363549173049 0 0 0
832 1 5.9606293317764045 37.30980972478824 2.248091346858052 0 0 0
543 1 4.373429662013345 39.73340383275994 2.3451453571747107 0 0 0
1120 1 8.92865411689095 37.22770717122795 2.3461938277719145 0 0 0
831 1 7.284593963896188 39.84397342809219 2.1353071813904587 0 0 0
1119 1 10.16385947446266 39.938229524219075 2.1777868896183694 0 0 0
546 1 4.4788491902703695 38.04531930845765 4.794294372859769 0 0 0
1408 1 11.741707729362217 37.398393959139966 2.2876210256361493 0 0 0
1407 1 13.163888228657608 39.88796632778482 2.4150891833727473 0 0 0
836 1 5.968738605016937 37.231039140165265 7.0705777998959745 0 0 0
150 1 1.4013127023448182 22.9825326211806 4.5971118212139475 0 0 0
440 1 3.0251309385450504 21.976910484342284 6.910954753018275 0 0 0
548 1 2.8920867827759573 37.18530922247231 7.073765970952122 0 0 0
438 2 4.449584228263771 22.959100863996557 4.611248461442858 0 0 0
728 1 5.887468118564747 22.04112036992346 6.915766088479267 0 0 0
726 1 7.418606985462987 22.95146566541794 4.62113605241245 0 0 0
1016 2 8.952546192206308 21.900240060835788 6.968564207809222 0 0 0
1412 1 11.740184756539591 37.41098540252081 7.023712207055097 0 0 0
1014 1 10.145861018052994 22.897525978444182 4.583603761920393 0 0 0
1302 1 13.24799418087061 22.832501115072628 4.604707932253606 0 0 0
1304 1 11.785091766632801 22.087302415142297 7.0519981052309655 0 0 0
151 1 1.5843862402249291 24.56276278163925 7.079089504793307 0 0 0
473 1 2.957634145598604 25.318918256170225 4.676330189854754 0 0 0
258 1 1.4760091591521456 38.21910158212694 4.582347099980357 0 0 0
439 1 4.4683499668452225 24.471257445813713 6.988866374118501 0 0 0
761 1 5.869955617693533 25.362674789957737 4.578565017549126 0 0 0
764 1 5.883286455321381 27.086518597276147 7.047764431330449 0 0 0
727 1 7.410845247356614 24.61278474023506 7.039106827985914 0 0 0
1049 1 8.807185922534895 25.500768337892865 4.644656302889678 0 0 0
1015 1 10.104521070480724 24.58643390635516 7.072686707744367 0 0 0
1052 1 8.998587789127793 27.11293836960409 6.9714922469424145 0 0 0
1303 1 13.230307436698512 24.544660351121262 7.149377272439764 0 0 0
1337 1 11.618262213149414 25.428472176137547 4.690660555817391 0 0 0
1340 1 11.955039068479124 27.162461008604563 6.932432018173728 0 0 0
476 1 3.0305945588284957 27.013740819865188 6.991418803300837 0 0 0
186 1 1.3442740585402586 27.928086817947097 4.794405266668268 0 0 0
187 1 1.436221388458506 29.627797035931493 7.0513273646660934 0 0 0
1122 1 10.288062592037399 38.15801471646985 4.613274214224348 0 0 0
474 1 4.384930901316014 27.912903888960635 4.639056339601451 0 0 0
475 1 4.376974815781271 29.56515612789604 7.099779086078626 0 0 0
762 1 7.169837390536695 27.941391882980675 4.697361395048557 0 0 0
1050 1 10.260336116836259 28.185803045629083 4.554310135328993 0 0 0
763 1 7.490723883963061 29.610797916900424 7.021573965164546 0 0 0
1051 1 10.279283666017397 29.748184153450058 6.923300959767792 0 0 0
1338 1 13.309458096672104 27.671027254747106 4.53910408142557 0 0 0
1339 1 13.266664003995803 29.669445269899075 6.895290918031688 0 0 0
509 1 2.967135721362463 30.467308455329572 4.782140955413225 0 0 0
512 1 2.9950464906167342 32.28288106854178 7.044979485952154 0 0 0
222 1 1.5668715884437645 32.94727178632634 4.707856503659754 0 0 0
1124 1 8.86346354835319 37.29366628699587 7.066842007095631 0 0 0
797 1 5.805378917386672 30.533865946258626 4.742438345748252 0 0 0
800 1 5.90728221745161 32.38546718964975 6.986789006184171 0 0 0
510 2 4.440921081396243 33.00861514053988 4.6893648102367935 0 0 0
1085 1 8.785106343989096 30.47731639883959 4.5023310014948645 0 0 0
1088 1 8.909333726319208 32.31165728283492 6.949764094800381 0 0 0
798 1 7.39417163030598 33.08640321122871 4.615637058146863 0 0 0
1086 1 10.311023293310859 33.08757134791961 4.608015574754361 0 0 0
1373 1 11.76466143241101 30.498668726366585 4.439174050070587 0 0 0
1376 1 11.899459038477051 32.12447499918206 6.94927920240404 0 0 0
1374 1 13.184937763043454 32.97381450192405 4.5162815715990225 0 0 0
545 1 2.8668465569091697 35.68156415803885 4.550704341491922 0 0 0
223 2 1.4531980831269937 34.82347329933186 6.99421455072709 0 0 0
833 1 5.943762753689673 35.48692170789262 4.727205530560115 0 0 0
511 1 4.402598832303232 34.78183928180599 6.9655157340079406 0 0 0
1087 1 10.329307022145933 34.796280364818806 7.020570359094003 0 0 0
799 2 7.464052040604845 34.835106586854415 6.896939429405749 0 0 0
1121 1 8.94467104189859 35.46394929052627 4.686687984209606 0 0 0
1334 1 13.18733559684173 28.11556727585796 -0.010460871540211646 0 0 0
224 1 0.11831545985938874 32.299643803825965 6.861114209922864 0 0 0
184 1 0.1470613565757968 27.047549142226018 2.4914039711276272 0 0 0
220 1 0.05234404103374082 32.08258364942491 2.4576319789941854 0 0 0
257 1 0.048592350931757164 35.54493596214547 4.735446186911063 0 0 0
793 1 5.787043388931565 30.49164701914968 0.0005202667768599532 0 0 0
1117 1 8.858259580128692 35.592909168441416 0.08661376193845172 0 0 0
1 1 0.11194949325069375 40.49517773022663 0.08512446565893583 0 -1 0
758 1 7.418247692216448 27.840655918319968 0.013375849898139336 0 0 0
217 1 0.05425666969200904 30.335779194122583 0.02556751022108017 0 0 0
757 1 5.812067976226638 25.298990803663543 0.026574153986913984 0 0 0
146 1 1.4780688288952983 22.821636826283953 -0.011514450813095323 0 0 0
154 1 1.5628579173778685 22.71885667061499 9.407920403359991 0 0 0
444 1 2.854962870137915 21.85652948536353 11.68358543983111 0 0 0
442 1 4.402646743115821 22.69717161860401 9.513498663464405 0 0 0
732 1 5.968864317887449 21.948364926667438 11.705698305156737 0 0 0
730 1 7.520624379459186 22.843845296737452 9.342465936836554 0 0 0
1020 1 8.91343154306806 21.906019691987023 11.737728641988948 0 0 0
1018 1 10.286074155796477 22.863176920884303 9.21490743327003 0 0 0
225 2 0.014471738301352843 30.65895264290895 9.387194576612028 0 0 0
1306 2 12.998789190592614 22.856964696355668 9.473052603266405 0 0 0
1308 1 11.703510043307231 22.00688229695047 11.613059540991992 0 0 0
155 1 1.5646162955682994 24.427414611853045 11.826627253229638 0 0 0
477 1 3.208018073968338 25.299641293023125 9.411932055913187 0 0 0
264 1 0.07064938332585928 37.21133948493143 11.504697228420227 0 0 0
443 1 4.442078995884266 24.39142785837257 11.899069429667417 0 0 0
765 1 5.935595093007761 25.365027648215843 9.421223756501686 0 0 0
768 1 5.778837515558939 26.935506237805942 11.745163438393698 0 0 0
731 1 7.362518686448213 24.622205843790674 11.65387237653959 0 0 0
1053 2 8.661915756280745 25.538910940655907 9.263165662137165 0 0 0
1019 1 10.171353958066526 24.642243062007587 11.482892511297486 0 0 0
1056 1 8.83165257545537 27.051797209401506 11.677772469391432 0 0 0
1307 1 12.990239781448164 24.53853397338578 11.675859151751828 0 0 0
1341 1 11.613820926041564 25.368033727011642 9.289189679822991 0 0 0
1344 1 11.613591235294507 27.23699059322218 11.624124176801791 0 0 0
480 1 2.9501014584942347 27.190327618135893 11.554024953479953 0 0 0
190 1 1.515921383330389 27.959979608477823 9.319516675910368 0 0 0
191 1 1.340930432937428 29.813953068840252 11.743453294317561 0 0 0
478 2 4.420705175094725 27.9457686891307 9.29679652678306 0 0 0
479 1 4.3465522065531985 29.659081045859644 11.695903053015334 0 0 0
766 1 7.340882180563033 28.058270553220712 9.46189919725884 0 0 0
1054 1 10.29853764159234 28.047239748833107 9.208366664743618 0 0 0
767 1 7.2242621334073815 29.618949808325777 11.652857791436467 0 0 0
1055 1 10.16629689107479 29.705765713635845 11.638618191958424 0 0 0
1342 1 13.241896751619011 27.953367952000235 9.080765590470739 0 0 0
1343 1 13.147624393137228 29.637188330010243 11.590165486089322 0 0 0
513 1 2.8084218258442584 30.510925680110486 9.390133818216373 0 0 0
226 1 1.4662842401511602 32.88214448862593 9.282016221736095 0 0 0
516 1 3.0070664967189407 32.213776887147574 11.869013501150878 0 0 0
801 1 5.976249182151245 30.440398022312976 9.36972260581323 0 0 0
514 1 4.604240942305432 32.97899285647876 9.64055839741009 0 0 0
804 2 5.888267639690546 32.10025772898516 11.749394354153141 0 0 0
1089 2 8.791423478091998 30.54613690874407 9.374685398689147 0 0 0
802 1 7.281298091303238 32.81478719269771 9.343295589497796 0 0 0
1092 1 8.777775790848365 32.23542467123803 11.662796406811994 0 0 0
1090 1 10.122830571171077 33.091399017557016 9.273551742925806 0 0 0
1377 1 11.612232369618237 30.615807838848742 9.243959965767862 0 0 0
1378 1 13.217091106503625 32.933086947740385 9.35341505893952 0 0 0
1380 1 11.613692502295384 32.21776520469491 11.656496021369225 0 0 0
227 1 1.4094235609645682 34.629225270596784 11.60012684911145 0 0 0
549 1 2.878651896403969 35.506189352739476 9.390810563709097 0 0 0
265 1 0.05048207236673329 35.621811790953345 13.92047597061853 0 0 0
1420 2 11.635647859710751 37.3565234678862 16.33573739028924 0 0 0
515 1 4.398246946233182 34.59124869350861 11.800777191147633 0 0 0
837 1 5.951421730491934 35.46791662202473 9.321675734037004 0 0 0
803 1 7.228142158402134 34.588367049202354 11.682595335093655 0 0 0
1125 1 8.778067243489755 35.64791880675846 9.375620053514258 0 0 0
1128 1 8.759756205182605 37.28828071161576 11.665091899268532 0 0 0
1091 1 10.153463971683683 34.74386551644344 11.532311104042828 0 0 0
1379 1 13.095522985680514 34.71769524487128 11.676671588518516 0 0 0
1413 1 11.744755258150319 35.65320567702651 9.253887522129208 0 0 0
552 1 2.9572255557363185 37.175292728064896 11.626388962509482 0 0 0
262 2 1.5154713981538954 38.06686969943449 9.215286290733008 0 0 0
263 1 1.4668682219397053 39.78112739258852 11.675806442542731 0 0 0
193 1 0.027931695525314198 25.31879330350554 14.139923226216807 0 0 0
589 1 5.8044949511206365 40.54147997905215 13.896100101442347 0 -1 0
840 1 5.864746218130245 37.18122354341907 11.712467018095229 0 0 0
550 1 4.33882732513247 38.101142309444896 9.304788085350193 0 0 0
551 1 4.470831623229183 39.83846619418131 11.569206943810341 0 0 0
1419 1 13.146309145244581 39.87756503507247 16.264844153298903 0 0 0
838 1 7.366338692516348 38.06117518369653 9.372877441040522 0 0 0
839 2 7.308010920134756 39.743106853966495 11.619608839989274 0 0 0
1127 1 10.242760494146195 39.78893474939755 11.770719078649844 0 0 0
1416 1 11.68367980014797 37.29030040870285 11.658657851933206 0 0 0
1126 1 10.259878560606648 38.14172300982214 9.311124826495687 0 0 0
1414 1 13.241706468644534 38.116358280559034 9.221177868213019 0 0 0
1415 1 13.228268538310273 39.854630943701345 11.61260431156781 0 0 0
192 1 0.03877984182215423 27.169844392106548 11.736301220303469 0 0 0
158 1 1.4108050862508146 22.697313688561927 14.197174090731027 0 0 0
448 1 2.9571459353107614 21.880096453661384 16.510268871867723 0 0 0
446 1 4.318402003609054 22.64581639623937 14.045867748338205 0 0 0
736 1 5.828968910237135 22.115552939140336 16.344904738134943 0 0 0
842 1 7.338499680349668 38.11759049906895 13.939651798246913 0 0 0
734 1 7.2631954459133725 22.835242843874475 14.076929330781478 0 0 0
1024 1 8.783836011174538 22.114809341740187 16.36668603011921 0 0 0
1022 1 10.218446633241394 23.02682263028898 13.906720405535975 0 0 0
1130 1 10.28971636493971 38.03752835769223 14.044379433064595 0 0 0
1310 2 13.185091568392801 23.02168153212529 14.133853715102308 0 0 0
1312 1 11.77481727269953 22.00035765656432 16.270861907813735 0 0 0
159 1 1.476002799429896 24.465433354396225 16.398320982439373 0 0 0
481 1 3.0307934636099336 25.31166090727314 14.128338195966641 0 0 0
1418 1 13.200740435996384 38.069710798363346 14.004448208985877 0 0 0
447 1 4.407357689678709 24.586732541370733 16.316947015797137 0 0 0
769 2 5.934857196627964 25.285335451519153 14.119756503375212 0 0 0
772 1 6.0251930735723995 27.098733601214633 16.335875401716233 0 0 0
735 2 7.318053818879399 24.49290246383729 16.292654949454572 0 0 0
1057 1 8.797227693310619 25.393496208707603 14.181307840303894 0 0 0
1023 1 10.280418023938914 24.413355655506493 16.397773507313104 0 0 0
1311 2 13.203348898611807 24.457005452731952 16.464975091573184 0 0 0
1345 1 11.699385386974829 25.271459278113046 14.035535976575824 0 0 0
1348 1 11.660502062921097 27.19758797250133 16.283135970196234 0 0 0
484 2 2.979127000440019 27.05409616392949 16.388030671574274 0 0 0
194 1 1.5334335144527858 27.87658598336254 14.169066319730309 0 0 0
195 1 1.3894744993580226 29.620872260714346 16.364077243669264 0 0 0
482 1 4.234761977272568 27.836863639815185 14.045896031700757 0 0 0
483 1 4.311867535538922 29.603268380512297 16.282644478035994 0 0 0
1060 1 8.88830732753334 27.12029710509016 16.333203711015333 0 0 0
770 1 7.24196103331961 27.96843261850713 13.995157220621659 0 0 0
1058 2 10.355084461875078 28.044746712451996 14.007380145208487 0 0 0
771 2 7.267040136441002 29.618515342710673 16.32020831955906 0 0 0
1093 1 8.692889833473696 30.41579436285415 14.023246318046949 0 0 0
1059 1 10.040958354629716 29.643511377770427 16.25859911561536 0 0 0
1346 1 13.106231502921743 28.090539620675603 13.95199896659798 0 0 0
1347 1 13.081395992639882 29.647659825067247 16.31073133806409 0 0 0
517 2 2.8398097021604713 30.38023142717551 13.990955512077978 0 0 0
230 1 1.4454659428718422 32.92788171346253 14.037177994266068 0 0 0
520 1 2.97330826869175 32.07984512128988 16.342356027976273 0 0 0
1131 1 10.349296523287848 39.873603595993735 16.211872512564536 0 0 0
805 1 5.800634412494398 30.56839091880394 14.052820165552987 0 0 0
518 1 4.404942788668338 33.116728688949216 14.177583593495028 0 0 0
808 1 5.964936512469626 32.221576353771965 16.404460162106314 0 0 0
806 1 7.378133816452613 33.07003573570106 13.988619738469472 0 0 0
1096 1 8.769235929880583 32.127559089253786 16.46134314592261 0 0 0
1381 1 11.718020126553162 30.547349343666507 13.893258755800943 0 0 0
1094 1 10.312152919974936 33.13285446386378 14.042955461698133 0 0 0
1382 2 13.288819803088677 33.06963498625352 13.937035530379479 0 0 0
1384 1 11.725345054996067 32.2031973968003 16.307861238191077 0 0 0
231 1 1.297178082139207 34.59057724798032 16.410718353206615 0 0 0
553 1 2.8133074929639776 35.555898501871845 13.96446059801501 0 0 0
519 1 4.382578969113397 34.62035029381932 16.47449038122072 0 0 0
841 1 5.727837679781181 35.6607827165798 14.040936167810289 0 0 0
807 1 7.20234215306059 34.83025898011589 16.231866314763895 0 0 0
1095 1 10.232178885572306 34.760712217769395 16.374976531357234 0 0 0
1129 1 8.858570052191933 35.79447739339328 14.139625891399815 0 0 0
1383 1 13.267499622709158 34.793332811621895 16.22917280902172 0 0 0
1417 1 11.676940051867865 35.59193437106903 14.057560040035352 0 0 0
843 1 7.221282802714425 39.79824443892471 16.238116298191567 0 0 0
556 1 2.69014772051037 37.18222120009067 16.39289719316437 0 0 0
267 1 1.503516618120806 39.691835874952474 16.436362966606936 0 0 0
266 2 1.4590853538536601 38.15430611879955 13.950789043164539 0 0 0
554 1 4.321940423747462 38.11695503415353 14.113254748584467 0 0 0
555 2 4.32989301258902 39.89029801476208 16.4501684969968 0 0 0
844 1 5.597504832703856 37.44613339392022 16.463515309494372 0 0 0
1132 1 8.958452871778343 37.287343241771524 16.44431644045458 0 0 0
189 1 0.2091914114254754 25.496970623711867 9.545540865767466 0 0 0
441 1 3.031352627720835 20.33079806019485 9.297600161042022 0 0 0
297 1 2.8724027573405366 40.590211676441385 9.289581980839646 0 -1 0
873 1 8.715435551418432 40.59888150845591 9.490457164255751 0 -1 0
1309 1 11.71028979796681 20.497788949205425 13.904357928795891 0 0 0
156 2 0.16989614859804192 21.96735537303307 11.748900001123236 0 0 0
301 1 2.8695888342343348 40.533577343209934 13.954430989473835 0 -1 0
729 2 5.978277882646967 20.35316503388948 9.383925642301893 0 0 0
9 1 0.07086011905699664 40.58638686168866 9.346603039417193 0 -1 0
1017 1 8.784771549022645 20.36505658648651 9.283480422797508 0 0 0
877 1 8.939286651541417 40.57560812670145 14.065960448656517 0 -1 0
1165 1 11.791066789156002 40.52025968572944 14.033344766256047 0 -1 0
162 1 1.5055165478394203 22.73910788129996 18.724423411025935 0 0 0
1426 1 13.147377635071722 38.29727445825673 23.533155887503824 0 0 0
197 2 0.03438953159717301 25.369080298851102 18.64367019173031 0 0 0
450 1 4.411609597453115 22.835613019219906 18.763395938474385 0 0 0
738 1 7.224932183103758 22.93955335689863 18.62974377398071 0 0 0
1026 1 10.254968992345079 22.808249830964147 18.732712828521375 0 0 0
1028 1 8.751125049849952 21.99171618561062 21.193518697739762 0 0 0
1314 1 13.115869671814496 22.85233410842054 18.716844099549256 0 0 0
164 1 0.034360956925794994 21.727061366604296 20.89316962849696 0 0 0
485 1 2.9337382535702807 25.490631278962947 18.65265522725703 0 0 0
163 1 1.440774182189694 24.57956706150155 20.935805080134696 0 0 0
773 1 5.837802684056427 25.506657508221963 18.726818339461833 0 0 0
1061 1 8.701443389201726 25.437260885497626 18.6073108765276 0 0 0
739 1 7.232713433348403 24.66886439154709 21.073968603824593 0 0 0
1027 1 10.245029672494816 24.640355645367013 20.977679609627863 0 0 0
1349 1 11.665248154001588 25.47341380476212 18.647902091470115 0 0 0
198 1 1.4374803869982375 27.937844168943304 18.729691103948976 0 0 0
521 1 2.777208954468533 30.51554739449419 18.614542815260684 0 0 0
776 2 5.70596421469193 27.066823242343002 21.149669710419044 0 0 0
486 1 4.332368128988828 27.946815772701846 18.864017856439247 0 0 0
774 1 7.1798535774437315 28.0944074108121 18.652847284452484 0 0 0
1062 1 10.190601128773155 27.861346943783698 18.65268157666462 0 0 0
1350 1 13.141939845345638 27.920462058661315 18.897104558645253 0 0 0
1352 1 11.642066840897023 27.200670782942137 21.036335004521867 0 0 0
234 1 1.4398704305159733 32.89633742167535 18.69118063994686 0 0 0
809 1 5.762466300750132 30.42917257124175 18.713192635652536 0 0 0
522 1 4.345835614401991 33.11254550670182 18.8106833609619 0 0 0
1097 1 8.667435111088686 30.416738942965836 18.550820333222806 0 0 0
810 1 7.265673303731094 33.12071789827641 18.66161449005043 0 0 0
1100 1 8.79510875360558 32.21074382764693 21.03564165202294 0 0 0
1098 2 10.2844634092358 33.04372728798832 18.68150640874376 0 0 0
1385 1 11.582394571602782 30.568617759934977 18.634522693332837 0 0 0
1386 1 13.285766855731136 33.054894988796406 18.687204059827177 0 0 0
1424 1 11.731388072244378 37.37432088660621 21.12599410492483 0 0 0
557 1 2.7879968903092216 35.6122842701829 18.846379580188678 0 0 0
560 1 2.909832248495677 37.239162924270765 20.91092662336945 0 0 0
845 1 5.889234949469192 35.6452068043664 18.69225451499348 0 0 0
1133 1 8.839744175839238 35.39420452158563 18.639343203074958 0 0 0
1136 1 8.819440769964354 37.22950196350973 21.042358787526464 0 0 0
1099 1 10.446285279955184 34.59135105678638 21.079126804009423 0 0 0
1421 1 11.847779135432146 35.6137476815648 18.66402825964662 0 0 0
1387 1 13.387399749583905 34.669457623932885 21.157960684305706 0 0 0
270 1 1.3002017076114958 37.98583323947361 18.694899037303585 0 0 0
271 1 1.4361035692765312 39.81425698123376 21.0297684956585 0 0 0
201 1 0.015053978552330705 25.43084230205805 23.33453024766278 0 0 0
274 1 1.6416178285160778 38.17635390854188 23.384396316831776 0 0 0
558 1 4.29411986248495 38.177778192607505 18.691385265053736 0 0 0
848 2 5.881915204864827 37.37972911037142 20.9939613137344 0 0 0
1425 1 11.724520051448303 35.59998551389174 23.49740757418833 0 0 0
846 1 7.293396057137435 38.17698131061786 18.70270317141682 0 0 0
1134 1 10.280549665606708 38.12547657536801 18.68276509430047 0 0 0
1422 1 13.133543620668856 38.17549988728077 18.708887703266697 0 0 0
1135 1 10.292658882913495 39.95161037726701 21.143486509367573 0 0 0
452 1 2.995650661805087 21.93115899503321 20.991836275539775 0 0 0
166 1 1.5050761009259952 22.96802143989385 23.448410492231684 0 0 0
847 1 7.350454293916309 39.82399407915582 20.9312938984439 0 0 0
740 1 6.012002799920531 21.99566120962959 21.21932660177145 0 0 0
454 2 4.400568596209135 22.82357869960903 23.386023740027287 0 0 0
742 1 7.297903764312597 22.909839154292634 23.440625200537834 0 0 0
559 1 4.567185727956602 39.81988352362133 20.911834866536108 0 0 0
1316 1 11.666615709593028 22.179224336890613 21.146208098707707 0 0 0
1030 1 10.237322901885765 22.880204580330233 23.431760469678018 0 0 0
1318 2 13.264603784409724 22.903955903883354 23.574834988016473 0 0 0
850 1 7.356990377688572 38.199007209224376 23.411766885000265 0 0 0
488 1 2.9879390083793993 27.053175926747883 21.195423755406487 0 0 0
489 1 2.9076697004678054 25.16126094784088 23.433512263548824 0 0 0
451 1 4.500635030167872 24.622924712574715 21.092419143107268 0 0 0
777 1 5.783949452596932 25.394030970323527 23.413512655486716 0 0 0
1065 1 8.727782504619137 25.42231219794716 23.424264316068108 0 0 0
1315 1 13.065377857983199 24.57018135019519 21.158829253022425 0 0 0
1353 1 11.695618627003999 25.418510317948144 23.4889098010095 0 0 0
199 1 1.3869649189054207 29.542217643379868 20.994343229542434 0 0 0
202 1 1.5030966336920801 27.941944203236073 23.448109985493023 0 0 0
490 1 4.282869050965116 28.029574943028063 23.35429292955828 0 0 0
487 1 4.2700112578208484 29.72199755191135 21.08131594929673 0 0 0
1064 1 8.75144446437439 27.111200134118377 21.034070206966046 0 0 0
775 1 7.167941114990879 29.61313648118273 21.050819953816163 0 0 0
778 1 7.105001191982622 27.912313434418834 23.309774658780334 0 0 0
1066 1 10.165481545739363 27.962293990577848 23.58843980770088 0 0 0
1063 1 10.22961987181206 29.687796660772527 21.174202301810077 0 0 0
1351 1 13.150664485623647 29.666667590586783 21.15494963976026 0 0 0
1354 1 13.021841362632841 28.05723682249118 23.579903914470997 0 0 0
525 2 2.806106625764177 30.512135198397814 23.403339738393868 0 0 0
524 1 2.948158281411717 32.17779043505989 21.21458276169805 0 0 0
238 1 1.5031023638692274 33.07604193340968 23.479813658190384 0 0 0
1423 1 13.18668509757639 39.85657606715172 21.28370813864846 0 0 0
562 1 4.37004277552414 37.992334789357464 23.434743202094797 0 0 0
812 1 5.837190720794178 32.23304759861343 21.121427200656754 0 0 0
813 1 5.789543908159086 30.739951419736155 23.38760952812141 0 0 0
526 1 4.373094053584946 33.04925009071808 23.554037745830197 0 0 0
1101 1 8.863015172975865 30.627579987556626 23.444370710093445 0 0 0
814 1 7.371071950192481 33.16766119518445 23.550629438375736 0 0 0
1388 1 11.73634728175358 32.1241628747224 21.02087789599196 0 0 0
1389 2 11.682563532022094 30.590003818128938 23.39822528316817 0 0 0
1102 1 10.377285527095042 33.02669305675779 23.40430277989822 0 0 0
1390 1 13.180075805827943 32.93458633847476 23.28885132154611 0 0 0
235 1 1.3952566244718176 34.714653234974016 21.021296718290813 0 0 0
561 1 2.7427304583476113 35.618726297960634 23.37677415524493 0 0 0
1138 2 10.266343249021507 38.17651092899694 23.550438499171978 0 0 0
523 1 4.371392713337031 34.97672174967019 21.09016122027538 0 0 0
849 1 6.10204557065484 35.7002685539174 23.37538777787547 0 0 0
811 1 7.296437643526799 34.950998038889175 20.99827625409887 0 0 0
1137 1 8.968043922654598 35.67187546816006 23.350122085838205 0 0 0
1317 1 11.735508220183991 20.4503843709079 23.45979433938039 0 0 0
885 1 8.849588562405918 40.44361033767727 23.41204337971754 0 -1 0
881 1 8.675879721272942 40.61139122516228 18.48204386198767 0 -1 0
597 1 5.76649110980579 40.59016561256421 23.40846701350673 0 -1 0
1313 1 11.648222222677441 20.38831876664735 18.72789951758027 0 0 0
21 1 0.016627105098307032 40.55420585809891 23.513105640258356 0 -1 0
1025 1 8.775370399864556 20.353797242842024 18.738199957049314 0 0 0
449 2 2.8264824521120224 20.318841750894244 18.767072296143358 0 0 0
170 1 1.4746824355511445 22.970232173723563 28.046896822373874 0 0 0
456 1 3.021435371287747 22.00787992836634 25.787583883907104 0 0 0
458 2 4.366769945162113 22.961524540830954 28.158922380861224 0 0 0
744 1 5.849975142050818 22.108639253155108 25.735995531804928 0 0 0
277 1 0.1419184708389878 35.46377413216192 28.136047347700064 0 0 0
245 1 0.1364785885550822 30.441593134218667 32.69668501367663 0 0 0
746 1 7.1405643145703825 22.990154897247752 28.1343070564134 0 0 0
1032 1 8.72474627648721 22.095905504782728 25.90252252907346 0 0 0
1034 1 10.222982104805174 22.77923424633955 28.125254197845464 0 0 0
1320 1 11.685800027070385 22.230657063970437 25.712832663718757 0 0 0
1322 1 13.170858335212438 22.854939178434154 28.041670956291025 0 0 0
167 2 1.3570724576902762 24.49852963680121 25.791466055448332 0 0 0
493 1 2.928485648039017 25.243674972632643 28.10548656040366 0 0 0
492 1 2.95152748382134 26.961799453789133 25.804049605981 0 0 0
455 1 4.311104478812679 24.470723452644513 25.781979460905315 0 0 0
781 1 5.8672829855282 25.366908057779728 28.079415796697134 0 0 0
743 2 7.205340762531484 24.613040322199875 25.726370733419564 0 0 0
1069 1 8.678963521892914 25.42791357380479 28.088303861670184 0 0 0
1031 1 9.970551047615846 24.570911259983326 25.71979244217197 0 0 0
1068 1 8.627489906939365 27.18828806529431 25.803561101190212 0 0 0
1319 1 13.114113403748679 24.653629603615464 25.776157853691444 0 0 0
1357 1 11.505358254864523 25.48160554252526 28.109399258476625 0 0 0
1356 1 11.643360242105592 27.111886649933144 25.828279984821005 0 0 0
206 1 1.4351064137783325 28.049105593134197 28.087774911825914 0 0 0
203 1 1.3881389212200033 29.653907872438232 25.715990529006998 0 0 0
529 1 2.8473579711265593 30.517509203023025 28.097702765628203 0 0 0
780 1 5.747657352724908 27.13120962997622 25.757392563500165 0 0 0
494 2 4.28182966195633 27.97210829178039 28.18122326774248 0 0 0
491 1 4.292499023118431 29.69503350817853 25.59799203630415 0 0 0
817 1 5.8299336618799265 30.452959365764674 28.054204206625453 0 0 0
782 1 7.1670806223347086 27.99697942101127 27.94007776707914 0 0 0
1070 1 10.300330215320873 28.106615501013643 28.281962910419903 0 0 0
779 1 7.312636450330778 29.885972266627395 25.657631175674116 0 0 0
1105 1 8.839545947428714 30.568234141747464 28.232348919287677 0 0 0
1067 1 10.260964120259919 29.706421685289133 25.827839237708872 0 0 0
1358 1 13.119144218547065 27.971969547895615 28.27995596322385 0 0 0
1355 1 13.29261183078499 29.630724139998154 25.909479673902066 0 0 0
1393 1 11.647295453430711 30.6410989727756 28.136477577336265 0 0 0
242 1 1.4355280318152206 32.912984310500555 28.22531861714785 0 0 0
528 1 2.871562546631485 32.300615362507216 25.706942203752853 0 0 0
204 1 0.07039516549703045 26.902883747168985 25.548477095595363 0 0 0
745 1 5.73242105164472 20.3714765350919 27.98788699091473 0 0 0
530 1 4.411035281045558 32.81669517739293 28.153684309155096 0 0 0
816 2 5.883790273165145 32.388919686400925 25.764093886939595 0 0 0
818 1 7.332008368425587 33.04955564867296 28.253962473869617 0 0 0
1104 1 8.756119720568936 32.28132053827765 25.899321689979274 0 0 0
1106 1 10.260907524787749 33.112949818472906 28.279915390898577 0 0 0
1392 1 11.745250337533248 32.04094126994664 25.73397858283511 0 0 0
1394 1 13.162938234418883 33.048723312143935 28.129219539087405 0 0 0
239 1 1.389912972957911 34.771781130962886 25.78316807987283 0 0 0
565 1 2.9759935838399287 35.41557610183037 28.144494859903336 0 0 0
564 2 2.921195043348454 37.19611765801565 25.730582970435435 0 0 0
25 1 0.19216486074508926 40.57241705095759 28.07402329963388 0 -1 0
527 1 4.387459252322563 34.773386059263736 25.847988647415697 0 0 0
853 1 5.824101220547493 35.55856528140553 28.123626164373736 0 0 0
852 1 5.907900758001468 37.212660379582616 25.76691772170421 0 0 0
815 1 7.411679637677642 34.80541737533465 25.82370282686322 0 0 0
1103 1 10.372614722962473 34.54212471765808 25.855969811974774 0 0 0
1141 1 8.817614115449253 35.591022296723025 28.300032965186887 0 0 0
1140 1 8.978922290055838 37.1808194669711 25.881656159008774 0 0 0
1391 1 13.210732450471037 34.59461316865694 25.74263311655746 0 0 0
1429 2 11.694161235227257 35.510480283851116 28.132967388264515 0 0 0
1428 1 11.90409338917564 37.23144140474821 25.836543764528795 0 0 0
275 1 1.5832905905811898 39.75657955486375 25.715371885058044 0 0 0
278 1 1.6400825757359767 38.09203272190221 28.105759662556874 0 0 0
563 1 4.292963650407629 39.68916090150656 25.674078006372504 0 0 0
566 1 4.389220702715121 38.055592756346215 27.98931547124423 0 0 0
1143 1 10.171206520684738 39.76913044119048 30.413416523843093 0 0 0
851 1 7.221849784133762 39.89314723199419 25.898049507356948 0 0 0
854 1 7.293506717386295 38.231798269120056 28.173662405788363 0 0 0
1139 1 10.28667312197662 39.863644504305796 25.79666764677897 0 0 0
1142 1 10.235505464424593 38.05490739525168 28.233198024246974 0 0 0
1427 1 13.258092201591847 39.79460736381987 25.718251489551573 0 0 0
1430 1 13.193470261482345 38.01542046431713 28.187388289312963 0 0 0
281 1 0.09122011280123654 35.580654054345494 32.83052180748142 0 0 0
174 1 1.4846298212384168 22.82047552621714 32.853943055004606 0 0 0
460 1 2.9483036458210363 21.949244464196575 30.640725205076997 0 0 0
462 1 4.375518426232655 22.90225970736314 32.73734509855274 0 0 0
748 1 5.67814402879186 22.123959073573243 30.403148187730494 0 0 0
750 1 7.270747810929483 23.036059906365747 32.84040528394374 0 0 0
1036 1 8.72309311699307 22.045678948825202 30.47870159935967 0 0 0
1038 2 10.150266811152282 22.9139855835254 32.79316530331816 0 0 0
1037 1 8.89653407504975 20.315273321874287 32.797029502811526 0 0 0
1324 1 11.598509932990488 21.99748292316263 30.469743923948602 0 0 0
1326 1 13.072876793589046 22.876737983513245 32.69207170422682 0 0 0
313 1 3.0426580924216933 40.6069006896245 28.187163210216085 0 -1 0
171 1 1.405144707353072 24.51668377981313 30.548434806852192 0 0 0
497 1 2.887706552705577 25.426463653380605 32.72419138502276 0 0 0
496 1 2.835830451424235 27.15598354624502 30.437108156341452 0 0 0
459 1 4.270098215328935 24.63433576723696 30.40815994562497 0 0 0
785 1 5.888030773283002 25.51494574711452 32.70219050097643 0 0 0
784 1 5.861528788835599 27.140525343468276 30.401092877963734 0 0 0
747 2 7.3064088520634 24.478217900192924 30.480365016175373 0 0 0
1073 1 8.651641059488094 25.348885632684777 33.00067115751264 0 0 0
1035 1 10.11654247147592 24.590137781250007 30.527218715136655 0 0 0
1323 1 13.1228629003835 24.622508607706653 30.426466415502016 0 0 0
1361 1 11.593909072061283 25.312358453001984 32.794438112755714 0 0 0
210 1 1.4770451495228065 27.95603907893396 32.83070950941489 0 0 0
207 1 1.3386662520526276 29.65563583329188 30.35734207403429 0 0 0
498 1 4.427403042389385 28.020836274768577 32.71869953031522 0 0 0
495 1 4.373153060069779 29.58662988970192 30.435050190459304 0 0 0
821 1 5.91379416515866 30.469510772728828 32.66146798028272 0 0 0
1072 1 8.756108506796203 27.058560895346872 30.446551404897583 0 0 0
786 2 7.3092256120531625 27.92085766077407 32.7515670338975 0 0 0
783 1 7.40462401305321 29.528139370062465 30.40268179070231 0 0 0
1109 1 8.867808401455717 30.408342127805334 32.82344727035931 0 0 0
1074 1 10.22603609156715 27.954079668504093 32.78130378725204 0 0 0
1360 2 11.61699012870537 27.00623718397301 30.581330520413527 0 0 0
1362 1 13.310635905294546 27.915112108288994 32.8096689689617 0 0 0
1071 1 10.424862556127726 29.768965716207077 30.654070733426135 0 0 0
1359 1 13.297058587474892 29.75196307872418 30.4678633667482 0 0 0
533 2 2.986999046746232 30.461410028213052 32.724497217770946 0 0 0
246 1 1.515687169338744 32.966809973495316 32.843847939932445 0 0 0
532 1 2.95056729246872 32.20363354957653 30.456083990862556 0 0 0
1431 1 13.124682265988772 39.74509820892631 30.551894659888177 0 0 0
534 1 4.5863665672050224 32.858168772553675 32.85722506063969 0 0 0
820 2 6.100341290904137 31.93764804011203 30.416640471866668 0 0 0
822 1 7.540749982887015 32.93622358789114 32.78073282102338 0 0 0
1108 1 8.860067703697391 32.07367694898659 30.611499496561933 0 0 0
1397 1 12.025174676271847 30.70246156257279 32.83811794812243 0 0 0
1110 1 10.352880531863171 33.01160779157502 32.79829733475249 0 0 0
1396 2 11.81020355785033 32.18643446947252 30.550424310416172 0 0 0
1398 1 13.244133730459005 33.135484924460194 32.76185113115126 0 0 0
1434 1 13.354195408765714 38.10931738000287 32.83729604996449 0 0 0
243 2 1.4483217842665523 34.624813414941066 30.432937076838336 0 0 0
569 1 2.8672086618477923 35.440193166880604 32.71080085787818 0 0 0
568 1 2.7589334558608414 37.08294989745231 30.440663617510804 0 0 0
531 1 4.439934369403431 34.52919706165101 30.377734394489828 0 0 0
857 1 5.821406127823141 35.54710312395028 32.70803225690267 0 0 0
819 1 7.223809500655252 34.753869156412605 30.56007370154059 0 0 0
1145 1 8.85391599188784 35.55709263218876 32.847024203230006 0 0 0
1107 1 10.291600022589478 34.84485137892892 30.536953689486488 0 0 0
1432 1 11.760847265507278 37.16789278489595 30.46293715282991 0 0 0
1395 1 13.1493637418439 34.651038235082694 30.418007079744978 0 0 0
1433 2 11.830722739158398 35.60734463918167 32.822396509288424 0 0 0
282 1 1.4268884425269157 37.959472514830345 32.83377813052192 0 0 0
279 1 1.5393097487749166 39.6520089918901 30.545462655897357 0 0 0
570 1 4.327760811147931 38.06376638815274 32.91116156948307 0 0 0
856 1 5.736871962689654 37.25151341599403 30.47768173295993 0 0 0
567 1 4.500241057779879 39.67575134261254 30.585993761952295 0 0 0
1144 2 8.763736718689273 37.29031911433631 30.513408479066456 0 0 0
1146 1 10.216844471260098 38.099312858799244 32.798602824522305 0 0 0
855 1 7.451743722576932 39.72593388968934 30.427981369440552 0 0 0
858 1 7.406690010237124 38.09254898737621 32.76061941236851 0 0 0
1325 1 11.707820404764165 20.42184381303089 32.75172589315311 0 0 0
1033 1 8.795069107761341 20.32824300151637 28.097932340768832 0 0 0
605 1 5.8743810223720745 40.60827589540619 32.855732988176925 0 -1 0
749 1 5.859393203920607 20.337391141217132 32.807312159544864 0 0 0
178 1 1.3957777947075722 22.81183017981284 37.46664957292013 0 0 0
464 1 2.938241241099007 22.0063044170123 35.22855653360915 0 0 0
505 1 2.8472692118316756 30.525158052604876 42.17469377793516 0 0 -1
466 1 4.38993451551901 22.924709933585337 37.45264209333526 0 0 0
752 1 5.8422155399259985 21.98166285083159 35.212517097143305 0 0 0
177 1 0.052110367611049924 20.329502837282853 37.513799839523 0 0 0
754 2 7.212893983771178 22.94514606269413 37.58758742202164 0 0 0
1040 1 8.819227604718128 21.94832325643282 35.16328680668366 0 0 0
1042 1 10.047459348000338 22.866359913311825 37.550663184946416 0 0 0
287 1 1.4749022891600467 39.8287580368641 39.68920956264961 0 0 0
1328 1 11.75341283656175 22.158194831607652 35.13946626101193 0 0 0
1330 1 13.123332839387933 22.9908507135419 37.40307316047348 0 0 0
175 1 1.4552015183497817 24.691115230569746 35.09323447021593 0 0 0
501 1 2.8933575185902645 25.42423095801452 37.36689641821462 0 0 0
180 1 0.212208153538243 21.90105756590541 39.88487948058649 0 0 0
463 1 4.378050085818714 24.65758639650814 35.021233562651204 0 0 0
789 1 5.89196412523648 25.45227011093815 37.400213681309836 0 0 0
751 1 7.449325672239322 24.426617384727663 35.302728656475125 0 0 0
1077 1 8.806758537811865 25.418882206697564 37.52733592563334 0 0 0
1039 1 10.328471153468195 24.627815027293476 35.27013898556528 0 0 0
1327 2 13.120209579081887 24.587310727513124 35.08365987557808 0 0 0
1365 1 11.700346848017753 25.38517548798251 37.54016849538695 0 0 0
500 1 2.914224736235441 27.1671531683387 35.146913062740055 0 0 0
214 1 1.4766979546457868 28.05472736527475 37.46934882121752 0 0 0
211 1 1.4198988251231988 29.580632349433586 35.117534535815494 0 0 0
537 1 2.7437940876701914 30.52995535882218 37.51704325946345 0 0 0
788 1 5.913495597842168 27.201547172541588 34.99823959793622 0 0 0
502 1 4.411162451948712 28.07947940415602 37.618029061898966 0 0 0
499 1 4.356906457859366 29.656583189137677 35.076343485758926 0 0 0
825 1 5.913551870674933 30.38104855272472 37.572855624734345 0 0 0
1076 1 8.711872651461812 27.10579019049924 35.21137798332141 0 0 0
790 1 7.3577742738688405 27.942161768958076 37.45746086870702 0 0 0
787 1 7.3624666252474675 29.747920007329174 35.06396387118471 0 0 0
1075 1 10.387364399160639 29.815605757587996 35.151248847938405 0 0 0
1078 2 10.404456353868497 27.957939793068054 37.47818396544133 0 0 0
1364 1 11.743153562510019 27.17902958379426 35.0413004400186 0 0 0
1366 1 13.151957784325793 27.98483422413896 37.43531785627172 0 0 0
1363 1 13.207374979958365 29.533678128722627 35.147552514805454 0 0 0
1401 1 11.732937943204103 30.448939318127632 37.382262802345835 0 0 0
536 1 3.0688750061615724 32.154831309656686 35.15014667041024 0 0 0
250 1 1.431980749750761 32.85538379424371 37.44807404729133 0 0 0
1151 1 10.147712629681683 39.84437118619786 39.75981225226033 0 0 0
538 1 4.493631460007779 33.06203189374569 37.52573854908404 0 0 0
824 1 5.989396253007337 32.19072706313187 35.142970822595686 0 0 0
1113 1 8.918646626832075 30.36225662066611 37.54934731041838 0 0 0
826 2 7.396741608275285 33.02556179279294 37.60375808100795 0 0 0
1112 1 8.880189339075567 32.27684134652822 35.1221821790553 0 0 0
1114 1 10.22438372440829 33.1639342284364 37.40713821980265 0 0 0
1400 1 11.924954197015222 32.384097804560675 35.16920390738498 0 0 0
1402 1 13.22778831728412 32.9556098174104 37.52497980311588 0 0 0
247 1 1.5013799217795176 34.654853287820934 35.160481539401516 0 0 0
573 1 2.857630494272147 35.41847859487994 37.599099149103864 0 0 0
535 1 4.419380590710531 34.719411004882524 34.961807135423626 0 0 0
861 1 5.828677258039369 35.599786175447775 37.37683301164809 0 0 0
860 1 5.987240667624041 37.2671430403951 35.07959935395451 0 0 0
823 1 7.282919289432718 34.75487842718697 35.07863821655694 0 0 0
1149 1 8.835766303986846 35.560075818552555 37.45480177885091 0 0 0
1111 1 10.327484386258403 34.84017986362927 35.07596075634628 0 0 0
1399 1 13.437778938826591 34.77919095655394 35.140124891354304 0 0 0
1437 1 11.904484308706323 35.62400016978953 37.46519833508782 0 0 0
1436 1 11.779385302517202 37.17244823766748 35.16873544560467 0 0 0
1439 1 13.246842797626897 39.89304927991642 39.881574654585464 0 0 0
572 1 2.886701104949909 37.02797099289424 35.241458088499684 0 0 0
283 1 1.4875691495053238 39.737720522351985 35.156715986396605 0 0 0
286 2 1.3362730879373643 38.136370877641326 37.389217191022766 0 0 0
571 1 4.409808644816532 39.85760884061885 35.10779394812286 0 0 0
574 1 4.385804354086256 38.103213138662426 37.527413264341135 0 0 0
1148 2 8.987605103449065 37.277167398855774 35.036977118322454 0 0 0
859 1 7.466107739796003 39.7961463508949 35.11485837905846 0 0 0
862 1 7.387293548844001 38.122024580414624 37.34798756647551 0 0 0
1147 1 10.142657265590671 39.70233508757322 35.077221244165244 0 0 0
1150 1 10.194386023887404 38.144566236621905 37.39395172819306 0 0 0
1435 1 13.158573454639763 39.86883406539583 35.15071685980101 0 0 0
1438 1 13.236993216151342 38.149014095657165 37.46253293713147 0 0 0
468 2 2.9258174010280467 21.96783329531838 39.8320453195188 0 0 0
1298 1 13.095014121989418 22.80605833508638 42.02610675596708 0 0 -1
1185 1 11.725384877292585 40.5354341695396 37.45122763535386 0 -1 0
756 1 5.8639989453891745 21.945157594258035 39.88280453552515 0 0 0
576 1 2.8980096407950415 37.257069888196476 39.73094479553666 0 0 0
1044 1 8.681941567847462 21.97396904642903 39.76372343309792 0 0 0
1329 1 11.645300860319674 20.409428066757464 37.55128177510986 0 0 0
1440 1 11.669857122886604 37.21588479316677 39.76164135161622 0 0 0
1332 2 11.715758664298223 21.988120824659692 39.83830107843052 0 0 0
321 1 2.9803404418669093 40.52358146977531 37.50371386324896 0 -1 0
179 1 1.5510513588013883 24.506385229611137 39.80669305186383 0 0 0
1403 1 13.19829793570519 34.63879778473268 39.82103988761068 0 0 0
467 1 4.389037989975709 24.472920093077718 39.73094038088665 0 0 0
1152 2 8.84218780713634 37.257064000196586 39.83680332415865 0 0 0
755 1 7.250159703947921 24.434133586466668 39.80109943991765 0 0 0
1043 1 10.291445041840444 24.51016725049432 39.8472473623774 0 0 0
1331 1 13.086824598967803 24.541082359783903 39.88358657389992 0 0 0
504 1 2.8808158183949057 27.116543823078622 39.732843238419946 0 0 0
215 1 1.4074655524119846 29.445632727212256 39.82074792404936 0 0 0
792 1 5.904052636506164 27.027449323455198 39.858819171103235 0 0 0
503 1 4.381721497783442 29.625373073865426 39.83256523694217 0 0 0
1080 1 8.93194494871496 27.121839187315203 39.684557246041635 0 0 0
791 1 7.3166508724480614 29.72198697266028 39.91748813318449 0 0 0
1079 1 10.288547383106762 29.822009645387883 39.765967561914564 0 0 0
863 1 7.226789398180359 39.732259256021486 39.689144920969 0 0 0
1368 1 11.760481940327473 27.17556998472898 39.90524709150141 0 0 0
1367 1 12.995889952992217 29.535368299693012 39.845170954153474 0 0 0
1297 1 11.666532032554617 20.44382124170258 42.075969141505965 0 0 -1
470 1 4.39109910554003 27.899496776371695 42.15403475387157 0 0 -1
288 1 0.13671988076643515 37.39951756928941 39.776807949734575 0 0 0
540 1 2.931323761813714 32.37872637221762 39.95574120114706 0 0 0
828 1 5.9606140347532275 32.25247839763404 39.89600367267123 0 0 0
575 1 4.4830375432163345 39.76406835782099 39.82977503062031 0 0 0
794 1 7.300125229908572 32.92588302645476 42.00922340107904 0 0 -1
1116 2 8.872682568465995 32.2093365347054 39.7466943687367 0 0 0
1404 1 11.64224366115607 32.316241605101986 39.76575945748628 0 0 0
251 2 1.3951772503953122 34.7418573307771 39.792000794460506 0 0 0
434 1 4.431211019787997 22.635183504612552 42.16347638476162 0 0 -1
1118 1 10.265816699897492 38.157598408686496 42.09593677015175 0 0 -1
539 1 4.3322396230283955 34.6905686317062 39.90217337570728 0 0 0
864 1 5.966594890268371 37.17343809859874 39.74413707213847 0 0 0
827 1 7.342407457352531 34.74043596092112 39.7049090061833 0 0 0
1115 1 10.21974574184014 34.79215420679169 39.877609000080426 0 0 0
1081 1 8.723093489272243 30.531571632197057 42.14519490032691 0 0 -1
1046 1 10.150207779094847 27.946792243423516 42.16462462548914 0 0 -1
252 1 0.07636352569630844 32.07842511097762 39.878397901820335 0 0 0
1010 1 10.215499572182171 22.875722707637948 42.05874821199593 0 0 -1
1370 1 13.178143155646318 33.1536331905904 42.10774743731413 0 0 -1
1333 1 11.659428357698122 25.495863996063655 42.170047966509216 0 0 -1
176 1 0.04092909085055859 21.89469525834661 35.176210730275315 0 0 0
1082 1 10.135081787894052 33.06728479965722 42.03816191828646 0 0 -1
1045 1 8.75216496036815 25.269481420913053 42.01424605738161 0 0 -1
830 1 7.333013816925066 38.12753786230719 42.06572924205528 0 0 -1
284 1 0.041955857677848485 37.112899352672244 35.15991731322414 0 0 0
218 1 1.4150011838599024 33.12078914133419 42.14735448648554 0 0 -1
289 1 3.0018787935538773 40.537496859861875 42.12988124966596 0 -1 -1
829 1 5.91829578739541 35.65770427249304 42.11000583867849 0 0 -1
577 2 5.815593408727496 40.518846006922416 42.04298771422064 0 -1 -1
1153 2 11.599973188498566 40.508101750278804 42.09785906690165 0 -1 -1
254 1 1.5641910850110168 38.10427206184871 42.039218738610664 0 0 -1
542 1 4.503497695742675 38.12925872100695 42.12630960964585 0 0 -1
182 1 1.5129348599420869 27.842857362421757 42.16280073728488 0 0 -1
1369 1 11.609548638307722 30.52250331286656 41.92858008409968 0 0 -1
722 2 7.419505838144094 22.713175975851556 42.06918738961368 0 0 -1
1405 1 11.821922921030438 35.53891669328662 42.17722745926793 0 0 -1
181 1 0.01882050794348905 25.437107433170933 42.15951325948294 0 0 -1
469 1 3.0027983147327326 25.38368557793866 42.17637755707793 0 0 -1
1406 1 13.195452570495101 38.11296524273863 42.13560507341448 0 0 -1
1444 2 14.65572688561624 1.6562106125341653 2.3488125557410218 0 0 0
2021 1 20.49051408098578 0.05719146967081985 4.73733287237523 0 0 0
1732 1 17.479486109234823 1.7031379861109237 2.5302613717812066 0 0 0
2054 1 22.045321421005237 7.751045125610439 0.07564452830291685 0 0 0
2020 1 20.42127087032514 1.7089035659006626 2.212890999006736 0 0 0
2308 1 23.41928029695743 1.8203843124132117 2.280421620141042 0 0 0
2596 1 26.319269336234033 1.875871684122658 2.240690749271017 0 0 0
1443 1 16.092450923551365 4.147728377665499 2.4561762394506816 0 0 0
1731 1 18.997334760266686 4.29845257926302 2.2807342677041142 0 0 0
1768 1 17.60404942518782 6.752083759389988 2.387486182930178 0 0 0
1733 1 17.58659963087727 0.05184576191500569 4.816560332485737 0 0 0
2019 1 22.059620458464565 4.406180117796619 2.335591846892285 0 0 0
2307 1 24.899987095868674 4.436733132340334 2.339510931231992 0 0 0
1480 2 14.756336646526918 6.6609612889231276 2.2223382184150884 0 0 0
1479 1 16.07221605809472 9.221418332587467 2.205489378844228 0 0 0
2129 2 20.511004118288334 15.098517891604319 4.6923281816409785 0 0 0
1767 1 19.075960660208807 9.4531181820769 2.238751730072421 0 0 0
2056 1 20.420821133898972 6.859977810614862 2.305048896779835 0 0 0
1550 1 16.058871992422915 17.676948288020267 -0.0013676532588059002 0 0 0
2344 1 23.477027869001326 6.906079845088139 2.334177126552388 0 0 0
2055 1 22.036846598212815 9.343329174000118 2.403917233297466 0 0 0
2593 1 26.299313048286233 0.05227814083866633 -0.01671330572803112 0 0 0
2449 2 23.469017376805727 20.304869014041497 -0.0028382822134947958 0 0 0
2632 1 26.390369851180456 6.911429572438138 2.3071645322312238 0 0 0
2343 1 24.93922295480651 9.30813492069308 2.3912812853469156 0 0 0
1516 1 14.598821180413692 11.808946461168524 2.3306122351510434 0 0 0
2417 1 23.47768574376623 15.190226144837984 4.817530700806046 0 0 0
1804 1 17.64637851321326 11.882634656169417 2.4359315089981934 0 0 0
2092 2 20.546367116675505 11.844662637490073 2.3652884224710977 0 0 0
2132 1 20.721948631268365 16.92469248747582 6.906889105343243 0 0 0
2380 1 23.357662516739865 11.888882014238327 2.241023631524759 0 0 0
2095 1 22.0770083590362 14.551087093781705 6.948321878000776 0 0 0
2668 1 26.365799601170632 11.77881997180371 2.299607749612969 0 0 0
2131 1 22.017068466127043 19.356336866061373 6.9243351249432425 0 0 0
1515 1 16.19160367048934 14.455953327481655 2.39028351686694 0 0 0
1552 1 14.542122546340698 16.927847778931664 2.39419254159293 0 0 0
2130 1 22.16186892966235 17.75200988378089 4.647703459471772 0 0 0
1803 1 19.02850150174392 14.420753647965093 2.3925027589797017 0 0 0
1555 1 16.1859694114763 19.44427603293537 6.908922067086553 0 0 0
2091 1 21.982115310135338 14.542303753908113 2.3357809810587167 0 0 0
2416 1 23.5519923510813 16.947090677000183 2.3433038189401008 0 0 0
2128 1 20.501699068109158 16.983963219522252 2.2607272223512247 0 0 0
2379 1 24.93324368948265 14.37102781439047 2.303788483087795 0 0 0
2418 1 24.995983033007843 17.89211287485436 4.685692428555239 0 0 0
1551 1 16.01237014469613 19.55969553968662 2.2825986591360707 0 0 0
1843 1 19.08509570424706 19.417308669549154 7.097842671447919 0 0 0
1840 1 17.660265302454047 17.20047673392783 2.1985633712806236 0 0 0
1839 1 19.07584512213059 19.54562355761724 2.283676937364709 0 0 0
1554 1 16.124610953802673 17.7308535753437 4.56335615951492 0 0 0
2383 1 25.03819965406062 14.366052620815438 6.956185536512691 0 0 0
2127 1 21.995342721854318 19.494869605232342 2.324725865065046 0 0 0
2704 1 26.50454036646152 16.859882978794666 2.4353891599225257 0 0 0
2415 1 24.867958808143875 19.423518515499296 2.2738764916541014 0 0 0
1842 1 19.14464945078214 17.69751079224967 4.653935807106137 0 0 0
2708 1 26.42413711996083 17.108879521366987 6.99713306812584 0 0 0
1446 2 16.096035875027034 2.5298693680985425 4.656886476616259 0 0 0
1448 1 14.683812675104626 1.6274990329808452 6.976794111179101 0 0 0
1734 1 19.195517371311468 2.7082706711039255 4.599396656725664 0 0 0
1736 1 17.504871033217963 1.5809367514520662 6.921045046923878 0 0 0
2419 1 24.79166445018002 19.38055548820297 7.027725263349629 0 0 0
2705 1 26.347746108840475 15.10823955398411 4.624678254278801 0 0 0
2024 1 20.385859795909866 1.5635377026918318 7.016593853838921 0 0 0
2022 1 22.054472570587997 2.634833912875234 4.589481896614904 0 0 0
2312 1 23.255784768663297 1.5976820706694752 6.997322274836555 0 0 0
2310 1 24.944302750365697 2.5907884437082944 4.542417180038822 0 0 0
2600 1 26.12125197121495 1.5992359877327151 6.95288021147806 0 0 0
1447 1 16.12313701219407 4.1457079884858885 7.015998499425431 0 0 0
1481 1 14.54660637776364 5.018041515845443 4.646960857117083 0 0 0
1484 1 14.662508161533236 6.778665923151833 6.90581051672134 0 0 0
1735 1 19.162972104988036 4.2400044297151505 7.010952805437344 0 0 0
1769 1 17.474345552796656 4.881802741783332 4.71336898116613 0 0 0
2057 1 20.487841097333888 5.2054542320096235 4.66244584083249 0 0 0
2023 1 22.13726269692129 4.34092201629822 7.13747298489613 0 0 0
2345 1 23.412843432473167 5.181107129062307 4.7124544089826905 0 0 0
2311 1 24.856566095539467 4.352949076365785 6.957250181592351 0 0 0
2633 2 26.291113049045865 5.135364112332083 4.61906962752571 0 0 0
1482 1 16.119898432735464 7.520914600333248 4.690598521232264 0 0 0
1483 1 16.046706998469674 9.122224596383044 7.050769448425687 0 0 0
1772 1 17.51848650100588 6.70183763549145 6.970344931689381 0 0 0
1770 1 19.0108855808477 7.72793305798085 4.758884406305738 0 0 0
1771 1 19.035218188920613 9.504651924677162 6.9911486454565805 0 0 0
2060 1 20.398992074827994 6.961773215887201 7.07640021440538 0 0 0
2348 1 23.411413164853176 6.939699914153439 7.189594742815435 0 0 0
2058 1 22.018886908151853 7.649613723791558 4.862708589111333 0 0 0
2059 2 21.901090700516534 9.420978570873823 7.015930286827401 0 0 0
2093 1 20.575204459726006 10.128701753542213 4.786507078062824 0 0 0
2381 1 23.37085225562929 10.138472503896757 4.725312539018885 0 0 0
2636 1 26.510526550254742 6.799165593041406 7.047874432030571 0 0 0
2346 1 24.885010938947204 7.5767861392938896 4.729923260484155 0 0 0
2347 1 24.854254567369917 9.399836331819499 7.056209091476492 0 0 0
1517 1 14.696593032279553 10.075391346519625 4.582201392305555 0 0 0
1518 1 16.099000627837743 12.736045742889004 4.796827225018939 0 0 0
1520 1 14.65350098247272 11.903024471275028 7.022117988838021 0 0 0
1805 1 17.446340070790793 10.077570111728669 4.678787211451073 0 0 0
1806 1 19.08332591875662 12.463979801462914 4.77062229042662 0 0 0
1808 1 17.569308621107925 11.969193894147965 7.143288901730796 0 0 0
2096 1 20.622093824347417 11.939713364927954 7.051790805183852 0 0 0
2384 1 23.530691467468035 11.902409609579578 6.975817587770743 0 0 0
2094 1 21.98913687448792 12.783085854721072 4.611244593344398 0 0 0
2669 1 26.42550304639843 10.258819513381127 4.805250632876236 0 0 0
2672 2 26.400864118850766 11.981750634329101 6.933093938408497 0 0 0
2382 1 24.864148923290475 12.637191780485107 4.65102437088166 0 0 0
1556 1 14.652898252522002 16.814719432319755 7.010940878282762 0 0 0
1553 2 14.75556107528133 15.176065483310522 4.701273227277005 0 0 0
1519 1 16.144796069245206 14.453065002915986 7.0432678942227165 0 0 0
1844 1 17.600836950837053 16.843641169859087 7.014201897211741 0 0 0
1841 1 17.691598520167794 15.231165830349717 4.648626253927998 0 0 0
1807 1 19.03223245737404 14.314050789243181 7.087659961327196 0 0 0
2420 2 23.557854585683582 16.920469090056482 6.914727339019224 0 0 0
1514 1 16.01138446890807 12.683496638942271 0.034817723571563264 0 0 0
1765 1 17.581044610199207 4.9982509825932295 -0.02879183843773301 0 0 0
2665 1 26.495053960933575 9.977523792625654 0.03135078169697008 0 0 0
2165 1 20.5066460507876 20.202965612876472 4.666393408717083 0 0 0
2089 1 20.46431595732959 10.260743661135916 0.059622913684745024 0 0 0
1477 1 14.70419293842835 5.078476097262676 -0.027482817858653145 0 0 0
1802 1 19.068717856111952 12.663009038782656 0.1047317683176412 0 0 0
1445 1 14.668889416748442 0.03282433747388325 4.657345518356603 0 0 0
2090 1 21.93389231222006 12.628383871169698 -0.014074010024239452 0 0 0
2306 2 24.866071456607138 2.6012741497888365 0.0016563944144668621 0 0 0
2053 1 20.43816191502429 5.232190220085872 0.029536839090425815 0 0 0
2018 1 21.938259152992345 2.7314622398094146 -0.0007238431868330508 0 0 0
2017 1 20.409873439978906 0.08396505758533099 0.061851971738263956 0 0 0
2413 1 23.39534313922527 15.246476063442296 -0.016352202584343445 0 0 0
2125 1 20.524034074501017 15.162530546767075 0.1293466089737052 0 0 0
1442 1 16.136031148187126 2.3671979227905946 0.1536318799947054 0 0 0
2414 1 24.793509088952796 17.692722623455268 0.04035987130959029 0 0 0
2701 1 26.447301124931467 15.071472724919065 0.06381673385395459 0 0 0
1513 2 14.82787457281305 10.243558275283313 -0.015461466187232986 0 0 0
2377 1 23.547958603855765 10.112595022300827 0.013384583718348608 0 0 0
1801 2 17.552915793694048 10.187772362653332 0.056647882330580046 0 0 0
1549 2 14.671726694324684 15.179806142832396 0.0755198097728993 0 0 0
1450 1 16.047413099248885 2.515267034792301 9.24229909936602 0 0 0
1452 1 14.714263949038415 1.6536201829243218 11.781796959982987 0 0 0
2745 1 26.446000816186384 20.287293234425174 9.478844808538238 0 0 0
1738 1 19.099023081361903 2.5572454438292045 9.336057634832613 0 0 0
1740 2 17.593749746684416 1.7822709507258376 11.628748918858923 0 0 0
2028 1 20.558100769933205 1.7213917185117795 11.79981381138742 0 0 0
2427 2 24.816846917459834 19.35757922510736 16.481503634770203 0 0 0
2026 1 22.01456272925043 2.4788487380016977 9.348950103692347 0 0 0
2316 1 23.3987760022783 1.6959795548081855 11.750596298805293 0 0 0
2139 1 21.961226045230763 19.458255339613974 16.386651818167433 0 0 0
2314 1 24.802931213912363 2.6747579199803115 9.340127918702477 0 0 0
2604 1 26.24544053100571 1.9140746185559512 11.739733381762555 0 0 0
1451 1 16.114625676909753 4.04265398424153 11.823623314830286 0 0 0
1485 1 14.592622822224593 4.992198343169541 9.251179175039901 0 0 0
1488 1 14.652718080383824 6.624708623814241 11.734062284159458 0 0 0
1739 1 18.937025944369566 4.292730378142847 11.532208027769682 0 0 0
1773 1 17.65401063449447 5.081309790983745 9.255112429731978 0 0 0
2061 1 20.52886669700989 5.111788978977053 9.26869798949055 0 0 0
2027 1 21.854744548448256 4.274498114898236 11.707521320190663 0 0 0
2349 1 23.382430351715076 5.184415629792867 9.459247968760717 0 0 0
2315 1 24.85299301110448 4.386863016524767 11.77154167173123 0 0 0
2637 1 26.38756431981723 4.988606245355942 9.424972050147195 0 0 0
2640 1 26.414966018797262 6.807865410899005 11.830123799110517 0 0 0
1486 1 16.14280313450317 7.611391887315325 9.351530023920477 0 0 0
1487 1 16.034974537772605 9.360277446951805 11.718559160985608 0 0 0
1776 1 17.654725228297362 6.841939354429406 11.75846424355494 0 0 0
1774 1 18.9653850816091 7.590980286932762 9.279030324902958 0 0 0
1775 1 19.09412741515167 9.501679924641005 11.729873671033047 0 0 0
2064 1 20.71143320305803 6.820574745950288 11.555234926741266 0 0 0
2352 2 23.54990107097259 6.854716341800596 11.695413243063586 0 0 0
2062 1 21.981770740072488 7.735898276485068 9.43262299557453 0 0 0
2063 1 22.127828392317486 9.4592504359464 11.753510424599488 0 0 0
2350 1 25.039908931591054 7.666956931823978 9.398714087328592 0 0 0
2351 1 25.054547259705963 9.279467242112021 11.861893312419003 0 0 0
1521 1 14.723191524421386 10.20444873184407 9.428994112488528 0 0 0
1522 2 16.104330685551794 12.752455187967527 9.472068962737117 0 0 0
1524 1 14.793989259832111 11.856387918804117 11.766787981570277 0 0 0
1809 1 17.481187099692256 10.291802358012625 9.245749479575753 0 0 0
1810 1 19.022011652749917 12.793562713553849 9.42229373678812 0 0 0
1812 1 17.615859771464507 11.889447751184617 11.661411138947837 0 0 0
2097 1 20.598732901216593 10.195642883476998 9.253909342819659 0 0 0
2385 1 23.379338953505904 10.23662299868322 9.342862469454568 0 0 0
2100 2 20.551326923392583 11.903630012561349 11.618131988051518 0 0 0
2098 1 22.026772989714065 12.777246790502364 9.288061226239527 0 0 0
2388 1 23.522615022615472 11.925965820925292 11.673665846457602 0 0 0
2673 1 26.256901869016957 10.243889022100769 9.322177657133288 0 0 0
2386 1 24.946039443222148 12.684142947974998 9.281133066699308 0 0 0
2676 1 26.471643643874994 11.945953282212905 11.777794366703251 0 0 0
1523 1 16.273428701061523 14.4259851443393 11.761305831133527 0 0 0
1557 1 14.843032063424431 15.284311005960253 9.435133549996053 0 0 0
1811 1 19.192456821393005 14.45592265147902 11.71585681606202 0 0 0
1845 1 17.69046819876467 15.232194854107288 9.414618737090334 0 0 0
1848 1 17.502234894570716 17.072256728603797 11.617450776962372 0 0 0
2133 1 20.5524377937059 15.403474981046122 9.259454409168676 0 0 0
2099 1 22.020819026600744 14.421823837651308 11.678384769836185 0 0 0
2421 1 23.64032309326088 15.260360888750649 9.340943477962144 0 0 0
2387 1 24.908097572114357 14.36689359719485 11.783083285486704 0 0 0
2709 1 26.577482472923162 15.221206918999854 9.300316336125594 0 0 0
2712 1 26.40110357074887 16.876721138756256 11.77467786724253 0 0 0
1560 2 14.628025777427382 16.963737803835453 11.63388214326568 0 0 0
1558 1 16.160687815433082 17.782494677983607 9.31558511207911 0 0 0
1559 1 15.97554202679135 19.467713240274048 11.69717180283912 0 0 0
2138 1 21.906677171044855 17.61425667367647 14.188967243040494 0 0 0
2169 1 20.485246990389793 20.248907468404123 9.296316473410169 0 0 0
2136 1 20.62652080377222 16.925209439934758 11.753325749090779 0 0 0
1846 2 19.08444559981674 17.70951651634576 9.405467494203485 0 0 0
1847 1 19.13441817357613 19.5155968031213 11.611091007078604 0 0 0
2428 1 23.475920790725766 17.02963152501624 16.347896067267758 0 0 0
2424 1 23.50367726903488 16.915827825529526 11.606206750057968 0 0 0
2134 1 21.98765047732235 17.874798367145345 9.161106218396945 0 0 0
2135 1 22.03729969202551 19.592869855470862 11.861856842905501 0 0 0
2422 1 24.876247118754897 17.85659746324468 9.339850579534705 0 0 0
2423 1 24.755131754631517 19.506852862851098 11.627547071287966 0 0 0
2426 1 24.9268014216201 17.729828510242925 14.063359825724495 0 0 0
1454 1 16.125951844700136 2.574725400448005 14.141646084743908 0 0 0
1456 1 14.704241255288084 1.771811365826159 16.4952785668066 0 0 0
2716 1 26.451477626786723 17.03672542347252 16.4447765071426 0 0 0
1881 1 17.571293684436057 20.25578781274109 9.334010238545721 0 0 0
1742 1 18.975350777877452 2.5897700993859574 13.876344318632043 0 0 0
1744 2 17.67140099443417 1.8600021441288683 16.413359201062264 0 0 0
2032 1 20.37376070442294 1.6924757138617441 16.39346269491874 0 0 0
2030 2 21.943924221115047 2.572926740574566 14.109552386044056 0 0 0
2320 1 23.47440218933367 1.7893269739691915 16.428595982462788 0 0 0
2318 1 24.773664021710008 2.681262599221452 14.07041339882324 0 0 0
2608 1 26.321900596252938 1.792770103488982 16.398709104020213 0 0 0
1455 1 16.174697942695154 4.268250951217362 16.439387678570878 0 0 0
1489 2 14.69185941611088 4.915403376898403 14.085854624090976 0 0 0
1492 1 14.681575354995687 6.744811117741136 16.441451497784826 0 0 0
1743 2 19.084968204965765 4.184307891530064 16.315750148262534 0 0 0
1777 1 17.527606668242942 5.133888245719669 14.031266286973214 0 0 0
2065 1 20.442964211899188 5.118611452999723 14.07070640458171 0 0 0
2031 1 22.043803781894766 4.193928446265553 16.535244141902513 0 0 0
2353 1 23.435953382263357 5.115755849405115 14.001298546561985 0 0 0
2356 1 23.384288785336 6.7952703803289065 16.37268788728225 0 0 0
2319 2 24.88109315176351 4.382185438539584 16.468314241316346 0 0 0
2641 1 26.312869143234952 5.184174281920183 14.214979191727524 0 0 0
2644 1 26.46463684028438 6.787992213180974 16.542315642648983 0 0 0
1490 1 16.019855768627078 7.564681453641703 14.12697674114803 0 0 0
1491 1 16.005525024417636 9.265922369483672 16.482338314244284 0 0 0
1525 2 14.502145734721154 10.219656623914256 13.957016907598708 0 0 0
1780 1 17.708070411489512 6.92846693310292 16.33326663775514 0 0 0
2068 1 20.46694626320992 6.849880215189778 16.296886338315787 0 0 0
1778 1 19.040054845424972 7.687651193226883 14.001213375250945 0 0 0
1779 1 18.872166843037622 9.514414937758081 16.44403495074486 0 0 0
2066 1 21.95862270958854 7.612680366382278 14.054786106048855 0 0 0
2067 1 22.00799445229127 9.246362687166162 16.378726400461016 0 0 0
2354 1 24.95475175479011 7.614565974701519 14.174982418189972 0 0 0
2355 1 25.051802817983084 9.28181522365166 16.56911452606708 0 0 0
1526 1 16.199628987823083 12.59086857485487 13.96921788010066 0 0 0
1528 1 14.73130364896129 11.842310215587572 16.375572084310424 0 0 0
1813 1 17.49931589502091 10.114459220056144 14.04548647244808 0 0 0
1814 1 19.20251221961212 12.59522382037723 14.11605934927376 0 0 0
1816 1 17.678897183162366 12.002341765754936 16.61629592465631 0 0 0
2101 1 20.362881813759255 10.285550995965352 14.098321681600183 0 0 0
2389 1 23.62130284606702 10.221373595082902 14.118867522769133 0 0 0
2104 2 20.613863294973747 11.820424732679166 16.447999013871424 0 0 0
2392 1 23.392020790170818 11.82698844857137 16.41021501873547 0 0 0
2102 1 21.990921309420873 12.577380721734151 14.054279865373266 0 0 0
2677 2 26.489553437017246 10.207771791060921 14.114424503890056 0 0 0
2390 1 25.030303389905168 12.55836932931893 14.239511113296722 0 0 0
2680 1 26.524661193075715 11.77361609573035 16.3935478085707 0 0 0
1527 1 16.08570913307984 14.444700346839237 16.201972898017818 0 0 0
1561 1 14.543666411202954 15.213597111552607 14.066692061429913 0 0 0
1815 1 19.02418376717366 14.444147837466762 16.402717595792925 0 0 0
1849 1 17.763132886973743 15.117240871362233 13.868671481548922 0 0 0
2137 2 20.52286720770738 15.16804289304888 13.96707690681169 0 0 0
2103 1 21.89352645823607 14.383526264777561 16.276340722560164 0 0 0
2425 1 23.396282696015906 15.101427758973706 13.957366006021289 0 0 0
2391 1 24.879852547686077 14.319930758870674 16.35068011178104 0 0 0
2713 1 26.369302523415737 15.175609522345644 13.934188618174366 0 0 0
1564 1 14.649265628453957 16.88486553414207 16.52136964489723 0 0 0
1563 1 16.085490751982007 19.43855923268477 16.401109709127187 0 0 0
1562 1 16.29194082977287 17.708764482017006 14.132454925988435 0 0 0
1852 2 17.63301569539579 17.05042122186713 16.43073617948909 0 0 0
2140 1 20.440751091613578 16.79238139083343 16.404271501569244 0 0 0
1850 1 18.98141104070254 17.74211480394143 14.005603361375098 0 0 0
1851 1 19.030388792432593 19.516988226049452 16.428978352339314 0 0 0
2457 1 23.330178238020267 20.28125570908617 9.33318184858358 0 0 0
2605 1 26.19029276621842 0.13775383232957927 13.979876557635968 0 0 0
1741 1 17.37499042472135 0.1332199310645743 14.098105357981412 0 0 0
2461 1 23.51137366901671 20.25887281538521 14.154831669445041 0 0 0
1737 1 17.554962138031637 0.0959247939292687 9.47068595308621 0 0 0
1597 1 14.67590441217213 20.26434961787549 14.056772987829703 0 0 0
2173 1 20.418154928274177 20.229249207747415 14.038056574153552 0 0 0
2313 1 23.328332089643826 0.051016218256606294 9.308213006650531 0 0 0
2317 1 23.448269789619665 0.19172771776251807 14.004120662365636 0 0 0
2601 1 26.231954561798318 0.0748914825721485 9.294186725989059 0 0 0
1458 1 16.160436398878513 2.6101202521775253 18.795039603610395 0 0 0
1460 1 14.631258929429757 1.7129578862735173 21.112665012483166 0 0 0
1746 1 19.03306809311255 2.393578366080338 18.762893804164143 0 0 0
1748 1 17.795062988683082 1.6344782368415658 21.13646890274026 0 0 0
2036 2 20.543878489364978 1.7078191050431002 21.160424302612654 0 0 0
2034 1 21.95059133381399 2.6185132819636205 18.741743442610552 0 0 0
2324 1 23.50517052196843 1.5947934342554972 21.105252427201233 0 0 0
2434 1 24.983104230517107 17.81656818803106 23.35568878730033 0 0 0
2469 1 23.43171955003785 20.226603457745483 23.343404644825892 0 0 0
2322 1 24.969581855847554 2.4993732521448604 18.703971278797322 0 0 0
2612 1 26.44207518786593 1.7065130624988112 21.022201867529827 0 0 0
1493 1 14.624165556846503 4.939828325144303 18.77518079676984 0 0 0
1459 1 16.267875420670702 4.421481211962549 21.176624026883843 0 0 0
1781 1 17.61295365330886 5.183723981993262 18.65135381370403 0 0 0
1747 1 19.179560548472352 4.20370689318073 21.047681954613488 0 0 0
2069 1 20.491199896347847 5.023596986414644 18.78006994018661 0 0 0
2357 1 23.392229214782017 5.060625443181247 18.77138972474739 0 0 0
2645 1 26.38574425324555 4.950301980947374 18.820011886681137 0 0 0
1494 1 16.191730809366025 7.6278981854671635 18.845499959458493 0 0 0
1782 1 19.10151606873456 7.716100458669348 18.75969142686107 0 0 0
1783 2 19.103542597123273 9.228359054376623 21.110518882856056 0 0 0
2070 1 21.98602769676274 7.7001446844790085 18.693609218768128 0 0 0
2071 1 22.01771214297054 9.420321689757582 21.084202298693754 0 0 0
2358 1 25.061367925450895 7.621688425207675 18.846713454426077 0 0 0
2359 1 24.854794278251084 9.34635107312594 21.09156945083838 0 0 0
1529 1 14.794933662846987 10.281245517602526 18.710699018503956 0 0 0
1530 2 16.205004787035502 12.782719192826113 18.802068739704943 0 0 0
1532 1 14.636024021990753 11.872806080998775 21.117907765985823 0 0 0
1817 1 17.526776121737417 10.23568487320408 18.955308402013138 0 0 0
1818 1 19.080333584438197 12.709420814747208 18.592571218176673 0 0 0
1820 1 17.58939916876448 11.871387218497333 21.115247760531652 0 0 0
2105 1 20.416626242404266 10.171877300583992 18.816504529904876 0 0 0
2393 1 23.55780334633725 10.139290968712833 18.73276417351971 0 0 0
2106 1 21.933817806021437 12.669912941105009 18.608927189512027 0 0 0
2396 1 23.480952930646996 11.830547066707608 21.04761352940484 0 0 0
2681 1 26.49135884609485 10.271875410353339 18.78474966168045 0 0 0
2394 1 24.822514935332187 12.748191375784904 18.769679931358585 0 0 0
2684 1 26.49512293734253 11.930581659015026 21.054039052536048 0 0 0
1565 1 14.605569072630706 15.11767877816605 18.770038221747235 0 0 0
1568 1 14.591260036218449 16.807065056193288 21.051272650588015 0 0 0
1531 2 16.10046056669856 14.26036294370237 20.968969243203723 0 0 0
1853 1 17.552220238225637 15.310887245307802 18.70921529478736 0 0 0
2141 2 20.40736660511066 15.18596999244755 18.71607078248562 0 0 0
1856 1 17.476624593817863 16.779715989417 21.04909413434701 0 0 0
2429 1 23.378703418874892 15.340104139859315 18.69876707055846 0 0 0
2717 1 26.296210479781468 15.271403714388173 18.71331997660951 0 0 0
2720 1 26.400556507765174 17.06641810546452 21.00707032905084 0 0 0
2395 1 24.96619911379263 14.386714392940496 21.082445622792193 0 0 0
1566 1 16.141554778259035 17.69493409206019 18.760793813519918 0 0 0
1854 1 19.09654487101678 17.706384056387922 18.767479848699175 0 0 0
2142 1 21.81105633443946 17.917615909497986 18.632992603795447 0 0 0
2143 1 21.779450998846286 19.532343427796537 20.974564818447195 0 0 0
2430 1 24.991947605887336 17.793864036822214 18.749045662097622 0 0 0
2431 1 24.937983555691897 19.507549595140194 21.034886434482964 0 0 0
2144 1 20.48443182419626 16.80281145121395 21.095201181844455 0 0 0
1462 1 16.32452130583946 2.531219600589312 23.296738388437824 0 0 0
1750 1 19.32610012755369 2.614623053179814 23.375217092023586 0 0 0
2038 1 22.215449498935993 2.5298241510181487 23.49228046755551 0 0 0
2146 2 21.819011055387783 17.80536210717648 23.45290701691078 0 0 0
2326 1 24.975748478881716 2.480981550581622 23.2961103546506 0 0 0
2432 1 23.405688418533092 16.900193974831108 21.108782713897256 0 0 0
1497 1 14.736425589531004 5.12224023583897 23.373445778430316 0 0 0
1785 1 17.91872365082973 5.092166389209927 23.355153825466232 0 0 0
2072 1 20.698598094992043 6.767576328151124 21.01396822241065 0 0 0
2073 2 20.733810592443895 5.0743466818619885 23.49040385855871 0 0 0
2035 1 22.102475260210348 4.248236131450349 21.173102767435317 0 0 0
2361 1 23.594357863399466 5.056469532055691 23.405048303427264 0 0 0
2323 1 24.878795126715946 4.210104288463708 21.106352474144252 0 0 0
2649 1 26.45069732924845 5.095238091825548 23.483301624563797 0 0 0
1496 2 14.585910002322946 6.715874639646431 21.06380845957212 0 0 0
1498 1 15.932005508881005 7.621277187004084 23.518480104854152 0 0 0
1495 1 16.226359522193345 9.223747676387903 21.258659861612333 0 0 0
1784 1 17.688158817741748 6.822420036490167 21.09892338679821 0 0 0
1786 1 19.200823757627006 7.646044581611943 23.392861032727364 0 0 0
2109 1 20.5771044733221 10.20311050534478 23.408708762727247 0 0 0
2360 1 23.591075044361634 6.880570765592145 21.047972270913576 0 0 0
2074 1 22.062358528993602 7.595120178775877 23.501732227828683 0 0 0
2397 1 23.396893997019205 10.080475023889043 23.435746788497937 0 0 0
2648 1 26.470816858486447 6.872800934631599 21.284795402846985 0 0 0
2362 1 25.040036859207394 7.665459935843571 23.52505901485005 0 0 0
1533 2 14.737529330196605 10.198595684288682 23.52642256800985 0 0 0
1534 1 16.129777825023186 12.620383491775362 23.298797460868595 0 0 0
2108 1 20.543502759015784 11.971966507854022 21.110972432091707 0 0 0
1821 1 17.613629530937345 10.213315147321447 23.37888713665067 0 0 0
1822 1 19.082662894665745 12.68009886431276 23.49210425896935 0 0 0
2110 1 22.075647687444228 12.80777909606705 23.370132103138953 0 0 0
2685 1 26.538165208430534 10.125012600946462 23.494670165725566 0 0 0
2398 1 25.070130581835087 12.73742500867884 23.46961861716099 0 0 0
1569 1 14.752991552811942 15.223719966884337 23.394719303702228 0 0 0
1819 1 19.062713622443912 14.524057142664118 20.92848521306076 0 0 0
1857 1 17.54981106310782 15.222504269549903 23.332337026238644 0 0 0
2145 1 20.436767198600105 15.320699189886145 23.402655337591142 0 0 0
2107 1 21.977622208981323 14.315248966699592 21.0136521171357 0 0 0
2433 1 23.39909400971315 15.339751629866567 23.433403106220275 0 0 0
2721 1 26.30634119224211 15.265575681018438 23.501144700676225 0 0 0
1567 1 15.946828837553097 19.340851844722657 21.104585220607323 0 0 0
1570 1 16.1421383629003 17.771599482429977 23.450398937110407 0 0 0
1858 1 19.072852567198723 17.757332489802028 23.356362206687777 0 0 0
1855 1 18.969768978330162 19.45243487094492 21.030304334317673 0 0 0
1749 1 17.668710319871316 0.014321523307629867 23.378292580385377 0 0 0
2181 1 20.47860184339187 20.249677605282148 23.378391812657636 0 0 0
1461 2 14.786462284607843 0.17007711857774607 23.564470224905833 0 0 0
2757 1 26.30458598963131 20.253955963442703 23.50477077407631 0 0 0
1893 2 17.45071620257643 20.24648718758806 23.402987750498927 0 0 0
2609 1 26.54024125663536 0.07919150541916764 18.835131470882207 0 0 0
1464 1 14.680318553825627 1.8822592898037405 25.703056339434873 0 0 0
1466 1 16.183623103071987 2.5613496234665356 28.049094603783885 0 0 0
1465 1 14.53314931765991 0.02747841542902791 28.0370894833692 0 0 0
1752 1 17.729363046647805 1.8034024285781607 25.718830997153997 0 0 0
1754 1 19.16528114544686 2.5602849105855534 28.178895390665513 0 0 0
1757 1 17.643891752890394 0.10124201640293264 32.92490834496223 0 0 0
2040 1 20.55630107460547 1.6088469071678102 26.021774203120657 0 0 0
2042 1 22.0259883072277 2.5195766194310845 28.272894628312443 0 0 0
2328 1 23.570774996510405 1.6805524748449892 25.61436982452234 0 0 0
2439 2 24.990701246443567 19.39355943696686 30.360162074769768 0 0 0
2330 1 25.032188322105867 2.4390291243594646 28.06039415722584 0 0 0
2616 1 26.452490770917883 1.5206991586689327 25.72626669129961 0 0 0
2442 1 25.072597658681275 17.97880838299529 32.67654366722651 0 0 0
1463 1 16.31133803297851 4.407658260311951 25.642214688303667 0 0 0
1501 1 14.829245687384217 5.098844419823516 28.0675746093652 0 0 0
1500 2 14.876640024108761 6.698228859003091 25.740734401031585 0 0 0
1751 1 19.358488179728244 4.182897318559655 25.68967436249121 0 0 0
1789 1 17.754237184409305 5.118420966577637 28.067912414113124 0 0 0
1788 1 17.724239069193956 6.8092226632453645 25.865780820542888 0 0 0
2076 1 20.6439335439364 6.692897031116393 25.79656770496552 0 0 0
2077 1 20.605019682185414 5.120655341566326 28.1408660335908 0 0 0
2039 1 22.17777593320067 4.14210159988685 25.92085595265831 0 0 0
2365 1 23.602880728197412 5.0704666574335375 28.213521266549957 0 0 0
2327 1 24.997884341454228 4.162007147726049 25.838049343530813 0 0 0
2653 1 26.57418117627615 5.077815097502703 28.324261691499906 0 0 0
1502 1 16.195911912887947 7.6790555070694735 28.211277300134398 0 0 0
1499 1 16.268754064387547 9.286610236142355 25.756830779032722 0 0 0
1537 1 14.852913690753471 10.142359349541195 28.312656580847076 0 0 0
1790 2 19.241948688824163 7.619198573888722 27.947273188413757 0 0 0
1787 1 19.177043101261717 9.297999542964419 25.813487634721668 0 0 0
1825 1 17.745356730669968 10.189589196083876 28.163586959363144 0 0 0
2364 1 23.667218889668458 6.759685772515263 25.845940187322793 0 0 0
2113 1 20.643066805840334 10.15207068752566 28.264389155670536 0 0 0
2078 1 22.131090000005592 7.701224405621692 28.185853733075653 0 0 0
2075 2 22.1218367114921 9.196309363907687 25.832568925250847 0 0 0
2401 1 23.469298912835153 10.33424131074175 28.089134464408044 0 0 0
2652 1 26.48577444126185 6.6679005733676995 25.811578841520472 0 0 0
2366 1 25.040325960904063 7.773591293197181 28.25394776793306 0 0 0
2363 1 24.84389587796681 9.432436159115527 25.73387800068109 0 0 0
2689 1 26.357463080248298 10.224048608175707 28.17550326215108 0 0 0
1536 1 14.669777197388814 11.751118152403194 25.8965881744672 0 0 0
1538 2 16.226715146429736 12.764126612830658 28.161431966234716 0 0 0
1824 1 17.615010019245396 11.8410048394906 25.75369287176008 0 0 0
1826 1 19.06047139348952 12.655848373085082 28.063518011919253 0 0 0
2112 1 20.498683183809867 11.68194999238804 25.723265438070236 0 0 0
2114 1 22.0060971628079 12.878919272276791 28.30014092935369 0 0 0
2400 1 23.311392738329808 11.912025260082903 25.86202610818445 0 0 0
2402 1 24.990995941568016 12.841155813694419 28.25047246635746 0 0 0
2688 1 26.264664731081716 11.96419343702412 25.851209530989987 0 0 0
1535 1 16.186359353961898 14.283092902517865 25.717379074437556 0 0 0
1573 1 14.590396323420629 15.215945783224083 28.020865764073932 0 0 0
1572 1 14.67958436227503 17.03347335045946 25.86076207085557 0 0 0
1823 2 19.03069192891794 14.345270393614953 25.737756940289447 0 0 0
1861 1 17.657374594675257 15.097587080462214 27.992011092157675 0 0 0
1860 1 17.700918240321133 16.802664060942462 25.783298106872117 0 0 0
2149 1 20.483291070870635 15.373543697047467 28.23142355383238 0 0 0
2148 1 20.472845267081492 16.97378895287312 25.84519101726355 0 0 0
2111 1 21.833502000132288 14.56418302938293 25.774444596897393 0 0 0
2437 1 23.365647166872886 15.274137233448586 28.237483525552342 0 0 0
2399 2 24.76865120571674 14.286301228788364 25.782430095875775 0 0 0
2725 1 26.291881469365144 15.20449162343342 28.17174360147542 0 0 0
2724 1 26.278508339904874 16.89851611876876 25.750973963112028 0 0 0
1571 1 16.025258323695653 19.40075352015833 25.7179821017002 0 0 0
1574 1 16.243727526063154 17.793051796402384 28.136983279253723 0 0 0
2151 1 22.101741995942856 19.599710593813153 30.36322732635006 0 0 0
1859 1 18.95516524306968 19.691968663363387 25.713927202816404 0 0 0
1862 1 19.16434232212522 18.029800345508367 28.141980231686684 0 0 0
2045 1 20.64844637848334 0.09095423516856248 32.8436202788362 0 0 0
2436 1 23.445655558008813 16.97452550154954 25.769191752702152 0 0 0
2147 1 22.042212048523336 19.446045316050398 25.595483003036083 0 0 0
2150 2 21.950498168044255 17.70771134686202 28.200123690309418 0 0 0
2621 1 26.495504693446037 0.020737817494070644 32.65701949090925 0 0 0
2154 1 21.990805118937818 17.963948982876047 32.704880172212796 0 0 0
2435 2 24.949254070672488 19.393987078426196 25.875181125719028 0 0 0
2438 1 24.778294384101393 17.73873552149803 28.081097046383512 0 0 0
1468 1 14.589036136383926 1.6254110898536256 30.271853689933018 0 0 0
1470 1 16.15004991794786 2.512919782522931 32.79482111599431 0 0 0
2152 1 20.582669344840742 16.980899591759314 30.551200255513645 0 0 0
1753 1 17.714035002743262 0.11784803181220783 28.079521461751153 0 0 0
1756 1 17.683069506183983 1.7652539750321903 30.54929010040453 0 0 0
1758 1 19.077406871834786 2.6260657807430916 32.88215148969927 0 0 0
1866 1 18.88119601799757 17.811605614374766 32.726160823177395 0 0 0
2044 1 20.53627903614684 1.7487411054602984 30.556057910030397 0 0 0
2046 2 22.125480121257066 2.5246513461413733 32.89041100988733 0 0 0
2332 1 23.55694955606648 1.6039920754229577 30.43060040123611 0 0 0
1863 1 19.157648305420125 19.60372281835027 30.505279239575188 0 0 0
2334 1 24.902697150076786 2.611178503988004 32.82997587501414 0 0 0
2620 2 26.279616580523385 1.7286831788295611 30.52172554354485 0 0 0
1467 1 16.370264198559305 4.249654908259092 30.46367430665878 0 0 0
1505 1 14.749085886014973 5.024626633695208 32.76098702625687 0 0 0
1755 2 19.327237949858382 4.238948653393164 30.434587973354283 0 0 0
1793 1 17.737202001784027 5.056708090370917 32.71969949161884 0 0 0
2081 1 20.638810581455225 5.116016851910052 32.70140071319514 0 0 0
2043 1 22.20516588378492 4.12655613375282 30.47893558014896 0 0 0
2369 2 23.671413069449667 5.077038404494071 32.87686912466255 0 0 0
2368 1 23.437804132853483 6.73186232514173 30.515252547172057 0 0 0
2331 1 24.954917833068446 4.279091683696125 30.51841422299882 0 0 0
2657 1 26.47470530717942 5.153049290160055 32.8710825874017 0 0 0
1504 1 14.696829887040057 6.6898125461574685 30.470553241817395 0 0 0
1506 1 16.154881130135184 7.644578849190899 32.87923180491053 0 0 0
1503 2 16.151342169921946 9.266741290832119 30.472394999847364 0 0 0
1792 1 17.6404610545287 6.8196383876266164 30.54075380736987 0 0 0
1794 1 19.17455146972558 7.65653398315715 33.007219925272736 0 0 0
1791 1 19.023683649551085 9.177939721413017 30.38226686511174 0 0 0
2080 1 20.548095142895807 6.784497269554931 30.308965710814224 0 0 0
2082 1 22.020214458401114 7.540227548897736 32.843987933012386 0 0 0
2079 2 21.960653622913597 9.200892233136242 30.543305590443985 0 0 0
2656 1 26.477402860883824 6.765456898309911 30.591549849399197 0 0 0
2370 1 24.866659270506247 7.635756219324391 32.8339442337421 0 0 0
2367 1 24.870805813149218 9.449274043956981 30.496273500994842 0 0 0
1541 1 14.805432660804678 10.149945227104494 32.92207061121768 0 0 0
1540 1 14.742649771909333 11.891657487244457 30.416287928538225 0 0 0
1542 2 16.168913135538393 12.788793089783999 32.79793705329541 0 0 0
1829 1 17.639827066919175 10.196912385302145 32.87865435029107 0 0 0
1828 1 17.476900540932395 11.746885789171584 30.43472470969032 0 0 0
1830 1 18.93879885909942 12.73698331048873 32.72371855150483 0 0 0
2116 1 20.68998033676525 11.82491244264719 30.603958905884486 0 0 0
2117 1 20.562525658195028 10.145782577305264 32.80443812238943 0 0 0
2405 1 23.37190788129168 10.037223551687404 32.91228290311456 0 0 0
2118 2 22.022689325978934 12.677110889855554 32.951637953969964 0 0 0
2404 1 23.439378492507814 11.834844557287374 30.776190102494997 0 0 0
2693 1 26.15026131548094 10.200863850483735 32.91955738720095 0 0 0
2406 1 24.822843299442756 12.880715857776016 32.76592382640003 0 0 0
2692 2 26.27542946730081 11.882378532582978 30.53500996391613 0 0 0
1539 1 15.98208253619203 14.331940305018751 30.402951383960502 0 0 0
1577 1 14.60865002779581 15.177391518359817 32.764653255177066 0 0 0
1864 1 17.62410494630852 16.873848328371537 30.3826774800926 0 0 0
1827 2 19.10235734046968 14.342553662915646 30.375498431591087 0 0 0
1865 1 17.53270762916357 15.122187669212428 32.62109562077133 0 0 0
2440 1 23.4842808243561 17.218956693194563 30.60140800937871 0 0 0
2153 1 20.56113585876632 15.280899445067742 32.84104383905019 0 0 0
2115 1 22.159069243927352 14.38639386932433 30.45727752210742 0 0 0
2441 1 23.5070188123593 15.342586200548713 32.794491403280404 0 0 0
2728 1 26.424690613890828 16.99659280322787 30.52978464130855 0 0 0
2403 1 25.021991263200253 14.475419463034756 30.63235480998474 0 0 0
2729 1 26.346520832903494 15.392233739555694 32.90376473632628 0 0 0
1576 1 14.694352077869876 16.84670490004632 30.220186054732803 0 0 0
1575 1 16.085844411392415 19.522550961764683 30.566004008661647 0 0 0
1578 1 16.146554320777547 17.72477837523436 32.823059522578845 0 0 0
1469 2 14.65141264153897 0.07555087050770792 32.78150268385821 0 0 0
2473 1 23.45127154017401 20.19878803830204 27.974989354916765 0 0 0
1901 2 17.558084101400823 20.245996791358152 32.89144423960849 0 0 0
1613 1 14.553388323311191 20.294518669737023 32.808010763043384 0 0 0
2185 1 20.62968869384617 20.295171329676972 28.11815476614802 0 0 0
2041 2 20.539246620644608 0.04992767878887605 28.166842753274004 0 0 0
1472 1 14.570924902524336 1.768556716095358 35.17897863549605 0 0 0
1474 1 16.142628201259818 2.497984299315739 37.56539800549875 0 0 0
1760 2 17.529188891213792 1.6318776998774802 35.32908758751168 0 0 0
1762 1 19.050644144912948 2.4093493145599076 37.50604116370796 0 0 0
2305 1 23.27901712638711 0.08587129258651771 42.071977991194174 0 0 -1
2048 1 20.479734304444182 1.5773788594882783 35.157713200075676 0 0 0
2050 1 21.937226842391063 2.529143085710194 37.41933698414597 0 0 0
2336 1 23.541718509313615 1.6965773801119826 35.211787783960176 0 0 0
2338 1 24.890148706735623 2.588599293757237 37.514648841763645 0 0 0
2624 1 26.414946642511016 1.5016064442357 35.10324102515817 0 0 0
1471 1 16.189034176155946 4.186690159194507 35.23263401796383 0 0 0
1509 1 14.717032692838966 5.128134654224298 37.58590169076315 0 0 0
1508 1 14.72925909900977 6.789690270536875 35.12165081965715 0 0 0
1759 1 19.008696738948572 4.25333683729293 35.03616502056073 0 0 0
1797 2 17.71671734346383 5.044958007553371 37.467691037162595 0 0 0
1796 1 17.62803026448272 6.758614208657075 35.14380521881151 0 0 0
2085 1 20.539136803816724 5.123603946666226 37.48856970472609 0 0 0
2047 1 22.01616986806788 4.162046128684523 35.264474738062475 0 0 0
2373 1 23.429283729020685 5.140706321448667 37.535500929337545 0 0 0
2372 1 23.557549759664607 6.68445839840546 35.239437397105746 0 0 0
2335 1 24.868263659199016 4.124845595813862 35.12422508272806 0 0 0
2661 1 26.336563703822748 4.995597413974526 37.56912902188196 0 0 0
1510 1 16.24838161139668 7.514023377321714 37.45935628954426 0 0 0
1507 1 15.916389495429172 9.198727976833585 35.296285030727745 0 0 0
2084 2 20.707695047363977 6.659058355071479 35.13611398420781 0 0 0
1798 1 19.16453015504617 7.606511956228801 37.55368019803541 0 0 0
1795 1 19.218122841650118 9.344634498469983 35.28209778172054 0 0 0
2086 1 21.87525861738664 7.766502777661793 37.60987748844134 0 0 0
2083 1 22.026636541845022 9.226946523968566 35.223212647862795 0 0 0
2660 1 26.453035512605528 6.91950465052965 35.33547999032609 0 0 0
2374 1 24.654965205683006 7.834773044596469 37.54417003605188 0 0 0
2371 2 24.92250327903017 9.411250078433739 35.27547621684593 0 0 0
1545 1 14.665370185698768 10.065679127935606 37.68052710302622 0 0 0
1544 1 14.637148503021251 11.806711043602636 35.05649693540997 0 0 0
1546 1 16.10556888703088 12.796379836473307 37.43238882489919 0 0 0
1833 1 17.576638019153183 10.08229025817694 37.50795191864246 0 0 0
2121 2 20.639424794418638 10.316498477101481 37.48430080774233 0 0 0
1832 1 17.55995927453985 11.866581081139307 35.159584855895474 0 0 0
1834 1 19.035748975988984 12.505299627152738 37.49165835462762 0 0 0
2120 1 20.565139957330448 11.837046199806842 35.03588457607309 0 0 0
2409 1 23.553492014937284 10.341289114176229 37.549492959221 0 0 0
2122 1 21.917565662341914 12.680828318004622 37.58726556181408 0 0 0
2408 1 23.478638230398207 11.902147974759298 35.063614341770574 0 0 0
2697 1 26.434528851495262 10.081445409901105 37.52268271578349 0 0 0
2410 1 24.848687245728946 12.783977780368712 37.60114973296693 0 0 0
2696 1 26.34304998573837 11.942265999878856 35.253525502939 0 0 0
1543 1 16.045595768075906 14.4057145708406 35.034105851968974 0 0 0
1581 2 14.661942021340794 15.328877436509249 37.42426415289249 0 0 0
1831 1 19.016804314040954 14.353821616846304 34.95422948311081 0 0 0
1869 1 17.52566430334539 15.1848513481561 37.41836882180695 0 0 0
2157 1 20.524795646954807 15.034092689918783 37.494269910897145 0 0 0
2119 1 21.87088064273451 14.308959876604025 35.16265972739997 0 0 0
2445 1 23.56416514966176 15.1743788934858 37.43013408728484 0 0 0
2444 1 23.51700212651357 16.978112528217075 35.13418153013694 0 0 0
2407 2 24.97567799769731 14.398971586531037 35.19127342231337 0 0 0
2733 1 26.471169929682667 15.195060939372663 37.381773189276615 0 0 0
2732 1 26.522843913310425 16.989960044619924 35.21391711396676 0 0 0
1580 1 14.673229776789613 16.937686273775274 35.0098176657427 0 0 0
1579 1 16.087055786483813 19.46535523005646 35.32010927159283 0 0 0
1582 1 16.097745074024004 17.691239729854342 37.5792046358476 0 0 0
1617 2 14.65561803520272 20.265405072593126 37.506943388498556 0 0 0
1868 1 17.463584501144137 16.903215418968507 35.22639711594333 0 0 0
1867 1 19.032092742502076 19.429281242462636 35.15842685520634 0 0 0
1870 1 18.995294398342292 17.59273609078801 37.570505899776435 0 0 0
2156 1 20.420672683095127 16.801869970618007 34.98614869964997 0 0 0
2155 1 21.930427795528605 19.42723485817533 35.12283524165392 0 0 0
2158 1 21.912505572916306 17.63962179361256 37.41171302810105 0 0 0
2443 1 24.99091368276428 19.502786589747775 35.14356479399693 0 0 0
2446 1 24.886350924977567 17.618810091723343 37.609105964732166 0 0 0
1476 1 14.684044199939672 1.7352783190383458 39.85852979996314 0 0 0
2481 1 23.27944280361705 20.283616652410174 37.50616466330196 0 0 0
1764 2 17.616128464874045 1.6439232977673783 39.84806561666127 0 0 0
2052 1 20.448158509529122 1.7036282824849132 39.84369046912346 0 0 0
2769 1 26.355300855602323 20.25602174661588 37.49976355513297 0 0 0
2340 1 23.50391172967194 1.7650990675128688 39.884174745034755 0 0 0
1838 2 19.162739064899842 17.785015154197445 42.181164840504024 0 0 -1
1905 1 17.633044075612244 20.283618345625765 37.49932456638227 0 0 0
2628 1 26.24067889263728 1.7172237793998117 39.854201863926804 0 0 0
1475 1 16.248420889565224 4.200676063494529 39.86845141307343 0 0 0
1512 1 14.646784882370936 6.764652641871045 39.82179335465854 0 0 0
1473 1 14.518695271728017 0.03247020316410243 37.485715624945016 0 0 0
1763 1 19.09164766296168 4.1281199079196425 39.822764831607074 0 0 0
1800 1 17.690849248954173 6.660950542047384 39.70846216597948 0 0 0
2088 1 20.52655165138369 6.780615671262732 39.92246608305655 0 0 0
2051 2 21.920636899508253 4.261961929193631 39.80259538288436 0 0 0
1730 1 19.060894083654592 2.5720093772021424 42.09904168162521 0 0 -1
2337 1 23.425449615354783 0.09550266361857496 37.485311310183604 0 0 0
2625 1 26.363502767003627 0.030679994298386953 37.4943060177053 0 0 0
2339 1 24.821209332506893 4.232518031810251 39.86572472964944 0 0 0
1511 1 16.10672903974382 9.198894503573356 39.89493580407404 0 0 0
1799 1 18.977105601093445 9.440987588843006 39.90477131071215 0 0 0
2376 1 23.319838657664345 6.7903309348676935 39.85417992960302 0 0 0
2087 1 21.92137276711047 9.440646939295636 39.874158422503044 0 0 0
2664 1 26.16576648576142 6.862112181475173 39.856171272373956 0 0 0
2375 1 24.882642327435295 9.377263861034608 39.97262487192481 0 0 0
1729 1 17.593294011250805 0.03808170995169746 42.18359788401247 0 0 -1
1548 1 14.688820668409612 11.869738475005548 39.91850128029158 0 0 0
1873 1 17.448194133189595 20.193684839691947 42.15938359238746 0 0 -1
1836 1 17.574379470214975 11.8195052687633 39.970527024025216 0 0 0
2124 1 20.639808687886074 11.953289001730074 39.862591901195586 0 0 0
2736 1 26.34103720607517 16.84728734574511 39.96092741145952 0 0 0
2412 2 23.45579873542663 11.806417251212867 39.89804066386857 0 0 0
2159 1 22.06807559206999 19.358533335529003 39.86286954416673 0 0 0
2700 1 26.322252504363657 11.851400801238757 39.8655179918877 0 0 0
2629 1 26.169696841231016 4.938379743322259 42.1557494885745 0 0 -1
2448 2 23.400051718440686 16.867005351853535 39.909210935056336 0 0 0
1547 1 16.194813999795677 14.47061147381816 39.79370984079084 0 0 0
1584 1 14.718269435119142 16.83568894723652 39.87106227597036 0 0 0
1835 1 19.152756308696215 14.2196851330385 39.79088131247076 0 0 0
2447 1 24.80287489092795 19.381989588811813 39.905984853268976 0 0 0
2123 1 22.117825460671366 14.406158339082024 39.8209740872565 0 0 0
2160 1 20.508646231578982 16.79362402511782 39.812665199306764 0 0 0
2411 1 24.943909729945467 14.327522538231744 39.91862459374887 0 0 0
1583 1 16.104840410668423 19.351215043548383 39.75468699931635 0 0 0
1871 1 19.079449285807407 19.337474843326596 39.878787651796785 0 0 0
1872 1 17.618820175390223 16.96685479045571 39.88768536844293 0 0 0
2341 1 23.43821242759856 5.144638548280526 42.13863165183531 0 0 -1
1766 1 18.929392655139605 7.6883113225809145 42.1666767298762 0 0 -1
1478 1 16.15723397804264 7.551840911158334 42.18433991835005 0 0 -1
2126 1 22.015657921877498 17.84905868495029 42.1029864719573 0 0 -1
2378 1 24.877730378866747 12.726015314503828 42.15301047326861 0 0 -1
1837 1 17.57919487548651 15.286598438417878 42.15120960420489 0 0 -1
2342 2 25.011213144607854 7.60827722585397 42.17054533440895 0 0 -1
1588 1 14.583096262214916 22.18032623850434 2.1987276686877575 0 0 0
2309 1 23.387706495691653 40.5782762342496 4.733274019675033 0 -1 0
1877 2 17.671589723396114 20.343964956755624 4.703902115472367 0 0 0
1876 1 17.639367572445853 21.984110042784398 2.3795611876847698 0 0 0
2486 1 25.029729465780946 27.927856216076684 0.13870524017118815 0 0 0
2164 1 20.58768950747897 22.038238000569766 2.332062540265744 0 0 0
2452 1 23.479122845275512 22.00580655027767 2.1644912200444413 0 0 0
2562 1 24.986714339655276 38.18421466285984 4.673562846584024 0 0 0
2740 1 26.388503621090894 22.16425723441287 2.3842191154602315 0 0 0
1587 2 16.192325934190446 24.49049489578272 2.3984482926554707 0 0 0
1693 1 14.789686311221956 35.588083059565285 -0.027182740612097727 0 0 0
1875 1 19.00099658069135 24.54339632145338 2.1530633570732416 0 0 0
1912 1 17.54600265292362 27.111927142945646 2.350386108238801 0 0 0
2741 1 26.247988509594705 20.31621219713001 4.700936382823817 0 0 0
1945 1 17.610343719243666 30.38498289201333 0.03834155737135991 0 0 0
2163 1 22.10846398637385 24.577279475040545 2.259240938761042 0 0 0
2451 1 24.87330690593051 24.47350050668955 2.376087453157736 0 0 0
2776 1 26.49097840815846 27.031210113687333 2.376437032132181 0 0 0
2564 1 23.506486466411534 37.28911124754237 6.9326239832797665 0 0 0
1624 1 14.701329830218254 27.052799143154946 2.2400039764257422 0 0 0
1623 2 16.094179596385242 29.504895226852945 2.3724216416392143 0 0 0
2597 1 26.433914893606207 40.563425246636484 4.55833607528873 0 -1 0
2200 1 20.4963810814921 27.21869324235456 2.2908211223136847 0 0 0
1911 1 19.125652215105 29.557692387251183 2.3082226338346192 0 0 0
2488 1 23.354573686671607 27.064741768527973 2.2640009654547226 0 0 0
2199 2 22.048781626224702 29.62681249786529 2.3370765328582994 0 0 0
1589 1 14.77287719143318 20.3420280640058 4.68722547259777 0 0 0
2487 1 24.9168493510008 29.73029745134041 2.37392925910637 0 0 0
1660 1 14.788433974176417 32.194318805072434 2.1012846164396186 0 0 0
2274 1 21.93516869938633 38.09375020051651 4.693615097371331 0 0 0
1910 2 19.06617747801974 27.80186150954391 0.11906476094362328 0 0 0
1948 1 17.59246735451979 32.064483363672835 2.2240476898383728 0 0 0
1874 2 18.998686631374618 22.70576403625932 0.05151500108518707 0 0 0
2236 1 20.48741324448251 32.13909812471771 2.3566995132985404 0 0 0
2524 1 23.290978614225537 32.250342871844985 2.4808089658015287 0 0 0
2852 1 26.376210710715448 37.3255480425859 7.025347334752688 0 0 0
2812 1 26.309767638341878 32.10508992749773 2.37165226357478 0 0 0
1659 1 16.199301672119933 34.57677333011526 2.255567549621357 0 0 0
1987 1 18.83610654849027 39.66690141789229 7.070766816136673 0 0 0
1947 1 19.183523830682887 34.66056143916228 2.3625224403320417 0 0 0
2272 1 20.472146674910803 37.17831067499813 2.330046528556083 0 0 0
2275 2 21.827228360231864 39.69727694885934 6.920341371301755 0 0 0
2235 1 22.00505734883696 34.765947254354764 2.3856102805597175 0 0 0
2560 1 23.495624455777826 37.360221492777846 2.3162058524890647 0 0 0
2523 1 24.839153409340927 34.62272665347214 2.454433288031773 0 0 0
2848 1 26.331126109228133 37.24999941403319 2.3332770177972075 0 0 0
1986 1 19.04632726175751 37.97564315734206 4.626472908610714 0 0 0
1696 1 14.806721776664201 37.382345082891455 2.299756933139751 0 0 0
1695 1 16.132119522414342 39.81281287512343 2.291155708619246 0 0 0
2527 1 24.9362011560599 34.72641035538762 7.128444267540444 0 0 0
1984 1 17.623271704159926 37.25216953097999 2.1259223560995686 0 0 0
1983 1 19.12951069847454 39.75043558917441 2.338633131978763 0 0 0
2271 1 21.878711534948273 39.755794260864384 2.318461990785975 0 0 0
2563 1 24.736400697346838 39.888545188434314 7.019293385671116 0 0 0
1699 1 16.13783066630943 39.80102645408344 6.963586888354907 0 0 0
2559 1 24.761954656277737 39.84819174842452 2.324873635448221 0 0 0
1698 1 16.132097312468286 38.08055893153513 4.542147404373718 0 0 0
1590 1 16.222039194414553 22.77072664172736 4.642483590086128 0 0 0
1592 1 14.623196415901546 21.996153902222332 7.138464326020895 0 0 0
2849 1 26.552863517167932 35.57766652061704 4.645696780933833 0 0 0
1878 1 19.094932572076356 22.875552834900645 4.697691659286277 0 0 0
1880 1 17.621595119799036 21.977493964220738 6.901571241282955 0 0 0
2168 1 20.50617094172193 22.00051778456062 7.100836546944063 0 0 0
2166 1 22.0386981738813 22.906641994028334 4.656661343271637 0 0 0
2456 1 23.47338414015671 22.020544571015918 6.909391956491992 0 0 0
2454 1 24.97293047750168 22.953257516063626 4.824677917431085 0 0 0
2744 1 26.469165444462924 22.06743823943086 7.193236838874903 0 0 0
1591 1 16.24293057232754 24.395184745631802 6.976398466161078 0 0 0
1625 1 14.718055281861785 25.264662717839244 4.692878182310045 0 0 0
1879 1 18.877139469791093 24.640581847499952 6.9302937566423175 0 0 0
1913 1 17.66949241595257 25.30571839690347 4.499146898584232 0 0 0
1916 1 17.52029388174359 27.078316823589468 6.892485418301972 0 0 0
2201 1 20.591064323791002 25.449353231997968 4.715652219010557 0 0 0
2167 1 21.999692067151816 24.510597591219767 6.996280825694084 0 0 0
2489 2 23.635095431674987 25.398787540656585 4.694548303204557 0 0 0
2492 1 23.418956445446376 26.97215874379972 7.0416698187254925 0 0 0
2455 2 24.845354744334365 24.696802575030976 7.159143637454334 0 0 0
2777 1 26.311403538844484 25.344589327951113 4.667150237681297 0 0 0
2780 1 26.403660879049998 27.036260986712367 7.034050473902148 0 0 0
1628 2 14.660276696202532 27.029697635062455 6.999676251985377 0 0 0
1626 1 16.02123315367995 28.02084489412481 4.690151244326183 0 0 0
1627 1 16.030840132964034 29.691423750627045 7.006643712876237 0 0 0
1914 1 19.17771909758721 27.842493489709636 4.8019593884475364 0 0 0
1915 1 18.94080098059574 29.7242546168198 6.988762872594995 0 0 0
2204 2 20.582889944311304 27.074389712341112 7.09026013631571 0 0 0
2202 1 22.00525916559091 28.05753596418385 4.662085115791185 0 0 0
2203 1 21.928229706136758 29.741631812526844 7.029936993888645 0 0 0
2525 1 23.411435191702324 30.521967273957802 4.634705598344439 0 0 0
2490 1 24.953501257979397 27.936464547219547 4.745043824610351 0 0 0
2491 1 24.994002659008437 29.664797126409407 7.029120991945729 0 0 0
2813 1 26.39962794793915 30.441656639057907 4.728866843039842 0 0 0
1661 1 14.775637333459336 30.566586181457776 4.5802908934454685 0 0 0
1662 1 16.10166103018841 33.030342026657344 4.623463785843656 0 0 0
1664 2 14.737072754408356 32.25153972236042 6.979447908963344 0 0 0
1949 1 17.582072906220553 30.337093303637968 4.522074565147931 0 0 0
1952 1 17.559378673943787 32.19563375960316 6.8709826606567725 0 0 0
1950 1 19.082441251662438 33.06762368903951 4.737732502385453 0 0 0
2240 2 20.58508771274134 32.27516462603414 7.001400296656976 0 0 0
2237 1 20.383538937733878 30.461208949181742 4.82677627395174 0 0 0
2238 1 21.818342925013955 33.079794142985016 4.750079147730941 0 0 0
2528 1 23.427231993998415 32.28692070233352 7.128559159957522 0 0 0
2816 1 26.527240680364102 32.072203743996646 7.018850090007563 0 0 0
2526 1 24.985223052894895 33.055840764641815 4.703460349607577 0 0 0
1700 1 14.6334368464315 37.15669287821953 6.755949190596179 0 0 0
1697 1 14.49968052036892 35.59704739308414 4.489971792630092 0 0 0
1663 1 16.039242094430147 34.73190396398623 7.030909883337235 0 0 0
1988 2 17.530096141967192 37.2818358309069 6.918639207526489 0 0 0
1985 1 17.470222585827084 35.56425825619591 4.583051816742482 0 0 0
2276 1 20.355604421622534 37.33128722556466 6.936878330322551 0 0 0
1951 1 19.108527875820414 34.88996692816444 6.95874319417677 0 0 0
2273 2 20.543701514380164 35.56214301519403 4.654978091895034 0 0 0
2561 1 23.426467535539416 35.62005588592786 4.676007329882759 0 0 0
2239 1 21.89882930406586 34.865494190476404 7.029977330107555 0 0 0
1622 1 16.080975147180794 27.90481157150508 0.011057650149855963 0 0 0
1621 1 14.741912370499865 25.254548177822503 0.06590701423823693 0 0 0
2269 1 20.44985237029289 35.42135979237089 0.0035269120913692734 0 0 0
1946 1 18.984010275674237 32.91003470810945 0.04300334965283566 0 0 0
2270 1 21.845780849000906 38.191569225728266 0.12443551101639577 0 0 0
2522 1 24.969462481173196 33.13006650470151 0.013062807387161882 0 0 0
2453 1 23.435800267188448 20.323953953844526 4.656103431865323 0 0 0
2233 1 20.61752081439354 30.39460907963156 0.09404598259766317 0 0 0
1585 1 14.662333424674403 20.36146503047456 0.041653010394909984 0 0 0
2773 1 26.398482949332735 25.473967235396607 0.044707419640872104 0 0 0
2737 1 26.297247223580506 20.34179400415384 0.014513059217236446 0 0 0
1657 1 14.692158254161267 30.482882298678803 0.09677286828787146 0 0 0
1982 1 19.059174942657283 38.00262207664193 -0.012942062655682207 0 0 0
1594 1 16.151051541081806 22.924102258017545 9.485408336896548 0 0 0
1596 1 14.615745808330788 22.044713881176364 11.84735481358418 0 0 0
1882 1 19.008474293217503 22.81148442877416 9.244598088503226 0 0 0
1884 1 17.587723563170105 21.945387390944898 11.634511989754222 0 0 0
2172 1 20.555650837701066 22.127940776098548 11.545467151165939 0 0 0
2170 1 22.076621845643075 22.85821246413728 9.215927838352771 0 0 0
2460 1 23.394519200971803 21.995059718610545 11.744242794090697 0 0 0
2029 1 20.613427561249303 40.57456505583132 14.054489242987383 0 -1 0
2458 1 24.9089762608186 22.86816844804123 9.351424963727206 0 0 0
2748 1 26.23869329668879 22.057158611831046 11.715818608361875 0 0 0
1595 1 16.26688224423018 24.51309920441862 11.725217756975532 0 0 0
1629 1 14.746202442223415 25.393757826104544 9.387158921251022 0 0 0
1632 1 14.569905453658095 26.997145216543107 11.683613413251729 0 0 0
1883 1 19.025893776518043 24.44638634522645 11.753985027581065 0 0 0
1917 2 17.499858808251194 25.33692513996449 9.31759706703764 0 0 0
1920 1 17.63518385959138 26.999045223648785 11.612192466842043 0 0 0
2205 1 20.417917755740365 25.381796270010124 9.327572902541622 0 0 0
2171 1 21.868448814190486 24.496165647115276 11.868560392324781 0 0 0
2493 1 23.253809892920376 25.33869296026163 9.479349654095262 0 0 0
2496 1 23.425718330402546 27.077509914483997 11.734361321999698 0 0 0
2459 1 24.807544099383744 24.570953063004957 11.647416596141632 0 0 0
2781 1 26.3057159300517 25.426323965287985 9.333328744748787 0 0 0
1630 1 16.131748362344613 27.856014293032274 9.244561094580543 0 0 0
1631 1 16.25756938779492 29.592382598177018 11.620981690146152 0 0 0
1918 1 19.150732125753944 27.96173509154312 9.287465203986576 0 0 0
1919 1 19.094693444904422 29.505990012465602 11.662266028327446 0 0 0
2208 1 20.53418942088575 27.03281101594193 11.79989125171942 0 0 0
2206 1 22.106155765981487 27.982072940398563 9.367220744889623 0 0 0
2207 1 22.01400521951016 29.560028511426616 11.65694686258374 0 0 0
2784 2 26.30722300910721 27.125403331462365 11.667318890189044 0 0 0
2494 1 24.955737340821123 27.917830876617426 9.337345856078585 0 0 0
2495 1 25.124557592257126 29.62211367027167 11.661568206006452 0 0 0
1665 1 14.649769414271459 30.674948965565928 9.215510250919912 0 0 0
1666 1 16.21233197133999 33.07732350721426 9.317335565704234 0 0 0
1668 1 14.72861729268323 32.11847505027411 11.723849665590057 0 0 0
1953 2 17.63151309166419 30.50267736920574 9.359863028766007 0 0 0
2241 1 20.47061804536878 30.473909521809116 9.229803331301653 0 0 0
1954 1 19.13559232540647 32.99024030651393 9.156736204520831 0 0 0
1956 1 17.729887355079693 32.159781251369836 11.608878341897883 0 0 0
2244 1 20.533347218721737 32.18137643830203 11.597238198802883 0 0 0
2529 1 23.581766302962475 30.46451386411746 9.332507311959091 0 0 0
2242 1 21.94109726705074 33.18357807117972 9.223846949747642 0 0 0
2532 1 23.38693722851969 31.97740669454185 11.700999294466847 0 0 0
2817 2 26.50674700197604 30.4717014111792 9.443567626296879 0 0 0
2530 1 24.959319374505395 32.834656170912915 9.405687295951811 0 0 0
2820 1 26.572636616585804 32.21201898588048 11.655091897940826 0 0 0
1667 1 15.998376884378484 34.73406911379742 11.59864628097063 0 0 0
1701 2 14.615947723388015 35.550018267090174 9.246392867784637 0 0 0
1955 1 19.116452390469334 34.68788565607654 11.51739933187398 0 0 0
1989 1 17.612855566788827 35.598288580339435 9.243325830365643 0 0 0
2277 2 20.569574121129865 35.56474812099679 9.327412050975859 0 0 0
1992 1 17.474764967206898 37.31503761876682 11.636674783453316 0 0 0
2243 1 21.98352041891371 34.67756229395895 11.548471029345052 0 0 0
2565 1 23.4185232151331 35.584267648652904 9.414430389245107 0 0 0
2568 1 23.46041609337488 37.280739369449314 11.743053069095392 0 0 0
2531 1 25.024260671687752 34.59110680722535 11.749005052060177 0 0 0
2853 1 26.47092345568884 35.504925446724926 9.447470186279126 0 0 0
2856 1 26.342961451594274 37.375761482893445 11.69830045220061 0 0 0
1704 1 14.612619797127955 37.25436855750296 11.405126568714948 0 0 0
1702 1 16.076168290327356 38.02312639390673 9.21170646214726 0 0 0
1703 1 16.10041793660894 39.82015247655851 11.701938223394272 0 0 0
1990 1 18.98628797263871 38.226370178103295 9.374379659793535 0 0 0
1991 1 19.031810936430105 39.88137200906145 11.717649579279952 0 0 0
2280 1 20.4869815095291 37.20170049511116 11.634350125568595 0 0 0
2278 1 22.03474010771211 38.11075563364485 9.319027002660242 0 0 0
2279 1 21.884789371838718 39.70907042822591 11.725872799010531 0 0 0
2282 2 21.960450469485703 37.96914792379958 13.875904554985318 0 0 0
2570 1 24.99178683137116 38.16973591819428 14.020296634535784 0 0 0
2566 1 24.96310000159266 38.227524415734955 9.427202073947996 0 0 0
2567 2 24.824920396879513 39.87881875426708 11.643068916246754 0 0 0
2572 1 23.4610762441961 37.068739823790025 16.265900224910972 0 0 0
1598 1 16.161192648570054 22.82671504557215 14.042265361559288 0 0 0
1600 1 14.671811829953754 21.907864780510085 16.370367070584994 0 0 0
1886 1 19.057052617862954 22.700489237868265 13.963205811012735 0 0 0
1888 1 17.451584844018797 22.04937942278394 16.359905008030342 0 0 0
2176 1 20.488473623991137 22.06697776065065 16.34453535870261 0 0 0
2174 1 21.86616001536913 22.78861322033478 14.13123976696222 0 0 0
2464 1 23.500214241210912 21.871321219534508 16.36263568648152 0 0 0
2571 1 25.012364097970593 39.749757375780135 16.35560492896163 0 0 0
2462 1 24.817878275437007 22.904100020088297 13.981560933530902 0 0 0
2752 1 26.332896450453916 21.950757425364266 16.488268075232693 0 0 0
2283 1 22.09433019061241 39.719908900971426 16.245771084029595 0 0 0
1599 1 16.04276724459203 24.44665499502962 16.359905147089258 0 0 0
1633 1 14.651416643712906 25.32607301210742 14.029465419533457 0 0 0
1887 2 18.85414713908557 24.44623087105835 16.332176442892045 0 0 0
1921 1 17.523113206321472 25.39453293853473 14.02585358327416 0 0 0
2209 1 20.50962139424313 25.253179187457565 14.169755402223055 0 0 0
2175 1 22.021585568445246 24.483800363864663 16.506585722153947 0 0 0
2497 1 23.491668596398483 25.4321210007856 14.153507709388997 0 0 0
2463 1 24.89094275438844 24.46848326553058 16.43645154749201 0 0 0
2785 1 26.388114714842786 25.434730617167144 14.083562802795214 0 0 0
1636 1 14.570503080758053 26.957295947927403 16.26269302669461 0 0 0
1634 1 16.134235023520873 27.88674242093465 14.008449445858018 0 0 0
1635 1 15.992513584498548 29.465236735989343 16.34723905754576 0 0 0
1924 1 17.596910937536492 26.989632908919205 16.461442145562252 0 0 0
2212 1 20.50824948978898 26.897279712500186 16.357117311399396 0 0 0
1922 1 19.195717978901506 27.88630569902677 14.080882049496758 0 0 0
1923 1 19.070483877838008 29.470837117867408 16.422106742212343 0 0 0
1957 1 17.539402092057383 30.378287826047064 14.06618273857928 0 0 0
2245 1 20.521184118064884 30.552908376334965 14.116785306101105 0 0 0
2500 1 23.505117758516622 27.13603760132259 16.324264935183027 0 0 0
2210 1 21.967447237713593 27.94127989042302 13.906005392060498 0 0 0
2211 1 22.08490038327623 29.555635018063203 16.34991162285275 0 0 0
2533 1 23.53964495931916 30.401897958734608 14.114745173151839 0 0 0
2788 1 26.52804716482671 27.127213966069498 16.349238584110697 0 0 0
2498 1 25.08301481767159 27.921269690573673 13.949200215196331 0 0 0
2499 2 24.907043538600973 29.707311234770643 16.31557577035713 0 0 0
1669 1 14.687998626955507 30.59279189990265 13.944329427682552 0 0 0
1670 1 16.083269301360353 33.181676725696796 13.96937067708541 0 0 0
1672 1 14.639529284613511 32.12453131539866 16.267437077964125 0 0 0
1958 1 18.977871052841664 32.950872325604294 14.01453711098611 0 0 0
1960 1 17.5584955171601 32.101367907653504 16.336538970217017 0 0 0
2248 1 20.415710786202073 32.11452941008749 16.375425007059892 0 0 0
2246 1 21.964572825872303 32.97734376974502 13.98122963569539 0 0 0
2536 1 23.369488835647402 32.10611083891002 16.368377138369173 0 0 0
2821 1 26.45939880427972 30.442350289713282 14.112252507393281 0 0 0
2534 1 24.887641458807295 32.872111636434084 14.093584556256749 0 0 0
2824 1 26.47712799581997 32.310885817756855 16.44534701023419 0 0 0
1671 1 16.01813344444428 34.646946029618135 16.542933452593175 0 0 0
1705 1 14.62895189676566 35.50092618480614 13.795332897439271 0 0 0
1708 1 14.506845547021879 37.23067884736268 16.38935612794615 0 0 0
1959 1 18.765399491963294 34.7220478493592 16.202560008767666 0 0 0
1993 1 17.49407896483857 35.61980897483397 14.00846945672037 0 0 0
2247 1 21.98803838845794 34.58627520480065 16.308909117457556 0 0 0
2281 1 20.3978137609373 35.58020838114057 13.987264396153655 0 0 0
2569 1 23.36607325449362 35.56279534505663 13.92480868973445 0 0 0
2860 2 26.408497431575743 37.30961414856617 16.36476847785753 0 0 0
2857 1 26.527599818120333 35.675506570210146 13.986518566901962 0 0 0
2535 1 24.99644417850286 34.715971497437145 16.303603565549814 0 0 0
1706 1 16.064287988476654 37.96873433192916 13.969719713345778 0 0 0
1707 1 16.015958414603308 39.83592999168381 16.348875277674566 0 0 0
1995 1 18.99825558899965 39.84503082936365 16.399660581336015 0 0 0
1994 1 19.0632013480029 38.14978989103953 14.100044877920878 0 0 0
1996 1 17.380255617725712 37.27196598278813 16.318876082793654 0 0 0
1593 1 14.631698729470152 20.369698639379887 9.388753756258318 0 0 0
2284 1 20.625240339209032 37.13892853649369 16.528253823830557 0 0 0
2749 1 26.2933751934554 20.350208719512253 14.180601870252994 0 0 0
2025 1 20.43876474346239 40.59602160460663 9.340072766875535 0 -1 0
1453 2 14.624708371813869 40.41693086954659 13.992443797595874 0 -1 0
1449 2 14.716012221676968 40.56091454010852 9.324464592432767 0 -1 0
1885 2 17.55785182138555 20.361809606376042 14.014032379124663 0 0 0
1602 2 16.13435103781693 22.89646725769618 18.78939970618956 0 0 0
1604 1 14.66834629137165 22.11816171093543 21.17485637311436 0 0 0
1889 1 17.587318740515467 20.39871067795344 18.771201852782674 0 0 0
1890 1 18.819291615125806 22.999724779321383 18.840028022722468 0 0 0
1714 1 16.197429515294605 38.23754868833133 23.438141085892042 0 0 0
2180 1 20.50589924337998 22.200395354722772 20.892996651674096 0 0 0
2178 1 21.91928013729426 22.776433790443296 18.74409147162809 0 0 0
2468 1 23.450393931485145 22.069605585216067 21.11031175121531 0 0 0
1711 1 16.284568486122247 39.768025026510344 21.048167661607938 0 0 0
1999 1 19.138428448435803 39.69707466154927 21.105110122714564 0 0 0
2466 1 24.830244680523233 22.810038440175084 18.716033526749285 0 0 0
1637 1 14.518600952594536 25.266866735820248 18.775417593036323 0 0 0
1603 1 16.098332825902155 24.596327056834618 21.10543988451479 0 0 0
1640 1 14.486466334845128 27.078047919226474 21.038938548092005 0 0 0
1925 1 17.521268150561006 25.488796044475404 18.649747979233084 0 0 0
2213 1 20.43132204088352 25.202049094207304 18.665173786890215 0 0 0
2216 1 20.55358040893184 27.12360920152549 21.00563814041957 0 0 0
1891 1 19.008260566833172 24.643749535903893 21.195212346845796 0 0 0
2501 1 23.51780483804814 25.360788621046314 18.80165377347206 0 0 0
2179 1 22.035472748055515 24.574291881862596 21.210456567795852 0 0 0
2789 1 26.298270288986703 25.492737599273223 18.66091351023674 0 0 0
2467 1 24.985204127207496 24.527165454829575 21.056357067947786 0 0 0
1638 2 16.046321914792664 27.823336415893518 18.645790811593077 0 0 0
1926 1 18.92145034194354 27.94946161959197 18.70462944147301 0 0 0
2249 1 20.584394499336014 30.39178147353227 18.788987942224143 0 0 0
1928 1 17.456512752014984 27.042096321848376 21.00011101175223 0 0 0
2214 1 22.031114722949514 27.846103267903526 18.706464626503287 0 0 0
2215 2 21.951406644005026 29.591557671393574 21.042174790017565 0 0 0
2537 1 23.328420655991838 30.32217261670628 18.77425399973545 0 0 0
2504 1 23.42333275963524 27.20696235336789 21.040016378495725 0 0 0
2502 1 24.9877389519407 28.0034185291213 18.617021934417323 0 0 0
2825 1 26.48272213934042 30.466921898159466 18.796656273891262 0 0 0
2503 1 24.850081242158364 29.595766158237314 21.03281864570174 0 0 0
1673 1 14.55842204411941 30.33009891100889 18.767686290113662 0 0 0
1674 1 16.019089564577868 32.84418495228589 18.60640284559999 0 0 0
1961 1 17.40879135033972 30.337881571332552 18.515887602847375 0 0 0
1962 1 19.051856980052086 32.97469243948164 18.75893608096649 0 0 0
1964 1 17.549107375000837 32.08670086555375 20.86062379769774 0 0 0
2252 1 20.507712682668945 32.18649199826274 21.163464783331015 0 0 0
2250 1 21.907510354130356 32.977199240691526 18.64318954617622 0 0 0
2538 1 24.955025298944875 32.912357165316465 18.784464351420144 0 0 0
1709 2 14.594883338300537 35.545380516953095 18.803940378911093 0 0 0
1997 1 17.576462297580825 35.52128141704012 18.701774685808374 0 0 0
1963 1 18.96257763109403 34.71461874469477 21.005673473963363 0 0 0
2285 1 20.541580603623736 35.31627050894406 18.582882969430294 0 0 0
2573 1 23.61299837949699 35.322830128707004 18.781790565167395 0 0 0
2251 1 22.007704562061374 34.6943784079225 21.08105296341193 0 0 0
2288 1 20.487910859386258 37.18774851972541 20.99191558653615 0 0 0
2861 1 26.364605729889313 35.54893229214406 18.664623023279045 0 0 0
1710 2 16.172343350195515 38.079646354500284 18.62066283052267 0 0 0
1457 1 14.693449845259783 40.424074297861935 18.798579898035044 0 -1 0
1998 1 18.968243017171687 38.09863823011363 18.70449311943581 0 0 0
1605 1 14.559930608699958 20.372067092589166 23.554199664012497 0 0 0
2286 1 22.08707482699034 38.07450736564508 18.69623975612757 0 0 0
2000 1 17.505904981288488 37.21995428232986 20.99377950276431 0 0 0
2574 1 25.024248199389735 38.03128592422048 18.763921052848442 0 0 0
1606 1 16.003280062901226 22.926631978371745 23.469693501993465 0 0 0
2287 1 22.151345993609493 39.80955953106 21.00722300729497 0 0 0
1892 1 17.53237049278131 21.862562568853342 21.150402583613158 0 0 0
1894 1 18.941153189589954 22.804112323391074 23.407877079188744 0 0 0
2575 1 25.0400484909306 39.74154292294983 21.085529301142383 0 0 0
2578 1 24.900737367114285 37.86507194189296 23.536660041306174 0 0 0
2182 1 22.12049693626702 22.779357386554324 23.403210662921683 0 0 0
2290 1 21.973150084851184 37.96194206314027 23.342904155195562 0 0 0
2756 1 26.42470995899237 22.103156536142194 21.133542355556994 0 0 0
2470 1 24.85924105529128 22.874858870395503 23.38639648352323 0 0 0
2002 2 19.078494730212245 38.01434821485045 23.440128569172142 0 0 0
1641 1 14.488021622372385 25.39313733627094 23.38658618961095 0 0 0
1929 1 17.55194140893466 25.314461542801507 23.50155015123108 0 0 0
2217 1 20.425804113048777 25.415767731263795 23.380680072374243 0 0 0
2505 1 23.412453657996057 25.34833939680831 23.44316209457948 0 0 0
2793 1 26.442072700583104 25.273796264816184 23.495178691176736 0 0 0
1639 1 16.199602701792433 29.600385390323414 20.890450465180884 0 0 0
1642 1 16.037431652674474 27.91141349020346 23.376170308427195 0 0 0
1677 1 14.64787034716226 30.44076790377358 23.42197420650093 0 0 0
1927 1 19.18894801061746 29.54458396804333 20.96813550876624 0 0 0
1930 1 18.902381333394786 27.992537761025854 23.422556702293658 0 0 0
1965 1 17.6921742262188 30.42767932793853 23.454171688079025 0 0 0
2253 1 20.583907344076007 30.44150612814343 23.408965003717412 0 0 0
2218 1 21.897183478870197 27.970089469515504 23.31481775608955 0 0 0
2541 1 23.386112759805044 30.468190396803454 23.258006252858614 0 0 0
2792 1 26.418395160290896 27.14882433586312 21.15491019348345 0 0 0
2506 1 24.740716706950373 27.872657602511424 23.452946941023935 0 0 0
1676 2 14.629235720253902 32.10873031203891 20.97653542091954 0 0 0
1678 1 16.069272959690565 32.93591345379173 23.375085548949276 0 0 0
1966 1 19.071830779045133 32.976656998554475 23.370081224489308 0 0 0
2540 1 23.31675209486384 32.20220086590814 21.084602621896558 0 0 0
2254 2 21.82928214537521 33.0276569205946 23.43329491818206 0 0 0
2828 2 26.25801393694809 32.118299245095 21.197934797914364 0 0 0
2829 1 26.393839700483383 30.30904058296638 23.418850473470503 0 0 0
2542 1 24.77997891287548 32.931598169569845 23.456017840649707 0 0 0
1712 1 14.632735671545587 37.30252787704958 20.94899641209752 0 0 0
1675 1 16.012761143807243 34.65861457770061 21.0431290996512 0 0 0
1713 1 14.618564019681346 35.634564745535485 23.550402898395593 0 0 0
2001 1 17.63995698335801 35.63554992487483 23.363671155274996 0 0 0
2289 1 20.53245998382338 35.5062398505635 23.39402147881248 0 0 0
2576 1 23.448268312888022 37.195430635875695 20.94426082243378 0 0 0
2577 1 23.41022992544775 35.43839792457373 23.41656792810883 0 0 0
2864 2 26.40773272955356 37.18165591169396 21.051704254586532 0 0 0
2539 1 24.948603411649778 34.741494352568196 21.0909560802951 0 0 0
2865 2 26.429645581723985 35.400226187498006 23.451152772414318 0 0 0
2321 1 23.61195658155243 40.58649482193816 18.683792788177982 0 -1 0
1601 1 14.855064444756247 20.355792708585703 18.832146357462868 0 0 0
2465 1 23.461104423403565 20.316438474802982 18.78503727320567 0 0 0
2325 2 23.619567245098615 40.536847256746626 23.433320359066 0 -1 0
2033 1 20.72398868243832 40.52787950702978 18.830471846964535 0 -1 0
2613 1 26.349378797834667 40.50974097477558 23.349504751617022 0 -1 0
2177 2 20.44745166759992 20.331016056853237 18.750370774492463 0 0 0
2753 1 26.372196117019236 20.44832753409614 18.684989868621056 0 0 0
2037 1 20.726351974596632 40.55583233010715 23.34641955644365 0 -1 0
1745 1 17.551668314361606 40.472986232903935 18.62532097588044 0 -1 0
1608 1 14.576221789899835 22.107460532790377 25.74026530713924 0 0 0
1610 2 16.16683885726886 22.88085637853586 28.056267253684606 0 0 0
1896 1 17.441760981789862 22.104496995753156 25.637330056487325 0 0 0
1898 1 19.098704984288336 22.76439115508185 28.17479456964208 0 0 0
2184 1 20.567230107927017 22.13591286698788 25.721437339036235 0 0 0
2583 1 24.829376379431206 39.639444752817674 30.426785612174474 0 0 0
2186 1 22.04928425076431 22.713524485915 28.072420684863502 0 0 0
2472 1 23.418382684102347 21.969576630526497 25.770790497588457 0 0 0
2474 1 25.031379037696556 22.923185015578163 27.94472403928239 0 0 0
2760 1 26.456911747317427 21.996326141243145 25.780120018220178 0 0 0
1607 1 16.208707607984074 24.589080521957133 25.864273311173434 0 0 0
1645 1 14.53634453528142 25.288630838150894 27.950695376138942 0 0 0
1644 2 14.61129782379355 27.055855444100263 25.781917854218566 0 0 0
1895 2 18.990695636334785 24.4467777272143 25.835452158841356 0 0 0
1933 1 17.643805463942765 25.300128390187957 28.123238167368946 0 0 0
1932 1 17.482117577489323 27.03655078322059 25.7596434245797 0 0 0
2221 1 20.58137625853119 25.473830641833892 28.005394557931584 0 0 0
2183 1 21.934418803825604 24.51672984681792 25.70717586361809 0 0 0
2509 1 23.549864029743976 25.39233757023484 28.070800731866527 0 0 0
2508 1 23.32461385069027 27.071862554948474 25.670890583147802 0 0 0
2471 1 24.937787285164557 24.558215804049087 25.768109673432242 0 0 0
2797 2 26.457645665947933 25.36288047414561 28.187307266247444 0 0 0
2796 1 26.23833169618562 26.947814212730837 25.845235307002525 0 0 0
1646 1 16.030436051279345 27.840336542191373 28.045091926466153 0 0 0
1643 1 16.108586726189436 29.576016917039826 25.85463721649553 0 0 0
1681 2 14.657451500278945 30.54825603546378 27.99498375353633 0 0 0
1934 1 18.973756602929402 27.95462527726339 28.20518962550431 0 0 0
1931 1 18.99612961579014 29.691827920170212 25.839322219123634 0 0 0
2257 1 20.579493532881045 30.428521781012208 28.125951454216075 0 0 0
1969 1 17.535346100268455 30.482178933181583 28.192262131784197 0 0 0
2220 1 20.36262583957236 27.002794937021285 25.802218119811453 0 0 0
2222 1 21.910079302861345 27.82023905803512 28.105455283275894 0 0 0
2219 1 21.814374017118553 29.628195519694156 25.746289632742272 0 0 0
2545 2 23.406631533681097 30.330819773961995 28.17920928388779 0 0 0
2510 1 24.858391600569583 27.83366446319323 28.23629028170172 0 0 0
2507 1 24.763295456699264 29.569091082987327 25.81126584740587 0 0 0
1680 1 14.606368476415227 32.21241349550749 25.681847990553628 0 0 0
1682 1 16.086357101480875 32.99226844960164 28.0857005573616 0 0 0
1968 1 17.494937308630142 32.1532032953668 25.77204680831096 0 0 0
1970 1 19.135559609549233 33.00658866671124 28.1343479231516 0 0 0
2256 1 20.3512842332434 32.2127641395325 25.702710851089837 0 0 0
2258 1 21.974737457916582 32.940050374527466 28.053088730654213 0 0 0
2544 1 23.33759236010513 32.275256581171554 25.755804861569906 0 0 0
2833 1 26.204300991612335 30.47955456039678 28.054332332130496 0 0 0
2546 2 25.013846759191154 32.923884933344546 28.14912071247521 0 0 0
2832 1 26.260759019498774 32.07087907645511 25.805885775614033 0 0 0
1679 1 16.190615374702933 34.66572856577299 25.817719905587037 0 0 0
1717 1 14.636965348987337 35.57807475345912 28.1979973092793 0 0 0
1967 1 18.935827084784496 34.71656291169351 25.663220119931015 0 0 0
2005 1 17.646216877984404 35.53855706983995 28.248165449654262 0 0 0
2293 1 20.463250286845447 35.52111445136357 28.11455982831764 0 0 0
2255 1 21.908629531220193 34.730755633529235 25.750278921545373 0 0 0
2581 1 23.520084695721266 35.410286009336794 28.04024315318273 0 0 0
2580 2 23.483958295439674 37.14037664414629 25.8220218645754 0 0 0
2292 1 20.4944647622308 37.229226661526184 25.874546898693072 0 0 0
2543 1 25.032724127652624 34.609873366697315 25.73836964909858 0 0 0
2869 1 26.430858890003414 35.47089730367438 28.07399324844281 0 0 0
2868 1 26.267353092592955 37.134549960146984 25.70890540140424 0 0 0
1716 1 14.804890359345544 37.26746425372158 25.84896287018569 0 0 0
1715 1 16.132931159469532 39.885683330972654 25.848941999714786 0 0 0
1718 1 16.251592214792925 38.15085885996026 28.196952166296626 0 0 0
2004 1 17.653310980651657 37.29117117147596 25.70450368635164 0 0 0
2003 1 19.1070128469938 39.81467432071341 25.78923291166287 0 0 0
2006 1 19.071759761141656 38.179327868926826 28.091999149223827 0 0 0
2586 1 24.907021212558938 38.06665919006592 32.673125947505795 0 0 0
2291 1 22.086760890340056 39.71795994059804 25.74654045199738 0 0 0
2294 1 21.86959977051479 38.04009044730976 28.219033798620586 0 0 0
2579 1 24.868692506617098 39.53157172181526 25.744901588208663 0 0 0
2582 1 24.790919269419668 37.923006721778044 28.17057496295326 0 0 0
1612 1 14.657087664676325 22.131320464944963 30.415030128000662 0 0 0
1614 1 16.08133830253535 22.784966167408047 32.762996051824345 0 0 0
2477 1 23.501284363571454 20.436592169699928 32.81596660969498 0 0 0
2295 1 21.87762036605242 39.76704785950307 30.558539797029184 0 0 0
1900 1 17.535913155463437 21.930487312899274 30.481656537756358 0 0 0
1902 1 18.994860761258895 22.725665009794653 32.72750204815141 0 0 0
1609 1 14.656365016741626 20.5482170530169 28.09570611197067 0 0 0
2188 2 20.576187451747256 22.05537183656726 30.42594330014902 0 0 0
2190 1 22.00678693373744 23.005288645328754 32.74083267688496 0 0 0
2476 1 23.57398020174932 21.86437090552764 30.39225046330518 0 0 0
2478 1 25.058841124984045 23.011012037076576 32.94149969710068 0 0 0
2764 1 26.46130986631324 21.968198870044922 30.599147034002517 0 0 0
1611 1 16.19926877053368 24.41453505366475 30.40510155200062 0 0 0
1649 1 14.478182979629718 25.365479493941585 32.63653065039482 0 0 0
1648 1 14.524162521905277 26.989089123624414 30.36500066078464 0 0 0
1899 1 19.1056871345091 24.457779540223566 30.405962244829208 0 0 0
1937 1 17.567136555200868 25.26395062742254 32.8003727912664 0 0 0
2224 1 20.48081693849482 27.047271973937214 30.494639172340207 0 0 0
2225 1 20.662049728173546 25.46610188107324 32.74140822402798 0 0 0
2187 1 22.07830551065487 24.425788171024717 30.33024736187298 0 0 0
2513 1 23.5197792969899 25.38788124952744 33.053387782456994 0 0 0
2512 1 23.40203953577861 26.845910846777162 30.50618033048103 0 0 0
2475 1 24.87675470581076 24.584905647687282 30.434630542778198 0 0 0
2801 1 26.278926282402413 25.417822635554675 32.94761564321486 0 0 0
2800 1 26.363025429703672 27.147657013305377 30.43025406522442 0 0 0
1650 1 16.135507466396632 27.78901296350288 32.78903220477751 0 0 0
1647 1 16.064751363258484 29.509796551037297 30.43814049527185 0 0 0
1936 1 17.477506789071047 27.069131375350718 30.522274323268668 0 0 0
1938 1 18.951281920779312 27.892183019228444 32.757238175536315 0 0 0
1935 2 19.168812296399494 29.602062844959228 30.457809371682465 0 0 0
2261 1 20.45097683959802 30.386909612959197 32.737457851735314 0 0 0
2226 1 21.971540783032598 28.014713813256865 32.88432470597283 0 0 0
2223 1 22.043582175201273 29.580825622568373 30.51119357279845 0 0 0
2549 1 23.409767573099632 30.325835309452916 32.94394319751373 0 0 0
2514 1 24.780985253640754 27.88345865107904 32.78495802241309 0 0 0
2511 1 24.92576149030463 29.47439616782084 30.41677519531484 0 0 0
1685 2 14.793250136903243 30.60027200918249 32.794494157927346 0 0 0
1684 1 14.643124572832262 32.252229965454404 30.394767870566007 0 0 0
1686 1 16.233046178633785 33.152403542457314 32.80973276463385 0 0 0
1973 1 17.666063485048795 30.39422011579291 32.63900929850965 0 0 0
1972 1 17.731048674833232 32.13713015725291 30.5085009850055 0 0 0
1974 2 19.118559274525857 32.9234453126232 32.90637477138321 0 0 0
2260 1 20.57923357485924 32.17120742466009 30.554964811987062 0 0 0
2262 1 22.142750539287736 32.812116926874126 32.8324773054143 0 0 0
2548 1 23.56520866936933 32.07235242475339 30.297979369955666 0 0 0
2837 1 26.355463855802224 30.443003566211058 32.74229663316051 0 0 0
2836 1 26.481068592083666 32.240218683050706 30.367351620513165 0 0 0
2550 1 24.985205408941216 32.96045053640767 32.79032909442954 0 0 0
1683 1 16.106748439084104 34.79592668256974 30.50890409005396 0 0 0
1721 1 14.65240308380719 35.6653214562455 32.697930056361756 0 0 0
1971 1 18.93189453936494 34.70867915378917 30.496561808834663 0 0 0
2009 1 17.66177990725771 35.624714773616844 32.89187471825126 0 0 0
2296 1 20.44719411311539 37.07880018011016 30.553362739084047 0 0 0
2297 1 20.525188609859065 35.324673756710794 32.85771915518575 0 0 0
2008 2 17.446718407416263 37.17367565889824 30.43832752966309 0 0 0
2259 1 22.0669708162577 34.759516037809156 30.57320380380701 0 0 0
2585 1 23.35415049819349 35.570070396298775 32.87587103952147 0 0 0
2584 2 23.35321808768986 37.178249112511985 30.465444109590667 0 0 0
2872 1 26.32452580279367 37.128431218972345 30.331980146130437 0 0 0
2547 1 24.9839708360608 34.75446391486834 30.44219772157852 0 0 0
2873 2 26.32120722784683 35.39621107102548 32.761594197868874 0 0 0
1720 1 14.643950014107745 37.3275977380321 30.43845184788813 0 0 0
1719 1 16.172085121992374 39.84366579991497 30.578385264902007 0 0 0
1722 1 16.072582617807186 38.28459023087767 32.7224602632769 0 0 0
2007 1 19.035959119101367 39.935043002300226 30.48511639946239 0 0 0
2010 1 19.067249721560085 38.203185889925365 32.94575898654482 0 0 0
2298 1 22.049945249529152 38.004079850278444 32.803052579996375 0 0 0
2189 1 20.383560697002828 20.369125194178395 32.80592094101627 0 0 0
2765 1 26.47529192270182 20.40047239343009 32.8786209603154 0 0 0
1897 1 17.505523904814325 20.418518896110793 28.098220869729378 0 0 0
2761 1 26.333752178254066 20.321971940408055 28.202056610083453 0 0 0
2329 1 23.47909615253023 40.602558997513796 28.08337459092236 0 -1 0
2617 1 26.36322305280561 40.50774889773926 28.169031675578157 0 -1 0
2333 1 23.406135385317583 40.608848660610875 32.85644087142337 0 -1 0
1616 1 14.684744688261704 22.010311660920365 35.289946272592175 0 0 0
1618 1 16.063897271576952 22.72507393942838 37.64751612072354 0 0 0
2591 1 24.70609998944874 39.66878714791663 39.7481403196425 0 0 0
1904 1 17.57627722186588 21.998783698772122 35.130928824486304 0 0 0
1906 2 18.93547417912091 22.830771530325187 37.546007062660294 0 0 0
2192 1 20.604735149662133 22.05427516074363 35.15805081531522 0 0 0
2162 1 22.02914540734345 22.799363653523056 42.16079905035828 0 0 -1
2194 1 21.86597642144436 22.904301503383664 37.52722679946096 0 0 0
2480 1 23.50904300773857 22.067834160602285 35.20045131622042 0 0 0
1694 2 16.20987991105022 38.07787585075097 42.032477193873746 0 0 -1
2482 1 25.024807597688177 22.785782590062933 37.58209924030143 0 0 0
2768 1 26.414361061679248 22.125227211342942 35.14818213692875 0 0 0
2450 1 24.874113319416473 22.813267198838748 42.176053999614695 0 0 -1
1615 1 16.081891781014463 24.43477749226214 35.22897221954048 0 0 0
1653 1 14.640676076722979 25.39120946027557 37.520983376646456 0 0 0
1652 1 14.597280019417138 26.88155331742765 35.12707570352886 0 0 0
1903 1 19.09587567587371 24.53947105821197 35.14746247205137 0 0 0
1941 1 17.475182478183584 25.279657706494298 37.505066155379254 0 0 0
1940 2 17.57119023763221 27.0370478453666 35.06849206394769 0 0 0
2229 1 20.436715352002498 25.287659445846128 37.462917394366045 0 0 0
2228 1 20.52617060827343 27.101572421151445 35.20027633398823 0 0 0
2191 2 22.021405179997036 24.583664463095925 35.310839321742336 0 0 0
2517 1 23.38185520194724 25.32211090166795 37.66893530738976 0 0 0
2479 1 24.77977521313255 24.5077073285057 35.489908960251256 0 0 0
2805 2 26.56196930317082 25.47379101999588 37.65250503479952 0 0 0
2804 1 26.276478986347893 27.0532921117229 35.15961395998656 0 0 0
1654 1 16.10179700053823 27.865081411731627 37.40372412683155 0 0 0
1651 1 16.184955247678538 29.38093156966857 34.9416651307486 0 0 0
1689 1 14.664954982115217 30.44913979265662 37.49341519290516 0 0 0
1942 1 19.009144930701478 27.837728845936777 37.475019034795864 0 0 0
1939 1 18.934564531747384 29.574639256504103 35.068330351964875 0 0 0
2265 1 20.440617843902142 30.22984192899176 37.698041107992154 0 0 0
1977 1 17.585005796118995 30.35138749929571 37.464919983763025 0 0 0
2516 1 23.312874989557447 27.16294866878157 35.20667734191315 0 0 0
2230 2 21.995358364185524 27.895697617105622 37.58293102535353 0 0 0
2227 1 21.894544606013334 29.71217902610926 35.40768021851133 0 0 0
2553 1 23.486643041763546 30.388327175613874 37.52479042483107 0 0 0
2518 1 24.873707167278454 27.899774922344204 37.40270013661831 0 0 0
2515 2 24.970449905723328 29.624287949900936 35.18091360177874 0 0 0
1688 1 14.788212415458085 32.143295849499125 35.144847164990324 0 0 0
1690 2 16.06566505852359 32.844560944308064 37.486499143641254 0 0 0
1976 1 17.62640779737145 32.147494789548965 35.19664744811813 0 0 0
1978 1 19.02517226427065 32.87648884097098 37.55120459917343 0 0 0
2264 1 20.52324766546053 32.04307058062771 35.075570042776846 0 0 0
2266 1 21.97760784434886 32.849697959929564 37.47048611526493 0 0 0
2552 1 23.562832540118087 32.128146123911904 35.071131641500244 0 0 0
2841 1 26.3764859410094 30.388794087444687 37.49086149526731 0 0 0
2554 2 24.995205116649338 32.95766260474966 37.43884848347116 0 0 0
2840 1 26.32454799220084 32.18227909449499 35.09060826066356 0 0 0
1687 1 16.220110898553205 34.76780506500474 35.15451981333197 0 0 0
1725 1 14.699299885446438 35.56274886946206 37.43416732633044 0 0 0
1975 1 19.136831004871414 34.58646553642367 35.18487167372534 0 0 0
2013 1 17.669176315934216 35.504753790164614 37.64448766493496 0 0 0
2301 1 20.518088490333287 35.50775569356594 37.4507254356479 0 0 0
2012 1 17.686966290065342 37.28397824649812 35.22936184234541 0 0 0
2263 2 22.21559505029864 34.53666586399416 35.10456346452713 0 0 0
2589 1 23.276224605966714 35.4712022880789 37.641627874463126 0 0 0
2588 1 23.348530228885824 37.21938523525519 35.179658019216845 0 0 0
2551 1 24.875803443452035 34.649965795097245 35.21287642908655 0 0 0
2877 1 26.376736444896892 35.40433029965651 37.43263611211427 0 0 0
2876 1 26.294857244915463 37.23389977098021 35.160527482182786 0 0 0
1724 1 14.672772740306097 37.265379310914376 35.15995741705591 0 0 0
1723 1 15.897610105309221 39.707855790615554 35.157235216724615 0 0 0
1726 2 16.011865771770793 38.08940124205808 37.463383388921116 0 0 0
1658 2 16.22721390640198 32.99936963347453 42.13603117641475 0 0 -1
2011 1 19.080349948942757 39.79388767630131 35.163031373782715 0 0 0
2014 2 18.884827951350726 38.09630209112521 37.57076073677982 0 0 0
2300 1 20.44461215216575 37.03709493014975 35.1110378291133 0 0 0
2299 1 21.915536521281158 39.72571496979645 35.230549663941375 0 0 0
2302 1 21.91533619994399 38.165253363045196 37.61408358514613 0 0 0
1761 1 17.450096521475153 40.5706855866015 37.51661835727765 0 -1 0
2558 1 24.843555799215764 38.03744044083539 42.159880504700666 0 0 -1
2587 1 24.92958051266037 39.71463907741878 35.19240289172561 0 0 0
2590 1 24.76985132789697 38.16143870092901 37.49084936925412 0 0 0
2193 1 20.44496629111048 20.419779836348606 37.53748725377962 0 0 0
1620 1 14.544547807120717 21.882305618559407 39.776093793605696 0 0 0
1908 1 17.506039831572735 21.878575959895052 39.86967591085765 0 0 0
2196 1 20.424886546591846 22.04324121575906 39.82854840082577 0 0 0
2303 2 21.897189418651198 39.835071308102165 39.87438710072442 0 0 0
2484 1 23.52679936879257 21.841981547093823 39.77011803696027 0 0 0
2049 1 20.533231988720612 40.48657050858722 37.47084793195815 0 -1 0
2161 1 20.531107898617048 20.34181663325339 42.13930975912666 0 0 -1
2772 2 26.31780549876798 21.94264878953101 39.90034065691229 0 0 0
1619 1 16.07597750244894 24.526828479228296 40.01193799978506 0 0 0
1656 1 14.639578863041102 27.105407647330352 39.80788011667002 0 0 0
1907 1 19.003894693003563 24.440540453851902 39.88944757381206 0 0 0
2232 1 20.452218184284263 26.996656448024154 39.79120750286894 0 0 0
2195 1 22.123871305946306 24.53945498010309 39.861014560041994 0 0 0
2015 1 19.077356406306958 39.66389211714994 39.80071951393876 0 0 0
2483 1 25.014156966112242 24.46359791548573 40.00030069380328 0 0 0
1655 1 16.009751349432012 29.555574919389727 39.903517763230994 0 0 0
2016 1 17.433218046568918 37.17781676808045 39.747810225982235 0 0 0
2304 1 20.494806697744902 37.33875935873266 39.8609129844573 0 0 0
1944 1 17.606352422133668 26.98449608492706 39.835547129980995 0 0 0
1943 1 18.997536681265924 29.56120068853223 40.091545416610856 0 0 0
1727 1 16.049842288334464 39.81593083790343 39.81054906228907 0 0 0
2520 1 23.501175535470644 26.981140838513106 39.81188319838441 0 0 0
2231 1 21.92630154281838 29.545441936298594 39.78912038937982 0 0 0
2808 1 26.411976404851227 27.086226175595606 39.926621088415445 0 0 0
2519 1 24.997822053928385 29.43046999694384 39.730206321085845 0 0 0
2198 1 22.019894969240845 27.774319918790475 42.18171689664506 0 0 -1
1909 1 17.750299159498685 25.358727059296076 42.161194018998046 0 0 -1
1692 1 14.625211805960312 32.16625564438493 39.88262681873928 0 0 0
1980 1 17.585942624110363 32.13502950545785 39.94114508542643 0 0 0
2267 1 21.778680823344892 34.70657676505763 39.875952666433705 0 0 0
2556 1 23.538777960207057 32.248711214176744 39.89744000460989 0 0 0
2268 1 20.657589887962224 32.16723241247823 39.86235681220337 0 0 0
2844 1 26.36608816131912 31.973473850601863 39.74749181948536 0 0 0
2880 1 26.34557943468049 37.2274283455205 39.80886100799091 0 0 0
1728 1 14.641414769811174 37.18157709261241 39.807024220785365 0 0 0
1691 1 16.25005134839076 34.48648919435169 39.743168250850715 0 0 0
1979 2 19.037953348615282 34.63608538190313 39.87695238151882 0 0 0
2555 1 24.932537869392345 34.76537546471151 39.8075318441804 0 0 0
2592 1 23.35403410970632 37.27240308145621 39.84868729589847 0 0 0
2197 1 20.586608689251673 25.266233828102283 42.04090694733383 0 0 -1
1441 1 14.498321399726954 40.611548214251435 42.13868396780149 0 -1 -1
2234 1 22.002197575153097 33.005677699240714 42.14891227857402 0 0 -1
2521 1 23.572038926437575 30.426630221296545 42.15706011979124 0 0 -1
2845 1 26.420881328086793 35.51497589160611 42.17964306500683 0 0 -1
2557 1 23.378116561109508 35.531853927404384 42.18258254173832 0 0 -1
1586 1 16.247963361180258 22.871196129980284 42.14699611664672 0 0 -1
1981 1 17.55853774670632 35.49324650086933 42.07999503108893 0 0 -1
2485 2 23.53721465421797 25.430280894924575 42.05948031296028 0 0 -1
2809 1 26.34291264523126 30.42115488659016 42.14869165627908 0 0 -1
2884 1 29.173982108066255 1.765879889185121 2.2116778144532017 0 0 0
3172 1 32.20221834693619 1.7237446502458653 2.3401358672869677 0 0 0
3853 1 38.16311912378974 15.225995595989724 0.03426835067494101 0 0 0
3460 1 35.29176226211571 1.7534437151187268 2.3985335035750315 0 0 0
3748 1 38.07122557763209 1.6723811239730015 2.395800107656097 0 0 0
3170 1 33.7431112838655 2.682247105344359 0.0298635567787658 0 0 0
3605 1 35.233861015892145 20.1815327539293 4.652172629990959 0 0 0
2595 1 27.794025491921516 4.376014953314988 2.333087044621539 0 0 0
2883 1 30.6753108444783 4.240080907204348 2.2206823442263213 0 0 0
3171 2 33.60902444098552 4.218909743948006 2.402875258083165 0 0 0
3208 1 32.254359260335235 6.507102307790329 2.495723224975093 0 0 0
3459 1 36.53603829423059 4.159568595145993 2.2513854737395906 0 0 0
3496 1 35.13003574410688 6.735155970425833 2.285793405678516 0 0 0
3747 1 39.64958423115546 4.1913114434004255 2.310922928715857 0 0 0
2920 1 29.230212557149798 6.82090384161124 2.2480249024884236 0 0 0
2631 2 27.808963609533695 9.339091920128384 2.323306975201661 0 0 0
2919 1 30.59086866117991 9.244564891278237 2.3277879161350925 0 0 0
3207 1 33.59477499663005 9.230681720308674 2.4095265455290074 0 0 0
3205 1 32.24755882832554 4.984679680108142 0.010502935369525783 0 0 0
3495 2 36.58617800066844 9.331710528068713 2.344371833706556 0 0 0
3784 1 38.2193426195863 7.036984819775595 2.33913359023663 0 0 0
3783 1 39.7767653922984 9.276877434799173 2.260099619782588 0 0 0
3242 1 33.88821300195934 12.60767537185011 0.07550679606971492 0 0 0
3749 1 38.21334600019007 0.08822808472940732 4.755758128668107 0 0 0
3859 1 39.548369435326705 19.505620058635873 7.110219703856554 0 0 0
73 1 40.96123708945646 10.260065996713955 0.007093310468172867 -1 0 0
2956 1 29.204507308471204 11.881918538087882 2.282178703718564 0 0 0
3244 1 32.405329395630744 11.7162793316705 2.299114002500726 0 0 0
3571 1 36.70817419829919 19.624845179771288 7.056112496251186 0 0 0
3570 2 36.729069127203076 17.731625971009453 4.669937491935099 0 0 0
3532 1 35.2769505722017 11.928060524540612 2.3939267366064136 0 0 0
2954 1 30.963463671092267 12.53906031979046 -0.006308530144273801 0 0 0
3820 1 38.08801113154462 11.86711550379906 2.435552253102121 0 0 0
2667 2 27.85095969554219 14.520368641738283 2.2833854506541655 0 0 0
2955 1 30.745275381578395 14.258753449669744 2.3509903336199462 0 0 0
2992 1 29.3646213595084 17.05121855833686 2.2557905957289126 0 0 0
3818 1 39.54146418462575 12.77235516752831 0.023479429814042656 0 0 0
3243 1 33.837657814178954 14.423903131249308 2.5053563989098033 0 0 0
3280 1 32.280324166924046 16.856825467215522 2.334708301545549 0 0 0
3531 1 36.778462046849384 14.42449250429454 2.4491106099283986 0 0 0
3568 1 35.24668451478246 17.024693047816754 2.362717253284947 0 0 0
3893 1 38.12335917126961 20.280390507236547 4.734213066300241 0 0 0
3819 2 39.60299076174921 14.450515249922336 2.3544617234841727 0 0 0
3856 1 38.16829327113574 16.865500150289957 2.2624871579198453 0 0 0
2995 1 30.908326440761567 19.61879956933513 7.084002868308662 0 0 0
2703 1 27.661779834175658 19.57719194535119 2.4550905914005843 0 0 0
2991 1 30.899774640813597 19.501962908360156 2.4422368629747866 0 0 0
3566 1 36.71382501482641 17.72675175300485 0.03244224533445634 0 0 0
3279 1 33.696101788538755 19.707672371873638 2.2980494528459743 0 0 0
3567 1 36.765157441750716 19.5168923122208 2.460867106107086 0 0 0
3855 1 39.654178440630474 19.423849825395614 2.290767108101267 0 0 0
2598 1 27.710025365562306 2.585211335609948 4.573795869196636 0 0 0
2888 1 29.170027232086603 1.7943615395685089 7.049571495764816 0 0 0
2886 1 30.54267162615321 2.5849165864528114 4.705782019685601 0 0 0
3277 1 32.30137798998331 15.22090028434856 0.028749836189911684 0 0 0
3174 1 33.78059678184461 2.439084105659808 4.618446732250025 0 0 0
3176 1 32.108501987457245 1.7965760892738551 7.040915451897558 0 0 0
2990 2 30.844362645472167 17.708978853043018 0.049416540950682694 0 0 0
3462 1 36.67245283354512 2.6061458229587617 4.9373030613790565 0 0 0
3464 1 35.017715908580996 1.8820816587277753 7.165243785777805 0 0 0
44 1 40.95004879996226 6.873519180702443 6.916832254310811 -1 0 0
3750 2 39.597240301546506 2.5008295133427496 4.6621787572785065 0 0 0
3752 1 38.14363596009821 1.9100715458016884 6.973395625708848 0 0 0
2599 1 27.666103246790215 4.2022176773124205 6.991751056396338 0 0 0
2921 1 29.189126149922206 5.161555772493809 4.616577094120405 0 0 0
2887 1 30.765675971626287 4.237932652142312 7.022975500176337 0 0 0
3175 1 33.63247034004563 4.246307501518059 6.977093161091082 0 0 0
3209 1 32.132968670559805 4.984078748283944 4.705933542000338 0 0 0
3212 1 32.175913497161986 6.769120602881378 7.017700788274943 0 0 0
3463 2 36.702023991733014 4.370550111122986 6.968054048270285 0 0 0
3497 1 35.11629604029605 5.202961672988418 4.600055781078886 0 0 0
3173 1 32.21715945538584 0.10473929717529273 4.663050766067012 0 0 0
3860 1 38.106181939447694 17.08074446162699 6.954527191763513 0 0 0
3751 1 39.558869950231 4.23152347123979 6.984946803412316 0 0 0
3785 1 38.09911289684398 5.112235868849255 4.470242664890361 0 0 0
2924 1 29.249591401178826 6.736484357812447 7.012645412886908 0 0 0
2634 1 27.74567816039231 7.731965810559051 4.724241164568629 0 0 0
2635 1 27.773214917218866 9.417398961520455 7.085345243121837 0 0 0
2923 1 30.781089124552327 9.401818653559497 6.9791755485950855 0 0 0
2922 1 30.871457560628052 7.589883390469112 4.687010898921473 0 0 0
2957 1 29.28507127538509 10.195923464880687 4.700883446940245 0 0 0
3210 2 33.73536066211737 7.52560276185572 4.723092110986305 0 0 0
3211 1 33.78117669819483 9.395067500852738 6.923336119483966 0 0 0
3245 2 32.23266863529463 10.111108864983951 4.667214116341351 0 0 0
3500 1 35.20392843486677 6.609718238521728 7.03805833057292 0 0 0
3498 1 36.60834662988563 7.796244852277317 4.582615189087443 0 0 0
3499 1 36.55762598606279 9.290727673076324 6.832880517542721 0 0 0
3788 1 38.12623159967225 6.862857722964342 6.954708686686257 0 0 0
3786 2 39.537821330887 7.60669878173125 4.669915083181614 0 0 0
3787 1 39.488018028447726 9.303044792066805 6.9910526260955175 0 0 0
2670 1 27.79694677115548 12.70105649619967 4.699184526075531 0 0 0
2960 1 29.335126948106385 11.98548595827447 6.891410153300769 0 0 0
2958 1 30.844681797133337 12.664068037828017 4.550470728981459 0 0 0
3246 1 33.74550468505004 12.571386346687776 4.659049190759836 0 0 0
3248 1 32.234084157587986 12.015252200778562 6.9031391264916895 0 0 0
3533 1 35.04424233534925 10.16656999422879 4.495853284544856 0 0 0
3534 1 36.63843526130039 12.645702085420009 4.900771496692317 0 0 0
3536 1 35.16768976168527 11.738017069080383 6.8602132506918245 0 0 0
3858 1 39.57167021382311 17.96899134084143 4.713503620880141 0 0 0
3821 1 38.064784929072786 10.13519802311848 4.683788930453639 0 0 0
3822 1 39.41329155582771 12.641261063084485 4.656608092721991 0 0 0
3824 2 38.14904724699872 11.964466400418972 7.05475142586926 0 0 0
2671 1 28.008326460424012 14.271836350696214 7.116782231753034 0 0 0
2993 1 29.26036192890683 15.342209745919924 4.677461260102467 0 0 0
3284 1 32.09564512946065 16.924621448022346 6.947316346611811 0 0 0
2959 2 30.916003389536797 14.431962163580645 6.984998851159741 0 0 0
3247 1 33.807957054601104 14.507082853465162 7.0117684235978315 0 0 0
3281 1 32.231472073378114 15.144133154260645 4.633101745710395 0 0 0
3572 1 35.33436979875674 17.00010623066232 6.959884896992053 0 0 0
3569 1 35.320642641358646 15.350540129531392 4.678017662710593 0 0 0
3535 1 36.683749243420166 14.342248957567211 7.075789253007935 0 0 0
3857 1 38.14347270487097 15.274440622176312 4.734142236357549 0 0 0
3823 1 39.60348176140273 14.457870836642636 7.054635795349953 0 0 0
3283 1 33.76989357027175 19.467884545119073 7.113208625013175 0 0 0
2706 2 27.92731615836967 17.827171581808983 4.769283760746011 0 0 0
2994 1 30.71421894504298 17.87430776809008 4.588578749486426 0 0 0
2707 1 27.963093131800775 19.362299409633586 7.177740310777174 0 0 0
2996 1 29.33752613889477 16.934027380831605 6.882826340049335 0 0 0
2989 1 29.38951740735752 15.127735526100905 0.0023036597481148266 0 0 0
3282 1 33.714244278338455 17.727184015610796 4.828237319081737 0 0 0
3565 1 35.16112191399918 15.197489627132077 0.016612485713421853 0 0 0
3278 1 33.767496612539816 17.738793729718857 0.06810297535274638 0 0 0
3461 2 35.29891182668331 0.16678074132005083 4.72113626765718 0 0 0
4 1 41.04004098072438 1.7269295839209675 2.4131409212650126 -1 0 0
109 1 41.01655926078983 15.32286249726042 0.04889725544149316 -1 0 0
3529 1 35.02440855539915 10.10232759937552 0.027444014801110764 0 0 0
3025 1 29.2854069231389 20.11473337004968 0.0731991921206398 0 0 0
2702 1 27.848221046892586 17.633697983288567 0.035131841396359914 0 0 0
3817 1 37.96846826135993 10.16616918138705 0.11820051921552521 0 0 0
3241 2 32.28263579623439 10.117554954646764 0.09161084879128431 0 0 0
3854 1 39.58593573174369 17.76135751016829 0.044476872156295144 0 0 0
3746 1 39.67535761604039 2.414345583956688 0.02181433932604193 0 0 0
2917 2 29.382512513915284 5.0120181163255415 0.017761181307847096 0 0 0
2882 1 30.737774065245574 2.4947025150873556 0.058021022671908895 0 0 0
3494 1 36.58553854474107 7.649972592001981 0.03978862883491274 0 0 0
2953 1 29.34016957047202 10.03226393220791 -0.011362251172172932 0 0 0
2918 1 30.879916271919996 7.560318558178145 0.03126362128263338 0 0 0
2602 2 27.807293143068225 2.548954795150668 9.378427403276744 0 0 0
2892 1 29.3131906003984 1.7929157328441296 11.72692161941921 0 0 0
2890 1 30.78312270665024 2.522516747753368 9.3161128837584 0 0 0
3867 1 39.46216692081509 19.472967216779725 16.42566470138239 0 0 0
3178 1 33.606089613832864 2.628770207035373 9.469122731211357 0 0 0
3180 1 32.13479796064125 1.6168330140209537 11.902922386402855 0 0 0
12 1 40.99646313679211 1.7665945048448215 11.658943317977316 -1 0 0
3466 1 36.65867804414481 2.596246646917606 9.37368539947202 0 0 0
3468 1 35.130341418386024 1.715186245982736 11.847390416969946 0 0 0
49 1 40.97861654422924 5.1033498818429095 14.041465653863087 -1 0 0
3754 1 39.816274915129924 2.5215736152319863 9.360870848349192 0 0 0
3756 1 38.11638981465126 1.8152707859329922 11.672468543089837 0 0 0
3578 1 36.67049930763713 17.714556984916445 14.001563806507328 0 0 0
2603 1 27.752188864179633 4.185961832235913 11.665320206774235 0 0 0
2925 1 29.28743503904733 5.163039906045431 9.363877939271184 0 0 0
2891 1 30.649578037175562 4.219032947091883 11.681155042495057 0 0 0
3179 1 33.6373891282246 4.256558331672282 11.641555127073028 0 0 0
3213 1 32.26255615049254 5.087221107489958 9.403501997350133 0 0 0
3467 1 36.595436578145694 4.298156997206006 11.750465083761851 0 0 0
3501 1 35.148138140103555 5.10835298901118 9.291293409691269 0 0 0
3753 1 38.120203944670905 0.07182767103366007 9.213132172427137 0 0 0
3755 1 39.473795995726974 4.384767941017882 11.740368688503855 0 0 0
3789 1 38.05872596882112 5.10060752441384 9.289314558212837 0 0 0
3792 1 38.148788832478445 6.886862512817894 11.633669767926264 0 0 0
2928 1 29.291936588697105 6.8042023377287535 11.79375039474797 0 0 0
2638 2 27.859828306623708 7.640386160179705 9.494981969244904 0 0 0
2639 1 27.818036772418456 9.2808787230835 11.734253260937166 0 0 0
2927 1 30.75016996343251 9.36833429248723 11.590055888729667 0 0 0
2926 1 30.689789378736716 7.786425907174014 9.460567768473684 0 0 0
3216 1 32.10239061226427 6.853674050313806 11.577764916942538 0 0 0
3214 1 33.66286735254012 7.6060104636124315 9.265173433012068 0 0 0
3215 1 33.66916106757728 9.293734325176864 11.62206167924144 0 0 0
3504 1 35.222884145947305 6.732888088207154 11.66462945765084 0 0 0
3502 1 36.615047751621375 7.635919470796201 9.278282997399906 0 0 0
3503 1 36.709604106940944 9.301933553231077 11.641693204254604 0 0 0
3537 1 35.092629522608945 10.167639697007623 9.276293499355221 0 0 0
3790 1 39.65886370819092 7.574217383089374 9.365104526594925 0 0 0
3791 1 39.70446694310792 9.377270547313381 11.616761114848142 0 0 0
2961 1 29.29212901917592 10.320181778867653 9.25559020550489 0 0 0
2674 1 27.82460524251613 12.768039622808995 9.53743132505622 0 0 0
2964 1 29.43059789766228 11.963139527391073 11.68749786193855 0 0 0
2962 1 30.72532423141413 12.840096618875524 9.33082788026364 0 0 0
3249 1 32.25148175808883 10.34665146615929 9.267670549112095 0 0 0
3250 1 33.88966186765887 12.797445078612327 9.236317717130339 0 0 0
3252 1 32.40572280558179 11.968316148075383 11.489592777823288 0 0 0
3538 1 36.672468199915826 12.711398300268524 9.219571025990238 0 0 0
3540 1 35.161017632442096 11.742738689216297 11.712606518524186 0 0 0
3825 1 38.042631206075114 10.15911424293076 9.192516608368882 0 0 0
3826 1 39.49444140891606 12.7942636170536 9.328546042431732 0 0 0
3828 1 38.13184577036327 11.812618979582185 11.633748206341275 0 0 0
2675 2 27.986217793450237 14.401263050216382 11.773272126443345 0 0 0
2997 1 29.42623765688118 15.280531050489879 9.475881107769904 0 0 0
3000 1 29.40937695162354 16.966642023548626 11.619161498383086 0 0 0
2963 1 30.914710088554422 14.479537636790122 11.879467794596097 0 0 0
3251 1 33.77348871466492 14.4628229554596 11.62317343589058 0 0 0
3285 1 32.27748379506005 15.335791591263263 9.326583351957957 0 0 0
3539 1 36.62379461476942 14.293534869195348 11.595948309494945 0 0 0
3573 2 35.41340059208326 15.322580296795142 9.34565452218367 0 0 0
3576 1 35.01010083146667 16.80741448404995 11.554919479997942 0 0 0
3868 1 38.20424156069545 16.88401916401019 16.42247128372621 0 0 0
3827 2 39.594163336146195 14.40109058076867 11.648157365619909 0 0 0
3861 1 38.14393061087473 15.462952752440541 9.396420328937001 0 0 0
3864 1 38.23124638051844 16.93930949181363 11.701562040700406 0 0 0
124 1 40.92563349440333 16.844048264455388 16.244025461144115 -1 0 0
2710 2 27.945825164778324 17.629295525318202 9.421170652421432 0 0 0
2711 1 27.828677121053545 19.453285275746964 11.763038497260494 0 0 0
3288 2 32.306736578600706 16.96259566692406 11.694470455321758 0 0 0
2998 1 30.656632957253716 17.893616457753495 9.44661165097843 0 0 0
2999 1 30.871992470209957 19.510288103487785 11.625862509300877 0 0 0
3286 1 33.5550853505047 17.81038178255985 9.305138454264542 0 0 0
3287 1 33.58592868252251 19.523284838215716 11.684866769884106 0 0 0
3579 1 36.49801557710349 19.59984720284612 16.420509239233603 0 0 0
3574 1 36.68774768000962 17.942527594861136 9.448118977382364 0 0 0
3575 1 36.49460087861199 19.44164691821967 11.753005230187496 0 0 0
3291 1 33.57559296493427 19.55481321754069 16.550229453243674 0 0 0
3862 2 39.47644345844242 17.954181545407877 9.319814276372902 0 0 0
3863 1 39.598831273008585 19.500820591401517 11.684978397049376 0 0 0
52 1 41.025337422071985 6.7406335678428855 16.351710274063784 -1 0 0
2606 1 27.76285266620304 2.4505310200015487 13.975098688451805 0 0 0
2896 1 29.093231347890843 1.663738920915595 16.441291940072578 0 0 0
2894 1 30.699070394876404 2.5733494916104727 14.023007333747518 0 0 0
3182 1 33.634255486136055 2.450657836023026 13.943526888150762 0 0 0
3184 1 32.07827364325064 1.4872596084779173 16.399185692454683 0 0 0
3470 2 36.55000368314133 2.579155470372712 14.028028176978072 0 0 0
3472 1 35.07246303581161 1.6038303235788434 16.287785361443856 0 0 0
84 1 41.028308655099494 11.942242014822831 11.63294839761244 -1 0 0
3758 1 39.50463204311893 2.5678223266063145 13.982164969788899 0 0 0
3760 1 38.0765544074315 1.7988962415072693 16.45807520343269 0 0 0
121 1 40.94142515768428 15.073266524725376 13.893918683119347 -1 0 0
2607 1 27.782994427729992 4.2457619600186325 16.448161318401503 0 0 0
2929 1 29.210899108088025 5.060976866917739 14.097138833276908 0 0 0
2932 2 29.313271691342116 6.736253614286528 16.518784196555625 0 0 0
2895 1 30.71912342506166 4.3875182530214625 16.399412576047308 0 0 0
3183 1 33.57108693512713 4.159460383217855 16.349781478388845 0 0 0
3217 2 32.15465471382521 5.163013449016834 14.022251159396461 0 0 0
3220 1 32.24904268434615 6.762189396974733 16.309898191762578 0 0 0
3471 2 36.585717028334784 4.174666558933045 16.33962060483952 0 0 0
3505 1 34.99872392640114 5.025911000819302 14.05199865042702 0 0 0
3759 1 39.51283317202804 4.093979550984286 16.438252496579054 0 0 0
3793 1 38.03445054540491 5.099826431964319 14.183522861746289 0 0 0
2642 1 27.887254239569106 7.709848708255327 14.203376988052987 0 0 0
2643 1 27.990036808614057 9.321678038034369 16.442763032388083 0 0 0
2931 1 30.65143271340607 9.29912718005635 16.528770302764315 0 0 0
2930 1 30.75921006965091 7.694407941283131 14.110510246515814 0 0 0
3218 1 33.664195705180205 7.6351147077060375 13.928764828578684 0 0 0
3219 1 33.60022625072955 9.28591314655666 16.43697106316177 0 0 0
3508 1 35.17907925879945 6.675758801820818 16.487003568928294 0 0 0
3506 1 36.669884268341065 7.645093551167827 14.165091865723983 0 0 0
3507 1 36.83613333670107 9.324846686917306 16.494095058334857 0 0 0
3541 1 35.09263835830137 10.184640655488149 14.014311929192479 0 0 0
3796 1 37.93978622800434 6.792914551815384 16.43872009269625 0 0 0
3794 1 39.55219280631867 7.658595657136563 13.96580085502288 0 0 0
3795 1 39.63611872674859 9.461242805646783 16.3461561325298 0 0 0
2965 1 29.326688884667053 10.206106277631358 13.97559753477724 0 0 0
2678 1 27.97489916701143 12.712117355056499 14.00271550302113 0 0 0
2968 1 29.477826052286602 11.872021976703852 16.35392317097729 0 0 0
3253 1 32.07196062825295 10.296680784961294 13.904418989914248 0 0 0
2966 2 30.766227728713258 12.822225924273589 14.005321614332484 0 0 0
3254 1 33.70661880219721 12.659439848952564 14.08184389372586 0 0 0
3256 1 32.200838711498406 11.940567425109016 16.3349560966465 0 0 0
3542 1 36.62385475064488 12.71837305661661 14.114603687761495 0 0 0
3544 1 35.263735526156694 11.678728126855697 16.534234789243616 0 0 0
3829 1 38.18528270186171 10.256747786003475 13.963052902036628 0 0 0
3830 1 39.70446832361367 12.682741552915687 13.970206432971215 0 0 0
3832 1 38.27984035059758 11.819269539855023 16.44427260714585 0 0 0
2679 1 27.706345738522522 14.390026864286902 16.408203676894917 0 0 0
3001 1 29.30813057685103 15.252286653389609 14.150123789965013 0 0 0
3004 1 29.411726657266467 17.101998022588997 16.342120772224007 0 0 0
2967 1 30.751282451116175 14.417792744864592 16.462933717679952 0 0 0
3255 2 33.77075212548816 14.285601974047799 16.447799259273722 0 0 0
3289 1 32.24003964682639 15.259289693930938 14.131193721576759 0 0 0
3292 1 32.34027725676417 16.976994835163012 16.45029236014439 0 0 0
3543 1 36.669552966464295 14.264812628844961 16.533805764451763 0 0 0
3577 1 35.16350259691367 15.193072138906013 14.158690409402602 0 0 0
3580 1 35.21969283926687 16.74576471004608 16.410466862436827 0 0 0
3831 1 39.654646093565475 14.304333697270351 16.26999318030712 0 0 0
3865 1 38.032576586018465 15.276175694781976 14.169321586186305 0 0 0
3866 1 39.54624884897561 17.85810165917318 14.047367475200161 0 0 0
2714 1 27.847856159375585 17.72199742910887 13.990165471831144 0 0 0
2715 1 27.753457699566106 19.467263936130283 16.41682266405602 0 0 0
3003 2 30.80312375593633 19.573436715191797 16.425843350847266 0 0 0
3290 1 33.8137129286836 17.81237576886917 14.076337595354959 0 0 0
3002 1 30.846268365740713 17.84557797643338 14.03609000369065 0 0 0
3757 1 38.014495492093616 0.01798532711415858 13.94548834374917 0 0 0
2889 1 29.19856049357645 0.10875330520976614 9.355661585953397 0 0 0
45 1 40.91356422919471 5.170788259827961 9.358516180399304 -1 0 0
3465 1 35.12383150601414 0.05883986181197713 9.412781659093799 0 0 0
16 1 41.035874323268814 1.7337629766739495 16.354200172376213 -1 0 0
48 2 41.006177346441234 6.784613601065141 11.740623705959816 -1 0 0
153 1 41.01373049074155 20.243256236106376 9.399752411071871 -1 0 0
13 1 40.98427906386584 0.016981289840771296 14.15722961010143 -1 0 0
2610 2 27.827846787377013 2.576029345101166 18.698692954299496 0 0 0
2900 1 29.3452387917338 1.6883580583365618 21.0811007409044 0 0 0
3874 1 39.5394098535854 17.756619910778955 23.4358016580172 0 0 0
2898 1 30.7892073111639 2.5519024859860755 18.712685858430046 0 0 0
3186 2 33.62277434861886 2.352709525347681 18.654401449987674 0 0 0
3474 1 36.55072009912956 2.369017801459639 18.72357600586905 0 0 0
3476 1 34.965915868121286 1.5646097400366077 20.96298699805001 0 0 0
3762 1 39.59425078103544 2.5469320150428363 18.76710234501079 0 0 0
3583 1 36.608552504921406 19.389216745337357 21.06864342826017 0 0 0
3764 1 38.24294123267731 1.733804944093811 21.088467741341315 0 0 0
2933 1 29.393236784827618 5.044336492767776 18.790719429605574 0 0 0
2936 1 29.38903080323667 6.756950861388136 21.144032579818784 0 0 0
2899 2 30.806764682790416 4.184544408523676 21.16902485704018 0 0 0
3221 1 32.34852721423903 4.90961408250514 18.719157841039653 0 0 0
3187 1 33.738798838204204 4.044873673012816 21.136810317656188 0 0 0
3224 1 32.252535120219875 6.697569856120419 21.082160735667156 0 0 0
3509 1 35.15954381747824 4.914374154966955 18.61604880151161 0 0 0
3475 1 36.61413851547243 4.305775294674615 21.038529525850286 0 0 0
3797 1 38.07417738427728 5.0550042585352015 18.767105943047508 0 0 0
3763 1 39.74355019666028 4.241403319161188 20.959628735059137 0 0 0
2646 1 27.903647621453747 7.644046324320105 18.710666439449234 0 0 0
2934 1 30.760317792579578 7.67314798957569 18.77370479583935 0 0 0
2647 1 27.880318242051235 9.306408113107908 21.086625831111036 0 0 0
3222 2 33.644723822661675 7.427709347503751 18.67782335063211 0 0 0
3223 1 33.72628220801674 9.252848091531558 21.045362121808857 0 0 0
2935 1 30.834484461181425 9.302033823176577 21.15763688838765 0 0 0
3510 1 36.473797831872446 7.560557503161648 18.786648204585198 0 0 0
3545 2 35.04009287102738 9.972810579782486 18.712233019686472 0 0 0
3798 1 39.47570097840337 7.723337789424448 18.70566627931804 0 0 0
3799 1 39.60383094617873 9.190021221065235 21.061377938901188 0 0 0
2969 1 29.349040008501376 10.23246130737696 18.73159680548982 0 0 0
2682 1 27.93546097070702 12.802028747806622 18.79227037698541 0 0 0
2972 1 29.294560326448 11.760128043891962 21.287517886143384 0 0 0
3257 1 32.2653643193443 10.308081928368475 18.819662748884493 0 0 0
2970 2 30.735827273718037 12.723333580098847 18.80954327503879 0 0 0
3258 1 33.7831449242301 12.636016674886099 18.75883321512528 0 0 0
3546 1 36.7231291524394 12.623313115410806 18.845188406734017 0 0 0
3833 1 38.011711755028685 10.12442261728678 18.870826683249405 0 0 0
3834 1 39.614838517518905 12.557412949048036 18.726604444427732 0 0 0
3836 1 38.20395512958078 11.760880525585732 21.204540654701916 0 0 0
3005 1 29.29800585056307 15.315444337559292 18.76549792253778 0 0 0
2683 1 27.84638995522933 14.450548120158679 20.99162141490139 0 0 0
3293 1 32.30616205094569 15.047155577517316 18.69561997462574 0 0 0
3296 2 32.27906378206258 16.938408848980984 21.0010179054033 0 0 0
3259 1 33.65104327504221 14.3979605819374 21.292883146362897 0 0 0
3581 1 35.14000643278317 15.206532557381411 18.707070719250137 0 0 0
3547 1 36.781660955319 14.401775046661136 21.121201597812778 0 0 0
3869 1 38.14951320237519 15.23540913678074 18.782029530294036 0 0 0
3905 1 38.144642412623796 20.233662445745388 18.67312941349244 0 0 0
3835 1 39.62082684524361 14.39017328047617 21.033299027147265 0 0 0
2718 1 27.959899439880193 17.91574040849868 18.676495639767268 0 0 0
2719 1 27.764794756832174 19.3694990837351 21.11123794813271 0 0 0
3006 1 30.885211751472177 17.943478312690786 18.6403694701457 0 0 0
3294 1 33.80054841127418 17.791573036638706 18.726093577022557 0 0 0
3295 1 33.55526026393035 19.456070346743296 21.101028352081528 0 0 0
3582 1 36.67798835264064 17.752667847495793 18.758674423631714 0 0 0
3871 2 39.485469824271746 19.436513526062882 21.024122593957213 0 0 0
3870 2 39.66983803800878 17.69400467117526 18.76735476969701 0 0 0
2614 1 27.76473145011394 2.5610444321006995 23.562998581435124 0 0 0
3188 1 32.27445749456085 1.594202701330561 20.999406957181264 0 0 0
2902 1 30.905712150213137 2.497139793364936 23.421437152245126 0 0 0
3190 1 33.81433566866784 2.2912323897836275 23.569753913440273 0 0 0
3478 1 36.575730475700155 2.4299055080490075 23.418425009904755 0 0 0
3766 1 39.628727817807786 2.596543529710798 23.373360116428433 0 0 0
3765 1 37.986604566152366 0.019997503134118716 23.38369737740956 0 0 0
2611 1 27.851905854964944 4.113255995225536 21.118888552727903 0 0 0
2937 1 29.325143498855994 5.013824185903871 23.447711339744615 0 0 0
3225 1 32.252532156936965 5.065597130256481 23.45038086681971 0 0 0
3512 1 35.05751688781645 6.603123527920495 21.0695918506523 0 0 0
3513 2 35.12024146224486 4.796336701890403 23.505751526440577 0 0 0
3801 1 37.97082059897943 5.165075443071023 23.340677005307096 0 0 0
2650 2 27.890395617061323 7.573615648173989 23.56136052501013 0 0 0
2938 1 30.86554388166069 7.5773823768166135 23.55821009750148 0 0 0
3226 1 33.76095993370977 7.392734915311955 23.468890555704043 0 0 0
3511 1 36.469525435120275 9.274998901493907 21.201204860407252 0 0 0
3514 1 36.62683868369878 7.557962760122421 23.312236425047608 0 0 0
3549 2 35.1406286256675 9.919100745999968 23.47606032454869 0 0 0
3800 1 38.0666761101422 6.821536718660394 20.921260593472994 0 0 0
3802 1 39.60530493885513 7.645778162481609 23.40907733078425 0 0 0
3837 1 38.092753944640805 10.075966857250423 23.44125065409284 0 0 0
2973 1 29.409968283894703 10.057490923724217 23.62130790161046 0 0 0
2686 1 27.868437681525126 12.675307661196916 23.4226373065062 0 0 0
2974 2 30.921463703822646 12.670989425806907 23.471761614413445 0 0 0
3261 1 32.229379915794155 10.062045300689496 23.53714786150459 0 0 0
3260 1 32.28759443705252 11.890744820614817 21.14116279501589 0 0 0
3262 1 33.71470253579783 12.544244432446478 23.622184584426563 0 0 0
3548 1 35.13131000032324 11.749135317694806 21.286193396156115 0 0 0
3550 1 36.79066110902879 12.674748869978126 23.4775389296744 0 0 0
3838 1 39.54285253676582 12.553074666262791 23.451068976256796 0 0 0
3008 1 29.4331329217824 16.891817564955172 21.00184505097419 0 0 0
3009 1 29.34981036146839 15.275557965912677 23.46173910961335 0 0 0
2971 1 30.754225990642336 14.46816730592884 21.239255979128988 0 0 0
3297 1 32.2870966501129 15.302650294737932 23.43211912298154 0 0 0
3584 1 35.29893700863556 16.917186893758814 20.97698518101542 0 0 0
3585 1 35.1685306030124 14.917996576628685 23.559082687488274 0 0 0
3872 1 38.20567575121254 16.963156282975238 21.120150011168267 0 0 0
3586 1 36.63323461213575 17.84728753314629 23.37034770880577 0 0 0
3873 1 38.06998788119543 15.331190737557183 23.35157329677121 0 0 0
3298 1 33.68075647054546 17.74882486974408 23.45963216260792 0 0 0
2722 1 27.9564518154903 17.792485908736623 23.377828950307833 0 0 0
3007 1 30.767087993036252 19.550759592730877 21.04956634740719 0 0 0
3010 1 30.776672299747677 17.832504307514757 23.331981317534858 0 0 0
161 1 41.03639970999881 20.22640163534679 18.59927603193905 -1 0 0
129 1 40.98498416508248 15.043837437755661 23.420796024124744 -1 0 0
56 1 41.02665494706534 6.772852194844372 21.104321250859897 -1 0 0
125 1 40.82262250441674 15.291768016537278 18.766064261575828 -1 0 0
53 1 41.03653281688224 5.162281520514082 18.63157219554503 -1 0 0
3621 2 35.187681375188305 20.213093285872727 23.38382747017136 0 0 0
2618 1 27.871930482600128 2.5142944443358264 28.00344438025917 0 0 0
2904 1 29.300025340893388 1.639459203171312 25.746804361414174 0 0 0
2906 1 30.833940211661726 2.2495964527193375 28.186489722134475 0 0 0
3192 2 32.15282629024247 1.7736967604666467 25.76857212425365 0 0 0
3194 1 33.67258404883795 2.4663488819498753 28.195306496057707 0 0 0
3480 1 35.15574290488985 1.6036038576471514 25.848591142348116 0 0 0
3482 1 36.74256431190034 2.3909681596646766 28.14177094687922 0 0 0
3768 1 38.146074739040245 1.7571952400032784 25.777508105283093 0 0 0
3770 1 39.65052097645258 2.5621333163348283 28.18817355013295 0 0 0
3049 1 29.363717433614173 20.26321662508342 28.031557733226187 0 0 0
2615 2 27.837866704946748 4.249004342620455 25.71920112505142 0 0 0
2941 1 29.417863903659406 4.881098271134166 28.272342498465296 0 0 0
2940 1 29.401697881203877 6.704423107668056 25.788975169178055 0 0 0
2903 1 30.677656075054603 4.156668124259745 25.774670758642298 0 0 0
3191 1 33.57499646855902 4.083854124284902 25.895634769863214 0 0 0
3229 1 32.24842698394153 5.050607147560938 28.31018126392746 0 0 0
3479 1 36.67857551980127 4.243215286615308 25.70184752248751 0 0 0
3517 1 35.191763732668335 4.9253710384846405 28.169029306682372 0 0 0
3516 1 35.17779244348661 6.681065917188039 25.793140116263242 0 0 0
3767 1 39.64893451410916 4.199139979695145 25.654751638467303 0 0 0
3805 1 38.15719500868899 5.155967558711838 28.144828079205293 0 0 0
64 1 40.96858265112144 6.886214171882598 30.44591111561573 -1 0 0
2654 2 27.982472775451214 7.518934816497582 28.06340494761925 0 0 0
2651 1 27.679837507496785 9.250023805991475 25.86216621305962 0 0 0
2977 1 29.253891994017774 10.11187761550404 28.0838024551513 0 0 0
3228 1 32.27387674896511 6.7003358245768325 26.003052760182488 0 0 0
2942 1 30.775288688714408 7.577610117893211 28.19273618879599 0 0 0
3230 1 33.664167912643094 7.289592790854068 28.227167613998173 0 0 0
2939 1 30.660644652464264 9.332871466598242 25.90841906044172 0 0 0
3227 1 33.635614642752145 9.285223267538532 25.747025480419715 0 0 0
3518 1 36.602641133915895 7.55253425245916 28.176313293808974 0 0 0
3515 1 36.537793243448576 9.174437443145468 25.780144731362203 0 0 0
3804 1 38.02092892710253 6.749103980041486 25.739076199880888 0 0 0
3806 1 39.44501321045179 7.684996486550666 28.090913029898765 0 0 0
3803 1 39.52113339111827 9.438058527297107 25.851717870483892 0 0 0
96 1 41.004699537550884 11.839108676390783 25.777232385578717 -1 0 0
61 1 41.011735548282225 5.117077620669453 28.15445817700227 -1 0 0
2690 1 27.758237225777357 12.685846127332072 28.225020031529393 0 0 0
2976 1 29.337377927127125 11.828266052466919 25.884720946033955 0 0 0
3265 1 32.20079454440466 10.090840692241605 28.111197903318807 0 0 0
2978 1 30.77898956330905 12.717443716303585 28.231385327788338 0 0 0
3264 1 32.27028381016494 11.907737263116717 25.978579420132483 0 0 0
3266 2 33.77694184574803 12.792540733554706 28.12334029596589 0 0 0
3553 1 34.99948062001306 10.084726076010654 28.142359785205517 0 0 0
3552 1 35.16871310349592 11.694696689836048 25.757589204499865 0 0 0
3554 1 36.678784041676906 12.662286113295233 28.180026947461357 0 0 0
24 1 40.96936063922991 1.746921687009785 25.65428034458376 -1 0 0
3841 1 38.02081916233446 10.189720101333656 28.16455560196535 0 0 0
3840 2 38.09754724007965 11.740787964402491 25.79045786653321 0 0 0
3842 1 39.541240340803924 12.483581445619443 28.0969021718238 0 0 0
2687 1 27.80732412903882 14.480909480449904 25.821798431888418 0 0 0
3013 1 29.160837095277373 15.139759712725342 28.066636182115218 0 0 0
3012 1 29.380698741454214 16.80031487964382 25.827832031070844 0 0 0
2975 1 30.65773945261686 14.33278686728867 25.637082983274908 0 0 0
3263 2 33.685030064860484 14.347823961219685 25.846649039768714 0 0 0
3301 1 32.21490523366572 15.19783163450481 28.06233607395522 0 0 0
3300 1 32.21772039993925 16.91468832438901 25.77145629109655 0 0 0
3551 1 36.55030703616181 14.18693218612935 25.77342904326337 0 0 0
3589 1 35.15396567988083 15.209062967511603 28.074053183866297 0 0 0
3588 1 35.12479049582578 16.715057029458666 25.671563805707375 0 0 0
3839 1 39.419180877333616 14.24133624202816 25.818739766254915 0 0 0
3877 1 38.124635411442995 15.157900486802479 28.059909829850927 0 0 0
3625 1 35.16382784973108 20.10751395829586 28.09365265178012 0 0 0
133 1 40.97817049065712 15.018403101345688 28.159008555960725 -1 0 0
2723 1 27.78587897549596 19.3474426785074 25.78594186705292 0 0 0
2726 1 28.000871024405697 17.748888341308717 28.153420860384745 0 0 0
3011 1 30.776463508050327 19.598473119996388 25.77831951262542 0 0 0
3014 1 30.845207399008157 17.713534469249286 28.12394469879749 0 0 0
3880 1 38.07390298486038 16.801976952491284 30.450353679084905 0 0 0
3299 1 33.62544392229752 19.53717812864042 25.59008740222735 0 0 0
3302 1 33.773512595887254 17.622122682316746 28.175489652416168 0 0 0
3594 1 36.47553396620235 17.749784350788993 32.8716158491233 0 0 0
3587 1 36.72445265241146 19.339273249638197 25.70027969500552 0 0 0
3590 1 36.57564743422395 17.721729302441265 28.056215092945965 0 0 0
3876 2 38.093215324688174 16.748920377161177 25.788527033737534 0 0 0
3875 1 39.63283132531994 19.315670401959895 25.811640769493064 0 0 0
3878 1 39.573327008561705 17.72407648373657 28.075499689765362 0 0 0
2622 1 27.84566728978538 2.4904639824211134 32.84286136849536 0 0 0
2908 1 29.333101726200802 1.696730362844998 30.52687302213953 0 0 0
2910 1 30.865140792287352 2.602900310103792 32.89880300722824 0 0 0
3196 1 32.337197721374295 1.7472869404838383 30.570591275434012 0 0 0
3198 1 33.87717441350516 2.5230945599871757 32.88527526321404 0 0 0
3484 1 35.26164431860671 1.6536912773600385 30.49062701122498 0 0 0
3486 1 36.67967273093514 2.4334233277659876 32.66840211365634 0 0 0
3772 2 38.021879984147134 1.6144382478515666 30.420970829422615 0 0 0
3774 1 39.55965666232932 2.491820671445294 32.68946142269748 0 0 0
3917 1 38.07009566637592 20.265664800931845 32.7982933297078 0 0 0
3879 1 39.4789503650736 19.453466924533064 30.50159745939814 0 0 0
2619 2 27.84947324676482 4.094205419522055 30.522811858058102 0 0 0
2945 1 29.317172657685074 5.097661492000645 32.913522011274495 0 0 0
2907 1 30.812885283062467 4.147951138041072 30.55486833458976 0 0 0
2944 1 29.342727694816794 6.638729501638249 30.576092622349037 0 0 0
3195 1 33.718061175946346 4.265626902313011 30.604589953988057 0 0 0
3233 1 32.12771013854885 5.01048252829312 32.878972146857066 0 0 0
3232 1 32.202451643876074 6.856492655911066 30.586220042146188 0 0 0
3483 1 36.68826499999821 4.289924858313083 30.529838732961448 0 0 0
3521 1 35.13362298687021 5.110898315485718 32.80872046723174 0 0 0
3520 2 35.08240285679972 6.90723278761245 30.496741815022702 0 0 0
3882 1 39.601441128323884 17.592385673406334 32.70639349475168 0 0 0
3771 1 39.50502434758674 4.246295568653052 30.45644906926922 0 0 0
3809 1 38.08707935933897 5.163811203804086 32.78312643645759 0 0 0
3808 1 37.92118728888033 6.815588558604891 30.49512885555625 0 0 0
3591 1 36.54678107793539 19.390426136477604 30.484794779374788 0 0 0
2658 2 27.925171699476447 7.6407980636588615 32.906721433378536 0 0 0
2655 1 27.794837731823996 9.251753366434581 30.47918203670414 0 0 0
2946 1 30.735136291323712 7.589914667048821 32.800999328635086 0 0 0
3234 1 33.57824189038193 7.483364346351775 32.759532060430715 0 0 0
2943 2 30.68730987788483 9.297266372285854 30.547274169968713 0 0 0
3231 1 33.6040413721996 9.266355972067148 30.585781614291804 0 0 0
3269 1 32.06102435986125 10.158601833308467 32.75570815233881 0 0 0
3522 1 36.63370856636976 7.765285153349196 32.91623261648998 0 0 0
3519 1 36.623963742898496 9.353751685385367 30.47362379395413 0 0 0
3810 1 39.49064317398381 7.656236122083934 32.962955520528226 0 0 0
3807 1 39.45833022802505 9.345225414073616 30.596404621606187 0 0 0
2981 1 29.2201302501367 10.188890724563972 32.86942171787467 0 0 0
2694 1 27.979307790705718 12.750716703054087 32.881724340577776 0 0 0
2980 1 29.24184697624358 11.883050353397719 30.584753450139992 0 0 0
2982 2 30.76600989312682 12.707932383797493 32.77968599399517 0 0 0
3268 1 32.21075094608193 11.78602188633382 30.512737172735005 0 0 0
3270 1 33.52115268104676 12.748414875757462 32.92748372906166 0 0 0
3557 1 35.25935868992772 10.250417140163526 32.8781542634033 0 0 0
3556 1 34.98590098419602 11.92057502035367 30.373331169120476 0 0 0
3558 1 36.63254341890824 12.755044757839418 32.88173738782547 0 0 0
3845 2 38.02402490166911 10.140369545035915 32.78599460273705 0 0 0
3844 1 38.048412171401395 11.82335703464213 30.644264878876548 0 0 0
3846 1 39.61125849836651 12.679769544640214 32.90278783916645 0 0 0
3015 1 30.745041265241632 19.418077797730554 30.538434650033064 0 0 0
2691 1 27.640124915106455 14.306014730050942 30.568311606670306 0 0 0
3017 1 29.110408919477447 15.246595524428052 32.85974848663136 0 0 0
2979 1 30.87324816784699 14.360967179966867 30.582533100062808 0 0 0
3016 1 29.492848007998415 16.928660776294315 30.52250337062363 0 0 0
3267 1 33.781070664653015 14.405717952358406 30.588192954780677 0 0 0
3305 1 32.330918526787116 15.282769800311675 32.88831047830749 0 0 0
3304 2 32.31086336139559 16.86924058311025 30.496329911424308 0 0 0
3592 1 35.171650776306066 16.819625679261147 30.420764260218018 0 0 0
3555 2 36.48306074690957 14.36737343416605 30.525661395182 0 0 0
3593 1 35.32406967838655 15.316449696474876 33.01618958487502 0 0 0
3303 1 33.54732296338011 19.383080824737828 30.584971071163057 0 0 0
3843 1 39.45623515854622 14.238300203978746 30.3906624127979 0 0 0
3881 1 38.06183055714074 15.220437440486448 32.764262434134594 0 0 0
3306 1 33.67590507736851 17.78016245555866 32.888460160693256 0 0 0
2730 1 27.935232781777835 17.901650960675653 32.81723499428824 0 0 0
3018 1 30.88910850481017 17.705555533848873 32.81810429074157 0 0 0
2727 1 27.81510519399104 19.322538601205643 30.45567546370904 0 0 0
65 1 40.9804704399541 5.170729948956449 32.839402684234926 -1 0 0
173 1 41.00268683408549 20.092978513927104 32.80900734589122 -1 0 0
132 1 40.820792745582864 16.6751742469056 25.69201816939934 -1 0 0
28 1 40.91025529172055 1.49512896041735 30.44430415219101 -1 0 0
60 1 40.94451419654572 6.7576786109415306 25.829253711736772 -1 0 0
3337 1 32.330620536361096 20.211042436779557 28.077584641583417 0 0 0
169 2 40.99741358534763 20.247479741101174 28.157651110273843 -1 0 0
2626 2 27.874130952482812 2.4636320285972273 37.515408457092974 0 0 0
2912 1 29.250134030335047 1.5176336784297981 35.132348654400516 0 0 0
2914 1 30.71014023838363 2.2966557131247076 37.521818260828866 0 0 0
3200 1 32.46417983500223 1.7414859683083874 35.14397325280163 0 0 0
3202 1 33.789468809666005 2.61253345900726 37.46335650281138 0 0 0
3488 2 35.21826306539003 1.8158724990664545 35.182013911403175 0 0 0
3490 1 36.532401141595784 2.6377646727814086 37.427342434954696 0 0 0
3633 1 35.24575175828703 20.27131733195549 37.55059146502647 0 0 0
3776 1 38.11604604596856 1.6026420828138466 35.19163182500729 0 0 0
3778 1 39.504878406654754 2.4985714406764368 37.40439918681764 0 0 0
36 2 40.96295180217784 1.7292711720088154 39.7973686320465 -1 0 0
2623 1 27.821414210918345 4.178605286698246 35.16470765380096 0 0 0
2949 1 29.408461777646753 4.86131649072601 37.474460501201705 0 0 0
2948 1 29.405945324494223 6.729891526147463 35.21263980223597 0 0 0
2911 2 30.772799823930278 4.133193105790711 35.193747193866216 0 0 0
3199 1 33.784376820000574 4.354694314618109 35.14201823009145 0 0 0
3237 1 32.24668648135439 4.903054479358804 37.378816386272575 0 0 0
3236 1 32.179165134704704 6.646811760611915 35.04630837440817 0 0 0
3487 1 36.670696975836805 4.310812684387492 35.155732245827 0 0 0
3525 1 35.30482513426692 5.223226461064119 37.41510594549669 0 0 0
3775 1 39.60793278633568 4.2280940068097275 35.23436586408327 0 0 0
3813 1 37.95641905700138 5.166792976632567 37.52978515170159 0 0 0
3812 1 38.17210677558393 6.819575298122567 35.228314569820526 0 0 0
3493 1 35.264672877433355 5.104149314162702 42.169342619758424 0 0 -1
2662 1 27.97361004111116 7.518718984895766 37.61829158164876 0 0 0
2659 1 27.869673646330916 9.356730783537975 35.30431725310848 0 0 0
2950 1 31.07881231922405 7.607379471941238 37.48528292942352 0 0 0
3238 1 33.89906653897266 7.636625435697534 37.398480348095404 0 0 0
2947 1 30.962761551422293 9.260102024512108 35.191805821868456 0 0 0
3235 1 33.6866478055164 9.41134982247688 35.011242650363755 0 0 0
3524 1 35.20043319603393 6.745388862807746 35.04060490430166 0 0 0
3526 2 36.80021418404466 7.835012092754598 37.503350919106325 0 0 0
3523 1 36.63918057442159 9.335713634668673 35.25268278923417 0 0 0
3814 1 39.60245310694606 7.642619872569347 37.74222179254906 0 0 0
3811 1 39.567653955431496 9.29965708680084 35.28445608186213 0 0 0
2630 1 27.766017007312207 7.423890690862837 42.15134177395787 0 0 -1
2985 1 29.451976313042188 10.119069632711655 37.568612226770014 0 0 0
2698 1 27.857801200038114 12.672506693229936 37.66939768359029 0 0 0
2984 1 29.342933357345775 12.062721593244483 35.286502136135184 0 0 0
3273 2 32.35327729773819 10.122753856949506 37.61648133531277 0 0 0
2986 1 30.97558014737102 12.631740390456844 37.51581348841256 0 0 0
3272 1 32.25891703148021 11.861944072922343 35.10704662091331 0 0 0
3274 1 33.87401937248856 12.66405575524191 37.356251353785325 0 0 0
3561 1 35.16151014266491 10.223091586287302 37.57629477988827 0 0 0
3560 2 35.17309085978728 11.881230798656322 35.09333813927181 0 0 0
3562 1 36.77710677822944 12.682137307682867 37.38862262705378 0 0 0
3849 2 38.05987243685571 10.097421024514837 37.61882097656343 0 0 0
3848 1 38.02846299029433 11.860022208040537 35.19952089188888 0 0 0
3850 1 39.66390640168949 12.662237692312251 37.55289732638353 0 0 0
3887 1 39.54342673124184 19.481409425023248 39.793103217227014 0 0 0
2695 2 27.77418415338276 14.333732898385502 35.140910376754974 0 0 0
3021 1 29.30479712341274 15.210558286446966 37.569019409603044 0 0 0
2983 1 30.8022997101153 14.393948414342772 35.21738614310695 0 0 0
3020 1 29.34128238450754 16.9891411247034 35.19499726570979 0 0 0
3271 1 33.823064537999045 14.375493723072717 35.24146363277971 0 0 0
3309 2 32.265775434542405 15.190414048935258 37.51060651386511 0 0 0
3308 1 32.24590467994615 16.866388712733514 35.30872087166131 0 0 0
3559 1 36.468747029477825 14.440105072674475 35.394121521987316 0 0 0
3597 1 35.083470071139985 15.300900429583503 37.60272125852099 0 0 0
3847 1 39.5552883995022 14.369648594657589 35.29795348842097 0 0 0
3885 1 38.168368906164645 15.319062164208788 37.61761580624727 0 0 0
3884 1 38.080819356615365 16.981475317551112 35.12626470798237 0 0 0
2594 1 27.853554794744426 2.700204448239523 42.08167526205088 0 0 -1
3530 1 36.665321719106586 12.632205297089243 42.15678252724632 0 0 -1
2731 1 27.942237051069807 19.39844368615863 35.41201219565892 0 0 0
2734 2 27.867523334194384 17.76788737096936 37.622616094772894 0 0 0
3022 1 30.788867708432488 17.690738017211658 37.70730464528367 0 0 0
3019 1 30.863771537634403 19.437921188982063 35.23396374607324 0 0 0
3307 1 33.82865251497104 19.577083484370544 35.14029013698928 0 0 0
3310 1 33.71818445630208 17.71336043134955 37.53251884631699 0 0 0
3596 2 35.073748539797776 16.91159649300719 35.19766117505476 0 0 0
3595 1 36.79213903927575 19.55631479772477 35.14133553019566 0 0 0
3598 1 36.699099351797855 17.816824431468117 37.534619335166866 0 0 0
3883 2 39.61965168007663 19.537498094324842 35.23729581039605 0 0 0
3886 1 39.64016532523246 17.729823316835173 37.49187355627433 0 0 0
3201 1 32.224171443981874 0.034397418284036974 37.6365069832823 0 0 0
33 1 40.93360045781424 0.0571491441995212 37.4191878179694 -1 0 0
2916 1 29.26092112980845 1.6604808835446245 39.963995763123506 0 0 0
140 1 40.98139908161737 16.959589046397884 35.169667666889026 -1 0 0
3563 1 36.66519059822957 14.516511359486795 39.85146231292427 0 0 0
3204 1 32.317167295072736 1.5975054366851316 39.95167614788596 0 0 0
3492 1 35.249526844637955 1.8190148142309248 39.777482131448735 0 0 0
3888 2 38.168657492495555 16.895032429706696 39.9383157470521 0 0 0
3780 1 38.10674726105745 1.722922224640112 39.82137493793614 0 0 0
108 2 40.98129718054177 11.902381519895064 39.891968697014775 -1 0 0
2627 1 27.935662859850666 4.2568517146001845 39.79025937783514 0 0 0
2952 1 29.463666692961304 6.742209271679169 39.92152072350551 0 0 0
2915 1 30.88234118473414 4.133746625515223 39.92277578552928 0 0 0
3851 1 39.601670908906314 14.511487269866361 39.87793889753752 0 0 0
3275 1 33.74725634797822 14.460237185551001 39.83868173555979 0 0 0
3203 1 33.88292690371877 4.226804697825622 39.82306708563917 0 0 0
3491 2 36.758149884534845 4.196282793216768 39.7926494630712 0 0 0
3528 1 35.1543860721044 6.8719701357747445 39.73430698370339 0 0 0
3345 1 32.18841856219508 20.191849415241048 37.54578776025983 0 0 0
3779 1 39.61828640699321 4.2599536251530745 39.98418773131468 0 0 0
3816 1 38.03420553721867 6.7831805007025 39.88480474178165 0 0 0
3312 1 32.22821302016746 16.92663931150834 39.9986449765118 0 0 0
32 2 40.94053893038823 1.672061212012032 35.21046335948762 -1 0 0
2663 1 27.846597539150725 9.233391589524794 39.90207193237737 0 0 0
2951 1 30.665176828279115 9.311223630305202 39.88770640940612 0 0 0
3489 1 35.1546737720425 0.12466542489818977 37.44523391140159 0 0 0
2987 1 30.98007751217381 14.339838789266622 39.87118333116328 0 0 0
3240 1 32.288792618775844 6.729953377629934 39.68905362276786 0 0 0
3239 1 33.57113995389315 9.301304127077055 39.970101476620925 0 0 0
3600 1 35.35461401232051 16.930627207107392 39.84599970774157 0 0 0
3527 1 36.55984033106853 9.327684817235141 39.89750520481408 0 0 0
2699 2 28.00411714358741 14.413474492533748 39.886427194633015 0 0 0
3815 1 39.56034666004534 9.375701479150997 39.98894424535335 0 0 0
3777 1 38.057044741667355 0.04288043253755802 37.49661942116087 0 0 0
2988 1 29.448033651735805 12.009312898510887 39.942830013221155 0 0 0
3023 1 30.74337029902514 19.371800375844263 39.992519196886334 0 0 0
3024 1 29.255184985489517 16.9257000415819 40.039551205024694 0 0 0
3276 1 32.2503206596387 11.807341665565469 39.866835193533646 0 0 0
2735 1 27.778169246475084 19.399436073483926 39.90482474851294 0 0 0
3311 1 33.85549576808957 19.48371608683742 39.81314820553 0 0 0
3564 1 35.18990136387134 11.792602512732598 39.80524923490829 0 0 0
3852 1 38.19461305501356 11.901367008896113 39.88153711932986 0 0 0
3458 1 36.69357828105804 2.4553052809598466 42.14206504249475 0 0 -1
3599 1 36.692288458643716 19.4160884972937 39.86504414900344 0 0 0
3313 1 32.34051612679252 20.173511902735658 42.15873962174258 0 0 -1
3889 2 38.27835729175497 20.238521184042273 42.16071969362985 0 0 -1
2666 1 27.8952421133053 12.747151508764647 42.127875004444455 0 0 -1
3782 1 39.42429678948315 7.633432026266002 42.0602188453865 0 0 -1
3206 1 33.5072658667777 7.509685772826643 42.10834899885818 0 0 -1
3781 1 38.132202605570384 5.036308319946009 42.09890352775528 0 0 -1
3028 2 29.38372719740735 21.924283747104692 2.3107824845093505 0 0 0
3316 1 32.38231728557257 22.03209348820888 2.1825999707915957 0 0 0
3604 2 35.39843152667356 21.962739944874823 2.2610121973518953 0 0 0
188 1 41.00448627688108 27.108203387163442 7.1515817679001366 -1 0 0
3673 1 35.274190032934726 30.41340399160734 0.10284974599201008 0 0 0
3892 1 38.16461279102806 21.93164649102903 2.436495466488312 0 0 0
185 1 40.89642922242088 25.449280347467454 4.774574579144713 -1 0 0
3314 1 33.816098409050554 22.877111105145776 0.008640411576222161 0 0 0
2739 1 27.821064640599296 24.56359141204328 2.316215901247849 0 0 0
3064 2 29.39146722552792 27.115807779178606 2.2948658106660824 0 0 0
3716 1 35.187380509662404 37.13118500048088 6.986741884163868 0 0 0
3027 1 30.76461201087908 24.521055944617327 2.1497015276755866 0 0 0
3315 1 33.84540915757522 24.45184959289727 2.285659948555398 0 0 0
3352 1 32.22357099626714 27.035048818281034 2.370281128113513 0 0 0
3603 1 36.598499021830136 24.449144124405876 2.385793433486565 0 0 0
3714 1 36.61674859341596 38.134711387059816 4.578262554731856 0 0 0
3891 1 39.69351825768153 24.58719906495767 2.4970874560079297 0 0 0
2775 1 27.91912023822035 29.689327000089953 2.446671186539296 0 0 0
3063 1 30.780784023998716 29.641853578868933 2.1963944357866336 0 0 0
3351 1 33.81134330436619 29.529312783774127 2.345237015490638 0 0 0
3715 1 36.692366928367576 39.78730258811673 6.974487711206161 0 0 0
3640 1 35.1602445997616 27.066450199591987 2.271494413948926 0 0 0
3639 1 36.72752478121055 29.57715430410574 2.3189281949633638 0 0 0
3928 1 38.11907959304078 26.91282002908646 2.327906436968398 0 0 0
3927 1 39.58150916796956 29.582089318641163 2.245546278579673 0 0 0
3426 1 33.769956252293184 38.05675204518861 4.662374570859456 0 0 0
3100 1 29.34573058389522 32.02384229256695 2.1623353742791025 0 0 0
3139 1 30.794877597971958 39.80324786050204 7.079055871329011 0 0 0
3388 1 32.41418453903718 32.03403006396017 2.1576275755968704 0 0 0
3890 1 39.660472966386195 22.804227823848674 0.02168208631324956 0 0 0
3676 1 35.13149355186617 32.15207560103204 2.401598280028964 0 0 0
3317 1 32.28450904377182 20.41118659672457 4.6168782952446366 0 0 0
2885 1 29.205077104900475 40.594579886208614 4.622190441313787 0 -1 0
3964 1 38.142727574993344 32.172462788950995 2.3959822086955156 0 0 0
4002 1 39.55760738634062 38.12391478808872 4.570140416903814 0 0 0
3427 1 33.742470906074686 39.87801932326417 7.020074179257425 0 0 0
2811 1 27.869254884731273 34.64864194843906 2.288291626809363 0 0 0
3136 1 29.295985640167906 37.130696929272155 2.2660625128855227 0 0 0
3387 1 33.63248943105093 34.62126576381756 2.258717842794096 0 0 0
3099 1 30.844265216189033 34.60254538104658 2.2342182273717857 0 0 0
3424 1 32.22568162211451 37.23656792954193 2.3415497360916233 0 0 0
3140 1 29.17659081729986 37.194728453608704 6.977881361458513 0 0 0
3675 1 36.54941553963171 34.94983607732608 2.4360890060005067 0 0 0
3712 1 35.21415812442882 37.25809529474878 2.299902668918161 0 0 0
3963 1 39.69716592120632 34.65583884613898 2.4071400998165196 0 0 0
3029 1 29.23746752152115 20.338459602848918 4.826903565383417 0 0 0
2847 1 27.877507608307262 39.73650637624522 2.1914643200918644 0 0 0
221 1 40.94708461647165 30.423033903957414 4.6264233302301605 -1 0 0
3135 1 30.698799650311052 39.756044471396336 2.3832885715829604 0 0 0
3423 1 33.70034064869135 39.69022120189191 2.241583811070854 0 0 0
2851 1 27.8196093626726 39.63828946827937 7.002919897946782 0 0 0
3138 1 30.73035761143225 38.02243318105388 4.750266050558923 0 0 0
3711 1 36.68596255009034 39.78436481022303 2.3329559303008724 0 0 0
3967 1 39.56766059875062 34.718744373800774 6.977565684539137 0 0 0
2850 2 27.87178186778718 38.06186593892596 4.6594515626980675 0 0 0
4000 2 38.06701453662117 37.28933477853054 2.288894622970824 0 0 0
3999 1 39.55331630897611 39.854959168369156 2.312028661953634 0 0 0
2742 1 27.819958463795558 22.65356627994699 4.6591050768036695 0 0 0
3032 2 29.23315503475802 22.105948644225666 7.069501700221512 0 0 0
3030 1 30.67237281682143 22.84074381414019 4.477434637975525 0 0 0
3318 1 33.72720107221285 22.7881906279316 4.5763954977772485 0 0 0
3320 1 32.21915818187 22.135303836062533 6.966157479414483 0 0 0
3606 1 36.666648146565734 22.737396121473136 4.787576773845287 0 0 0
3608 1 35.30551547874525 22.107333798678134 6.984068645932856 0 0 0
3602 1 36.741026625019785 22.78993903883479 0.03295053732355714 0 0 0
3894 1 39.54476331855366 22.772135009779223 4.691663268166979 0 0 0
3896 2 38.22427585769012 22.042681560272847 7.049630981170371 0 0 0
2743 1 27.76237531944049 24.490240121076233 6.895434853106097 0 0 0
3065 1 29.319253543978732 25.25984892200244 4.528819282682326 0 0 0
3068 2 29.36766391776333 26.94633940228851 7.050952986316536 0 0 0
3031 1 30.702969645138595 24.629768637065176 6.9650655249159215 0 0 0
3319 2 33.73811096488913 24.625753540043682 7.038621265657343 0 0 0
3353 1 32.30147551756153 25.289050274077635 4.64251765003008 0 0 0
3607 1 36.74410668904967 24.51515574474756 7.2004439727829626 0 0 0
3641 1 35.14918096289199 25.47915965260533 4.645872063298423 0 0 0
3644 1 35.24331218730241 27.09447322290147 6.983498235335485 0 0 0
3895 1 39.581117398799904 24.4763450694406 7.049132261118337 0 0 0
3929 1 37.97003482170311 25.32179190730128 4.73039521651983 0 0 0
3932 1 38.18578590839745 27.095759688309077 6.980546758941054 0 0 0
2778 1 27.9107910999587 27.884139798742503 4.764098080999553 0 0 0
2779 1 28.025672301232547 29.61843014541774 7.199804121053447 0 0 0
3067 1 30.737552126075204 29.661207429696503 6.996943979859219 0 0 0
3356 1 32.29703552053523 27.03740074489235 6.949974314150931 0 0 0
3066 1 30.905355891756624 27.889369994395487 4.687717730317365 0 0 0
3354 2 33.73424177300626 27.78688929979066 4.71373894657595 0 0 0
3355 1 33.73004760484072 29.62085579702928 6.907264096333217 0 0 0
3642 1 36.67262797494884 27.93912559102514 4.655402463441486 0 0 0
3643 1 36.722261990279705 29.55662909208583 7.110244622128426 0 0 0
3677 1 35.221717877213194 30.381642650015017 4.6458583158759055 0 0 0
3930 2 39.38796398757334 27.909522003687094 4.7278287791788065 0 0 0
3931 1 39.60690492561454 29.663419458509917 6.938240610077073 0 0 0
3101 1 29.45162054126896 30.546449892303624 4.45610881192946 0 0 0
2814 1 28.013326190932272 33.03024734246923 4.58269695502126 0 0 0
3104 1 29.305161093067404 32.18657683794259 6.971939023875682 0 0 0
3389 1 32.26041001300959 30.28664943789299 4.545932544468692 0 0 0
3102 1 30.842744570003827 32.97347605053434 4.415447917703782 0 0 0
3392 1 32.16400419930248 32.181441323790715 6.959225223591719 0 0 0
3390 1 33.6306081606851 32.960239417549545 4.691675934714306 0 0 0
3680 1 35.18984090202929 32.17320484567901 7.005509620735841 0 0 0
3678 1 36.59896493863084 33.03422063757685 4.610803557137001 0 0 0
4003 1 39.524417243294394 39.78255207445816 6.958755782071651 0 0 0
3965 1 38.16687042694899 30.327330996558114 4.569320965742804 0 0 0
3968 1 38.080900581303226 32.20275614554137 6.933250533276731 0 0 0
3966 2 39.44766492130425 33.03898813583127 4.737790260837818 0 0 0
2815 1 27.998502405794913 34.68177534798554 7.006142348504228 0 0 0
3137 1 29.369124983983316 35.58885804677505 4.563904379785156 0 0 0
3103 1 30.776965261895388 34.6773882745031 6.859898436785252 0 0 0
3428 1 32.133687962652985 37.3807019817011 7.026618463058535 0 0 0
3391 1 33.66065808783982 34.7572828711325 7.077475315110955 0 0 0
3425 2 32.23439350761373 35.57668480345507 4.594851084129635 0 0 0
3679 1 36.743253988546 34.71852738392922 6.962333664585739 0 0 0
3713 1 35.09647616422727 35.470222403874565 4.66362785371653 0 0 0
4004 1 38.022883250028315 37.25829309383043 6.873148269649693 0 0 0
4001 1 38.06453907599057 35.47739816692822 4.7013065472809314 0 0 0
3962 1 39.45381976967133 33.01039385330603 0.1908457624940457 0 0 0
3061 2 29.275783868008897 25.454729393048144 0.05202347475375728 0 0 0
3674 1 36.49548489946004 32.94849648863083 0.0430261650211487 0 0 0
148 2 41.01112154138912 21.993991694386345 2.364656940848764 -1 0 0
2881 1 29.259507208899294 40.572195469887404 0.017207477578338626 0 -1 0
3169 1 32.27220391811127 40.59804965292733 -0.0003438205314978404 0 -1 0
3745 2 38.143342801858665 40.53310198822206 0.0801285668262608 0 -1 0
3926 1 39.65745011516938 27.869882596405372 0.03706379930535775 0 0 0
3134 1 30.78564237299065 38.069483062295596 0.008640998110038822 0 0 0
145 1 41.03722683162911 20.388417705448923 -0.018405047661730123 -1 0 0
3709 2 35.14239138451042 35.515918763086376 0.004252175086236321 0 0 0
3710 1 36.7023142695935 38.11734312625748 -0.0195662225667661 0 0 0
3350 2 33.733861221312324 27.95998201609644 0.028710937387060653 0 0 0
3601 1 35.35282321132415 20.337850488887216 0.07146613001459912 0 0 0
2846 1 27.732823478617906 38.006144869256936 -0.013144806304865142 0 0 0
3062 1 30.95638399275518 27.790665139014877 -0.005074155469870334 0 0 0
3961 2 38.19933339971793 30.334884132716255 0.031878118657090226 0 0 0
3638 1 36.69696426343688 28.004596410498486 0.05925131013441387 0 0 0
2738 1 27.875307521044142 22.746551720697337 0.006378582911224839 0 0 0
2774 1 27.944862680373152 27.964553921119336 0.11246646832505292 0 0 0
2746 1 27.847563246728775 22.89601356546218 9.322154358821784 0 0 0
3036 1 29.350614543403303 22.026904325693316 11.614438285982496 0 0 0
3325 1 32.17883630317279 20.4525446701862 14.116192137847166 0 0 0
3034 1 30.870444465120144 22.78945297601345 9.344186228059991 0 0 0
3322 1 33.84259065594922 22.877992803163096 9.383813985822451 0 0 0
3324 1 32.296969007402524 21.966703683845637 11.597280553247353 0 0 0
3610 1 36.814085378032786 22.85391706903782 9.382562071239443 0 0 0
3612 1 35.129993557260306 22.119871378865323 11.817981955035942 0 0 0
3898 1 39.6185664679537 22.830879965646815 9.308398823949934 0 0 0
3900 1 38.22404083808985 21.95080160342215 11.783950778952082 0 0 0
4012 1 38.06953375861504 37.13055494989026 16.392425696909605 0 0 0
2747 1 27.837983393406745 24.74113247685462 11.698818813149213 0 0 0
3069 1 29.291668094179563 25.26699395878425 9.313688665629126 0 0 0
3035 1 30.70212475250026 24.49677977651206 11.687806986031585 0 0 0
3323 1 33.739143779879484 24.49629880534811 11.765377884959548 0 0 0
3357 1 32.29495056876418 25.33369502061527 9.268659596520111 0 0 0
3360 1 32.35225128637066 27.027265101472498 11.617699691877206 0 0 0
3611 1 36.82384711524645 24.401363682665536 11.715579520507509 0 0 0
3645 1 35.30520767029324 25.388761156354814 9.374282631550297 0 0 0
3648 2 35.179790539838905 26.864746346632984 11.760112067829212 0 0 0
3899 1 39.880074912479586 24.59724595871218 11.681392503554214 0 0 0
3933 1 38.209662980027844 25.387525246586094 9.436438409544056 0 0 0
3936 1 38.033603820830876 27.089924983912603 11.72142727851878 0 0 0
4010 1 39.525375441000776 37.97014836865587 13.954341974507438 0 0 0
3072 1 29.40995272650546 27.144593861926058 11.550668576279671 0 0 0
2782 1 27.815634927706533 27.681177883648033 9.25956941897805 0 0 0
2783 1 27.83483972343294 29.48381642687738 11.738839236440505 0 0 0
3070 1 30.654662294937836 27.94406350847182 9.255117863971366 0 0 0
3105 1 29.322463739435726 30.436390662063328 9.491915552991788 0 0 0
3358 1 33.81215881127855 28.013108650137866 9.422244834045733 0 0 0
3071 2 30.774770582326617 29.614476677532487 11.612954973753387 0 0 0
3359 1 33.77753087849861 29.636163414018938 11.720087305020957 0 0 0
3393 1 32.24100680847022 30.559403648959766 9.40174264204304 0 0 0
3646 1 36.758375034266464 27.962200267269075 9.489801384076012 0 0 0
3647 1 36.7571733814156 29.6129153678929 11.731576948063422 0 0 0
3934 1 39.57532558511454 28.122569754703814 9.368038580235542 0 0 0
3935 1 39.483733401527005 29.617495190419938 11.701487136814267 0 0 0
2818 1 27.94906201733827 32.94947909801576 9.334106762875741 0 0 0
3108 1 29.484528943413025 32.17533664979667 11.757971150782245 0 0 0
3106 1 30.901803148981152 33.06395082201574 9.194018399115228 0 0 0
3394 1 33.84415650053097 33.07847728767887 9.425636343985104 0 0 0
3396 1 32.5149657878727 32.22633056542205 11.672798086780928 0 0 0
3681 1 35.39972599397926 30.657377395337445 9.254384099279289 0 0 0
3682 1 36.68228414045383 33.15544195692584 9.34617760234976 0 0 0
3684 1 35.27602142271532 32.13022536936632 11.69987147197154 0 0 0
232 1 40.80400388937028 32.1379084931265 16.475718560890268 -1 0 0
3969 2 38.17168618979065 30.54238211702953 9.341774143351424 0 0 0
3970 1 39.60512081267407 33.10179024805674 9.30205218433845 0 0 0
3972 1 38.17593977643398 32.124233138521205 11.642297629792152 0 0 0
3177 1 32.24509414757277 40.5586643877525 9.421604784779703 0 -1 0
2819 2 27.928947695531846 34.60360800344853 11.7932135059414 0 0 0
3141 1 29.284139109442158 35.56328782816943 9.361855647975508 0 0 0
3144 1 29.3291048824356 37.303988490255925 11.709813834045699 0 0 0
3107 1 30.90648622175651 34.60865916849804 11.679171016691884 0 0 0
3395 1 33.8771375432176 34.85734531646571 11.6340402358399 0 0 0
3429 1 32.36822225353811 35.59902907490544 9.3741389222425 0 0 0
3683 1 36.68444686486244 34.78101477645484 11.75857247158174 0 0 0
3717 2 35.34187430267221 35.65484296337475 9.250157037332082 0 0 0
3971 2 39.614724108333874 34.85512832064969 11.74819448530939 0 0 0
4005 1 38.19657946923351 35.595252310758944 9.352297010447794 0 0 0
4008 1 38.316263191899694 37.36037824209286 11.44330672077948 0 0 0
2854 2 27.914278155354666 38.23726066524017 9.276685967845259 0 0 0
2855 1 27.771395223213275 39.885662683392134 11.626600250927675 0 0 0
3142 1 30.69792345389451 38.131103981918606 9.392789346946836 0 0 0
3143 2 30.80489810306007 39.76316848637492 11.704457234843654 0 0 0
3432 1 32.30105992437788 37.27336998391019 11.684705528914048 0 0 0
3430 1 33.812040179287024 38.169525812383064 9.354106356348503 0 0 0
3431 1 33.73458704602923 39.69477106805017 11.817235518736421 0 0 0
3720 1 35.252481098845024 37.37133221921128 11.689133226379582 0 0 0
3718 1 36.70291536421371 37.999910807832165 9.283361993950995 0 0 0
3719 1 36.68749382938053 39.85423699362777 11.53604630794546 0 0 0
4006 1 39.635919515086 38.210078260108304 9.1179055994315 0 0 0
4007 1 39.629588075987584 39.83699151851646 11.670541507337784 0 0 0
2750 1 27.875288661981575 22.92153337172965 14.04238540062833 0 0 0
3040 1 29.44470637582915 22.002789228821474 16.298454859580875 0 0 0
3038 1 30.772745499214366 22.922632368728888 13.966582032135282 0 0 0
3326 1 33.73835856430479 23.031301324672953 14.044393495813168 0 0 0
3328 1 32.248147786119375 22.21695045348212 16.40220992915568 0 0 0
3614 1 36.768802581719726 22.77130498032392 14.075068480540326 0 0 0
3616 1 35.199482712751504 22.04590557389653 16.52360479448725 0 0 0
3613 1 35.02012019754564 20.338386776482217 14.047960689937693 0 0 0
3902 1 39.65893703598135 22.740641998044524 14.110949814603785 0 0 0
3904 2 38.270565403256185 22.058653353557336 16.533592245476665 0 0 0
268 1 40.998243491626965 37.119825172565946 16.314536982503206 -1 0 0
160 1 40.9168188297586 21.88063540346817 16.437886695550738 -1 0 0
2751 1 27.780598877641836 24.66073704246929 16.355534039184015 0 0 0
3073 1 29.397137271100522 25.508210728395014 14.180380867115934 0 0 0
3076 1 29.348261535846344 27.164681774810408 16.485408239094333 0 0 0
3039 1 30.908789785177277 24.610705215048444 16.404898306879694 0 0 0
3327 2 33.74981725827608 24.618351777974183 16.611213891356545 0 0 0
3361 1 32.47930395526522 25.43451907642775 14.082903410563459 0 0 0
3364 1 32.30711295121381 27.021977446427105 16.352117291496278 0 0 0
3615 1 36.71186389003819 24.38650322774754 16.444325162175268 0 0 0
3649 1 35.29932112608891 25.269848949775753 14.286607635814534 0 0 0
3903 1 39.56802930613702 24.526566058354994 16.526976180556826 0 0 0
3937 1 38.197452356036194 25.325610581411524 14.060094616601111 0 0 0
3940 1 37.88578436703743 27.036201557955874 16.498330674036108 0 0 0
2786 1 27.971304507117146 27.81619026744878 13.927793814330066 0 0 0
2787 1 27.862457247778305 29.629044731222198 16.346075160248745 0 0 0
3075 1 30.82042743146132 29.608911820646213 16.454014298404594 0 0 0
3074 1 30.92516595311542 27.995760252634913 13.900058517564613 0 0 0
3362 1 33.774938743830916 27.931557722139356 13.980959445902664 0 0 0
3363 1 33.76251231437466 29.721824554158175 16.376175422466265 0 0 0
3652 1 35.121714507838206 27.123883449538912 16.603585123321672 0 0 0
3650 1 36.63013116114257 27.888944335320396 14.044838874969553 0 0 0
3651 1 36.747885626960425 29.6101465180447 16.34640513133015 0 0 0
3938 1 39.42358330493363 27.955559040966115 14.216138125111275 0 0 0
3939 1 39.55432447205496 29.622290914392547 16.396605259688855 0 0 0
4011 1 39.54873551556696 39.89273521515214 16.41004137758101 0 0 0
3109 1 29.408070300052568 30.4074892546293 13.978452083641491 0 0 0
2822 1 27.945177499253404 32.98491270966656 14.09579279838381 0 0 0
3112 1 29.440058517422376 32.009505907381865 16.348727053402687 0 0 0
3110 2 30.96336851873771 32.98751279530788 14.018294438261979 0 0 0
3397 1 32.186164570790865 30.362878977484606 13.967593705798384 0 0 0
3398 1 33.79232766305458 33.056343316885425 14.009100627687625 0 0 0
3400 1 32.21649211055475 32.100152354107095 16.371277923378063 0 0 0
3685 1 35.296312516950806 30.586504292431865 14.012434593251223 0 0 0
3686 1 36.55887747275861 33.044048872978735 14.011561174336062 0 0 0
3688 2 35.19238263643521 32.262312869623095 16.341688301536067 0 0 0
3722 1 36.708646340452376 38.026261285830735 14.064448087059052 0 0 0
3973 2 38.10068202591202 30.618118966321674 14.082415517127192 0 0 0
3974 1 39.58337595479334 33.0004587107851 13.943309750013535 0 0 0
3976 1 37.976465801167606 32.18035783332097 16.406182883491212 0 0 0
2823 1 27.847225014793946 34.78793768225877 16.52655121609609 0 0 0
3145 1 29.42392953453674 35.517190157056795 14.05692956520104 0 0 0
3148 1 29.33755079132472 37.23382911113136 16.416068423590637 0 0 0
3111 1 30.796370291862253 34.62410757193995 16.401586239473566 0 0 0
3399 1 33.79462737190954 34.696854470488894 16.38693005476056 0 0 0
3433 1 32.34014806059268 35.46811235738182 14.012399855881474 0 0 0
3687 1 36.53632486431401 34.74009362787443 16.266009851493973 0 0 0
3721 2 35.17637669748065 35.68101865553025 14.005560358508353 0 0 0
229 1 40.992086140734216 30.494796794758145 14.022671411902813 -1 0 0
3975 1 39.494900056980754 34.6061823420541 16.243943414611444 0 0 0
4009 1 38.065652082762725 35.539897914597724 13.908955312306842 0 0 0
3724 1 35.06216266156186 37.31513283811406 16.448442291178264 0 0 0
3146 1 30.707240179958074 38.06899016413784 13.888046861931919 0 0 0
3147 2 30.638364329630072 39.69187498794262 16.336776592316728 0 0 0
2859 1 27.777500732610953 39.837606583332935 16.403416470205304 0 0 0
2858 1 27.763591620654523 38.07739665090003 14.029521637218172 0 0 0
3435 1 33.56708544256712 39.70807789499997 16.351535639609363 0 0 0
3609 1 35.1035910289913 20.370062314504732 9.492080145440584 0 0 0
3436 1 32.26547847604513 37.17687043288379 16.418026357483452 0 0 0
3434 2 33.670705105179664 37.98797371672033 14.048024973283665 0 0 0
3723 1 36.64470431874645 39.84872101986323 16.485215855368462 0 0 0
3037 1 29.371022206656065 20.32328248149504 13.891760331015135 0 0 0
196 1 41.019881739171694 27.02760759540225 16.46385144760932 -1 0 0
228 1 40.9806935217735 32.253433671214864 11.587102243263836 -1 0 0
261 1 41.03871437478824 35.61243861029163 9.373827889695999 -1 0 0
3181 1 32.18739085768152 40.42966545536267 14.116378891459922 0 -1 0
3033 1 29.337161638291317 20.34743132312756 9.417256429345045 0 0 0
3897 1 37.97152799112199 20.323411904327557 9.3546200846631 0 0 0
3321 2 32.278560321158565 20.422324464834677 9.363185779726697 0 0 0
3469 1 35.1347725834237 40.4495574376798 14.11510847367828 0 -1 0
2893 1 29.428928072062316 40.53051419598071 13.996599162437377 0 -1 0
3901 1 38.10205407860789 20.35408264485635 14.310964881017954 0 0 0
2754 1 27.917850931046697 22.885124767683575 18.697967800460738 0 0 0
269 2 40.987005978766135 35.557705694159914 18.69071326751929 -1 0 0
3042 1 30.831178605137847 22.805890350720883 18.77718307107784 0 0 0
3330 1 33.760348533652106 22.888179181178355 18.61938268187162 0 0 0
273 2 40.99477681437 35.50660255377279 23.475745941002923 -1 0 0
3618 1 36.70226760287048 22.751441713168255 18.9146933229789 0 0 0
3909 1 38.23608938080625 20.31475985343485 23.499335499579885 0 0 0
3906 1 39.68464487163162 22.931672167238073 18.706713738172564 0 0 0
272 1 40.955135045437274 37.19959568582982 21.207636853221395 -1 0 0
3077 1 29.312811590318784 25.397037477647856 18.72225330566204 0 0 0
3365 1 32.25664747215379 25.435103466427744 18.836353808630673 0 0 0
3331 1 33.839043009699125 24.60910256995888 21.147994031018026 0 0 0
3653 1 35.218165650425405 25.276545807807057 18.964134937301864 0 0 0
3941 1 38.10300877246999 25.48845238950043 18.734042579593698 0 0 0
3907 1 39.628326000293654 24.515425691584042 20.97169803447015 0 0 0
4018 1 39.410602859308284 38.1308535241224 23.396048584446113 0 0 0
2790 1 27.93522976540627 28.021466092829417 18.806738379573005 0 0 0
3078 1 30.798452227547987 27.93279398995194 18.768984541518417 0 0 0
2791 1 27.929407161397286 29.740095333755825 21.253608842201867 0 0 0
3113 2 29.379030129495604 30.42623446363085 18.759334314637343 0 0 0
3079 1 30.710797434373006 29.653634853480476 21.158091926282193 0 0 0
3366 1 33.759636906461296 28.008163757784747 18.805136197694285 0 0 0
3367 2 33.53754543687718 29.666286688366654 21.105559012628344 0 0 0
3654 2 36.62485993605401 27.880038422919487 18.724541266644206 0 0 0
3689 1 35.217215100281365 30.366685487141538 18.789403743140944 0 0 0
3942 1 39.451752240655736 27.90877546214914 18.755034653922277 0 0 0
3977 1 38.10474339375358 30.44704595967991 18.863888477832262 0 0 0
3329 1 32.232712022043756 20.5252171560968 18.70584523747769 0 0 0
2826 1 27.91330304327375 32.8436602749279 18.827720712761558 0 0 0
3116 1 29.336004090545906 32.00386837606278 21.104780470015147 0 0 0
3114 1 30.664924276676015 32.99285397762585 18.677081520992058 0 0 0
3401 1 32.11385232185185 30.38810388787189 18.81714066541555 0 0 0
3402 1 33.84843185867199 33.15163291229057 18.549292019381763 0 0 0
3404 1 32.40930479595755 32.22692108855572 21.05459110717644 0 0 0
3690 1 36.64561554069178 33.025992424437 18.73462400918078 0 0 0
3978 1 39.708459036870366 33.07144073604508 18.857140974853284 0 0 0
4016 2 37.910898438435055 37.3111524430459 21.206128072336252 0 0 0
3149 2 29.20954851684044 35.58412763834667 18.72954120630726 0 0 0
3152 1 29.360359318586575 37.18804240090112 20.993292743666824 0 0 0
2827 1 27.813756172069734 34.64388578841326 21.10930573375425 0 0 0
3437 1 32.193070456119315 35.58430414826771 18.61186792426166 0 0 0
3725 1 35.047080492666325 35.64938456108068 18.66725430087884 0 0 0
3691 1 36.64268914233952 34.78420936192299 20.980065706538912 0 0 0
4013 1 38.25896143634587 35.72732945311556 18.77622508553261 0 0 0
2862 1 27.893392991604482 38.058039204833165 18.665908413471143 0 0 0
3151 1 30.749861142753574 39.69414450447009 21.042312946958624 0 0 0
2863 1 27.9565971035955 39.69500782149405 21.061324078936682 0 0 0
3150 1 30.944151628070703 38.03710909412675 18.740330066648646 0 0 0
3438 2 33.652922397630604 38.0547621399529 18.701393337693144 0 0 0
3439 1 33.790286801093714 39.604093387774924 21.285960962259438 0 0 0
233 1 40.969255655536614 30.42411681765912 18.821401463641205 -1 0 0
3185 1 32.38282120210569 40.50535268205571 18.816707689162765 0 -1 0
3726 1 36.685109997222085 37.983543463020546 18.710501117656047 0 0 0
4014 1 39.44734064682942 38.079266810901025 18.772679872225755 0 0 0
4015 1 39.538892058221876 39.852535279968215 21.167113784017356 0 0 0
3044 1 29.215413222686884 21.843724772825396 21.067120254274236 0 0 0
2758 2 27.81289401199071 22.834950180912116 23.499144593940674 0 0 0
3046 1 30.718611587509688 22.829688193970213 23.54880558037701 0 0 0
2866 1 27.89830525765881 37.97961216329017 23.307934265995875 0 0 0
3332 1 32.262289782463384 22.16338420976862 21.056556449117075 0 0 0
3334 1 33.65958052228636 22.88018543410054 23.448569327962392 0 0 0
3620 1 35.08899704486656 22.03837983787532 21.164184471214902 0 0 0
3622 1 36.77861851124506 22.76866246253343 23.352968182224803 0 0 0
3728 1 35.12097992971424 37.12954058737883 20.953020427498565 0 0 0
3908 1 38.22180388901154 21.89255037084111 21.001556386781655 0 0 0
3910 1 39.69140146330534 22.81446988659889 23.37949318414652 0 0 0
3440 1 32.25392583822229 37.21428799282798 21.131889072765272 0 0 0
3080 1 29.266515174260906 27.029388167318803 21.195610796734076 0 0 0
2755 1 27.86220017213622 24.45770577540775 21.04025757383104 0 0 0
3081 1 29.277342381878356 25.17208264108457 23.46352297470112 0 0 0
3043 1 30.76764677162891 24.522915949189418 21.037352446936055 0 0 0
3369 1 32.24205754527489 25.344253632534244 23.368091926781595 0 0 0
3619 2 36.82514811593799 24.491765530335613 21.1332152349026 0 0 0
3657 1 35.075281635650796 25.462336324448085 23.35195302135547 0 0 0
3730 1 36.50236239670734 38.00845273019345 23.501733808591688 0 0 0
3945 1 38.07681434864901 25.48398178791465 23.36872469512049 0 0 0
2794 1 27.825803530588317 27.96395556973572 23.60866731953897 0 0 0
3082 1 30.682089146400354 27.98632081938973 23.42034753178403 0 0 0
3117 2 29.297859063588643 30.474623872616625 23.46857645237077 0 0 0
3368 1 32.314764323762645 27.087680389664346 21.139394207830335 0 0 0
3370 1 33.6611510837801 28.039827075682105 23.52618351723959 0 0 0
3405 1 32.27195006267975 30.432712236960775 23.37377175086117 0 0 0
3656 1 35.212226278411634 27.211707732463974 21.1831310036799 0 0 0
3655 1 36.39551567881486 29.67120752038046 21.174506929049382 0 0 0
3658 1 36.70948089089276 28.053356762535007 23.555866902795238 0 0 0
3693 1 34.98515214816514 30.50002939192259 23.49317046840766 0 0 0
3943 2 39.49723770869109 29.67514808729682 21.041454972844406 0 0 0
3944 1 37.97078736218886 27.173191959269037 20.950651940808378 0 0 0
3946 1 39.55629839139958 27.984731293215045 23.314414410489345 0 0 0
3981 1 38.049356506004884 30.49780372285397 23.465448829478305 0 0 0
2830 1 27.83603324096232 32.84261306456122 23.388608496011475 0 0 0
3118 1 30.770348789509665 32.94174155004959 23.480320367715596 0 0 0
3406 1 33.77766187699382 33.03401646884504 23.497722190459754 0 0 0
3692 1 35.16789014414029 32.24596013344658 21.035042618700793 0 0 0
3694 1 36.54408467553979 33.03950868829658 23.443901553895078 0 0 0
3980 1 38.1406399622262 32.18427985287648 21.245726079604932 0 0 0
3982 1 39.49941903703527 33.07436367778923 23.400590831860175 0 0 0
3115 1 30.820147461374663 34.60768869803169 20.98679331149331 0 0 0
3153 1 29.34407771599579 35.52844295801086 23.432494398779724 0 0 0
3403 1 33.64448396860375 34.6384142987443 20.93103494443499 0 0 0
3441 1 32.195473353331465 35.357814221904555 23.41550434156133 0 0 0
3729 1 35.12094000623064 35.55366732885689 23.47521640314198 0 0 0
3979 1 39.51375487016195 34.909582611068245 21.097811580254906 0 0 0
4017 1 38.05517021445762 35.63656819787852 23.40055832312879 0 0 0
3727 1 36.55365825861307 39.77437171739665 21.236178827459494 0 0 0
3442 1 33.55936424698449 37.993297038949976 23.487183050988083 0 0 0
3154 2 30.735940580928265 37.98395814897543 23.43230244632747 0 0 0
3477 2 35.16593006519372 40.596363814913644 23.55864122448843 0 -1 0
3333 1 32.06171862251122 20.413572656806373 23.48483367673052 0 0 0
237 1 40.93156709591804 30.542224723165738 23.485095975171426 -1 0 0
2901 1 29.309212215814473 40.39527546718432 23.44163281583665 0 -1 0
236 1 40.99304380816815 31.927155929448634 21.17159328072064 -1 0 0
200 1 40.87339883315465 27.137543643219793 20.978324252860556 -1 0 0
3473 1 35.247703197523464 40.4976082893945 18.789813572716387 0 -1 0
3041 2 29.30443638742864 20.374096186566497 18.644582145345595 0 0 0
3189 1 32.09532758579083 40.51950435203178 23.562431597027942 0 -1 0
17 1 40.86580028339202 40.58984409533206 18.63646604375098 -1 -1 0
3761 2 38.0186319103812 40.535709970684536 18.78635017457728 0 -1 0
3045 2 29.22071013773783 20.375608042468336 23.38256259194223 0 0 0
2897 1 29.419576036353924 40.58854198549895 18.677943554717917 0 -1 0
3617 2 35.12262696294151 20.396896740497485 18.779997186196802 0 0 0
2762 1 27.803932066770486 22.827506740394917 28.172225107410405 0 0 0
3048 1 29.329986636544003 21.93015913525654 25.7422066871425 0 0 0
3050 1 30.78153621626996 22.85388981132611 28.243701523307422 0 0 0
3336 2 32.17244047748184 21.965123301201274 25.84256883349727 0 0 0
3338 1 33.681731803164595 22.759601984027892 28.003371696105148 0 0 0
3624 1 35.14988208970445 21.91617711193933 25.584910456934637 0 0 0
3626 1 36.597873643440124 22.76193906692762 27.865198141198608 0 0 0
3481 1 35.31270608469549 40.53852860947791 28.247631905360294 0 -1 0
3912 2 38.138058851872174 21.892977257087203 25.72433881955493 0 0 0
3914 1 39.637743208331955 22.765083738942117 27.896804711484 0 0 0
208 1 41.039406938969094 26.991364065635736 30.412664461209282 -1 0 0
4026 1 39.680402193478045 38.089459228624044 32.82048836379501 0 0 0
3159 1 30.778828852009802 39.72735363387168 30.384361957193338 0 0 0
2759 1 27.892936101776208 24.46545428137447 25.85736251999173 0 0 0
3085 1 29.368114317212914 25.406491370585435 28.221169354291078 0 0 0
3047 1 30.892888972489413 24.64299944532985 25.907395804145093 0 0 0
3084 1 29.20250797190209 27.085566757202333 25.884372599336807 0 0 0
3335 1 33.67992734670601 24.491710519987446 25.739347306461067 0 0 0
3373 1 32.327239322299974 25.527570080250722 28.195847552691525 0 0 0
3623 1 36.63444160567863 24.507093778606038 25.68290843735636 0 0 0
3661 2 35.285523121201265 25.355730472665453 27.974016494946362 0 0 0
3911 1 39.46976217534228 24.39317651411913 25.62583824702364 0 0 0
3949 1 38.12259316563254 25.28269961860463 27.90976108763395 0 0 0
240 1 40.92749319704289 32.06732394954437 25.96785605510204 -1 0 0
2798 1 27.78507537266735 27.995454380001004 28.050513025719454 0 0 0
2795 1 27.872899341625377 29.626143710490023 25.86030880224186 0 0 0
3121 1 29.35631859399533 30.56425549133071 28.18447460717832 0 0 0
3086 1 30.7401650163198 28.145038090150912 28.141528248136915 0 0 0
3083 1 30.742223560973635 29.629237127677982 25.760344103085654 0 0 0
3372 1 32.29506014129274 27.08304850625815 25.77548582971587 0 0 0
3374 1 33.79269723414893 27.843035542672112 28.13050741744945 0 0 0
3371 1 33.5765998193657 29.667782524649084 25.851397908869803 0 0 0
3409 1 32.25553947499755 30.497836968108796 28.14335591977092 0 0 0
3660 1 35.19155092052419 27.131572986515465 25.92855971739724 0 0 0
3662 1 36.69750336219893 27.873361520028652 28.110919457699417 0 0 0
3659 2 36.585893340729385 29.728567711259686 25.83564471618695 0 0 0
3697 1 35.162932367439 30.44578461186543 28.11029110697603 0 0 0
3948 1 38.11963984185276 27.223800711410796 25.74465067771154 0 0 0
3950 1 39.67453542023355 27.973983617456035 28.07961362846975 0 0 0
3947 1 39.60856757248254 29.698900542166076 25.737327113646636 0 0 0
4023 1 39.58468036938049 39.6443399395145 30.583748153378625 0 0 0
2834 1 27.94662597688633 32.98423816266739 28.083953004325828 0 0 0
3120 1 29.252087982015688 32.144876753128415 25.82695803991087 0 0 0
3122 1 30.940024785253254 33.112273402222584 28.10183851062304 0 0 0
3408 1 32.3633975832434 32.04332242000791 25.708169757451905 0 0 0
3410 1 33.687638063595614 33.03594000213525 28.07851782638106 0 0 0
3696 2 35.11389196957943 32.07973477502239 25.85985066270882 0 0 0
3698 1 36.58577301711969 32.91381231046693 28.072431781685584 0 0 0
3985 1 38.12150277066414 30.515251253259013 28.124326428850292 0 0 0
3984 1 37.9642447677862 32.374347988921464 25.712036932863107 0 0 0
3986 1 39.420799314658254 32.96803191326973 28.14324574322916 0 0 0
2831 1 27.84065976674427 34.52831137161978 25.73440842986143 0 0 0
3157 1 29.462429132869115 35.64496244488455 28.12829818901272 0 0 0
3156 1 29.29346093476389 37.127867357863714 25.615874808234448 0 0 0
3119 1 30.699571918265796 34.584609706610856 25.81221396005585 0 0 0
3407 1 33.76922321808232 34.62260256920856 25.778328794891173 0 0 0
3445 2 32.30885635224446 35.56819129084518 27.961814488286056 0 0 0
3444 1 32.17048180126754 37.25741611491703 25.806428885415816 0 0 0
3695 1 36.52248213597308 34.67900877652059 25.802367046108092 0 0 0
3733 1 35.13993718048346 35.5943761816396 28.253745488065764 0 0 0
3732 1 35.10239182915153 37.29474689707362 25.77990929341888 0 0 0
3735 1 36.69917014768886 39.58218923159191 30.518995023374547 0 0 0
3983 1 39.50779547162948 34.81024478858087 25.68270207612252 0 0 0
4021 1 38.12133407904369 35.542408299200694 28.100407665437697 0 0 0
2867 1 27.846233489880152 39.6548408681934 25.787444372621138 0 0 0
2870 1 27.863485680517407 37.98775264784683 27.985200767933975 0 0 0
3158 1 30.76372245225902 38.10598058145469 28.040204593001842 0 0 0
3155 1 30.808155961514203 39.815340596989984 25.76514433250344 0 0 0
205 1 40.960113490095196 25.391791934104873 28.049947727939966 -1 0 0
3443 1 33.745943811416495 39.84847680911609 25.814412055959025 0 0 0
3446 1 33.73631527073577 38.04446098276419 28.140682840713172 0 0 0
3450 1 33.761667939518205 38.086541251984485 32.92896615583152 0 0 0
3731 1 36.601687201557056 39.802943739623736 25.805804944124077 0 0 0
3734 1 36.765775030502084 38.00315073841138 28.171422872751165 0 0 0
276 1 40.93827678681857 37.270394448686034 25.758902386565907 -1 0 0
4020 1 38.06889173359997 37.24267339939576 25.937504534389188 0 0 0
4019 1 39.604330051898046 39.76344645714699 25.780308363268176 0 0 0
4022 1 39.62950495527022 38.15886982576423 28.24461038672897 0 0 0
3736 1 35.184630631211405 37.21285724633167 30.591319064219917 0 0 0
244 1 41.03891121756456 32.12500843193519 30.42427534102774 -1 0 0
2766 2 27.9360733460036 22.948065791736333 32.96883998000757 0 0 0
3052 1 29.27596378564246 22.08534667173216 30.468682396580995 0 0 0
3054 1 30.72378333902524 22.99812415374248 32.97222818644185 0 0 0
3340 1 32.17345376825898 21.9917057991332 30.561230725004712 0 0 0
3342 1 33.774594768746866 22.688712644683896 32.85894495826808 0 0 0
3628 1 35.188718778980245 21.841417442139193 30.348853784053578 0 0 0
3630 1 36.6301970814697 22.816889338853695 32.80820217230709 0 0 0
3162 1 30.820038217418002 37.96063596449096 32.895246976664154 0 0 0
3916 1 38.13901030868689 21.964178599068948 30.360938312646674 0 0 0
3918 1 39.566692195555575 22.768366506411525 32.84490205333411 0 0 0
2763 1 27.86392069526822 24.63582256077161 30.61825469289696 0 0 0
3089 1 29.401374663344214 25.523741880059685 32.73453431191521 0 0 0
3088 1 29.360607166108625 27.234859324752136 30.543696788472605 0 0 0
3051 2 30.771244129971002 24.595415863726316 30.569895701492214 0 0 0
3339 1 33.64605146902163 24.51932712191251 30.503990659353008 0 0 0
3377 1 32.36197667895658 25.34362177924938 32.86292885781687 0 0 0
3376 1 32.218231670362144 27.071432826455506 30.585418655720023 0 0 0
3627 1 36.524617972563945 24.323176924027646 30.371460568258737 0 0 0
3665 1 35.31930572038978 25.301430539682972 32.75759507560572 0 0 0
3664 1 35.320133574682984 27.067001695466207 30.30375702984741 0 0 0
3915 1 39.5061060551688 24.47961787854527 30.364288245030988 0 0 0
3953 1 38.00278672773976 25.395002790762504 32.52847706625241 0 0 0
2871 1 27.91880868724663 39.769026178232416 30.45908815662673 0 0 0
3447 2 33.59201174154697 39.679457535395095 30.418882789808254 0 0 0
2802 1 27.774155600501448 27.864408933114014 32.83914346694182 0 0 0
2799 1 27.79887554699723 29.680688309959713 30.26366765075782 0 0 0
3087 2 30.81579507239269 29.650273826527194 30.44163978139894 0 0 0
3125 1 29.307305276439426 30.472019702832643 32.78843156534087 0 0 0
3090 1 30.65922068167923 28.020909373525246 32.828376248135996 0 0 0
3378 1 34.045503698063584 27.830310481812976 32.72518102769561 0 0 0
3375 1 33.50313444009252 29.56766748306756 30.558924669913246 0 0 0
3413 1 32.14526725500849 30.516875847706192 32.77734816975932 0 0 0
3666 2 36.75899753461577 27.78216506547823 32.661429942681025 0 0 0
3663 1 36.63214544185627 29.563035688902083 30.394160692436085 0 0 0
3701 1 35.18113055204847 30.351246181142763 32.7137302412831 0 0 0
3952 1 38.24487647865415 27.034557035134196 30.256954886844163 0 0 0
3954 1 39.61956979320611 27.90586102940521 32.821440460850454 0 0 0
3951 1 39.69641533424597 29.664920276235254 30.4542527804558 0 0 0
3989 1 38.19251805933544 30.455029511385767 32.82607666339382 0 0 0
2838 1 27.74170546916932 33.18406072871844 32.716227145717525 0 0 0
3124 1 29.33796766415169 32.18435196205896 30.407001124790018 0 0 0
3126 1 30.776663856971368 33.04980900596819 32.69264216023673 0 0 0
3412 1 32.05478845005041 32.14400227738792 30.50827649350165 0 0 0
3414 1 33.69972031520547 33.04511547565932 32.76116705621685 0 0 0
3700 1 35.04553111539461 32.13721052064379 30.626445473182464 0 0 0
3702 1 36.79786289627414 32.97453443002385 32.93097630923039 0 0 0
3988 1 38.08298504083953 32.19524623661845 30.450708324668483 0 0 0
3990 1 39.58085697411356 33.09794663124075 32.812344030053694 0 0 0
3738 1 36.64540448771501 37.924492353844045 32.99112616352453 0 0 0
2835 1 27.95634099370403 34.748327127301806 30.42072824031248 0 0 0
3161 1 29.279099468671 35.55987296526222 32.79628571818121 0 0 0
3123 1 30.793191027127833 34.853783166649464 30.405131759029373 0 0 0
3160 1 29.308905423865912 37.18703787379608 30.50278070992704 0 0 0
3411 1 33.72607780742901 34.79150437445391 30.515651230411617 0 0 0
3449 1 32.24253693553385 35.47556513796874 32.77016829894808 0 0 0
3448 1 32.212853982420796 37.31747171608148 30.414167761875426 0 0 0
3699 1 36.66088756368633 34.667898710731805 30.52864313766729 0 0 0
3737 1 35.079250026952266 35.4501145083007 32.8758166680216 0 0 0
4024 2 38.1486157598429 37.11888968510735 30.498599783568615 0 0 0
3987 1 39.57687063776423 34.78595638596872 30.36381242407977 0 0 0
4025 1 38.12228321692601 35.54462557377956 32.674005017358425 0 0 0
209 1 40.99089355134928 25.419833543013123 32.764760610710525 -1 0 0
2874 1 27.754175233197618 38.00040328908288 32.775612504384654 0 0 0
3197 1 32.252693856429275 40.593594292079885 32.7010623146728 0 -1 0
241 2 40.94195873771021 30.437873220323944 28.101050464102478 -1 0 0
2905 2 29.30730834136028 40.530856993971206 28.097302473133016 0 -1 0
3053 1 29.256834283395523 20.45876364170429 32.78796591706731 0 0 0
3193 1 32.3288013069491 40.51672993075674 28.213342688381235 0 -1 0
3913 1 38.014756898742746 20.354743154248148 28.12370180915177 0 0 0
3773 1 38.15077002493429 40.57812651250362 32.73134026003032 0 -1 0
2909 1 29.33666117469306 40.53737139651581 32.85812025498565 0 -1 0
3485 1 35.095062716544305 40.520839092405446 32.815417984778904 0 -1 0
168 1 41.002232362020315 21.987371350912408 25.78424791552279 -1 0 0
172 1 41.016891964071974 21.98602573009659 30.46530580499626 -1 0 0
280 1 41.0342196714848 37.139846278758405 30.557977716221234 -1 0 0
3629 2 35.21086063775549 20.314414086022587 32.75071348138482 0 0 0
3769 1 38.28634358288346 40.56098703207745 28.154032679423985 0 -1 0
3341 1 32.1805713086338 20.469201341124407 32.99960469965343 0 0 0
2770 1 27.781024123792676 22.98678706600363 37.52085955001709 0 0 0
3056 1 29.31253359487354 22.12909001448935 35.20948800525045 0 0 0
3058 1 30.856932190874403 22.935198494584167 37.532562591487064 0 0 0
3344 1 32.3109158173438 22.11536468294764 35.33561129551413 0 0 0
3346 1 33.686064178783084 22.8170621006044 37.60855333814071 0 0 0
3921 2 38.24590192120522 20.31482508292849 37.53025607782469 0 0 0
3632 1 35.29591441586797 22.024717437724327 35.07291935946877 0 0 0
3634 1 36.7358217481616 22.736217053323024 37.474711212618715 0 0 0
249 2 41.023470936749696 30.37015572823066 37.53560888584667 -1 0 0
213 1 40.9699967709666 25.299706309556765 37.49058109860135 -1 0 0
3920 1 38.258939554044446 22.110619847119633 35.23313483656189 0 0 0
3922 1 39.57384652246736 22.798028010753814 37.48424097501817 0 0 0
4031 1 39.49190534674739 40.02787852841771 39.82352228322827 0 0 0
2767 1 27.8535692721916 24.57753563904978 35.30208864310244 0 0 0
3093 1 29.378835782765545 25.484785627966364 37.46947514851507 0 0 0
3055 2 30.929755851875868 24.60789096036171 35.179267802476005 0 0 0
3343 1 33.85356966014382 24.482201690880505 35.14181023170961 0 0 0
3381 1 32.36483448259011 25.364652348421743 37.44015249022054 0 0 0
3380 1 32.34382801838373 27.135695566552105 35.00333080697352 0 0 0
3631 2 36.81710605762723 24.47815026285991 35.114703103952166 0 0 0
3669 1 35.345934077298594 25.345879732113456 37.532746698908326 0 0 0
3668 1 35.33446977181934 26.994672303151763 35.028105701889615 0 0 0
3919 1 39.523452291213516 24.59766930521468 35.02366292583382 0 0 0
3957 1 38.20209864528269 25.451560329749046 37.45597246390686 0 0 0
3956 1 38.18620666137299 26.98059078339049 35.12205254122277 0 0 0
3092 1 29.404995569419974 27.172959569216626 35.079481210841365 0 0 0
2806 1 27.89942471004455 28.01449185850371 37.55262492541074 0 0 0
2803 1 27.807829540446843 29.6160143598445 34.96458515460641 0 0 0
3129 1 29.266502315295853 30.457775061925492 37.56036477807622 0 0 0
3091 2 30.69404679801793 29.68140709485245 35.23873448529881 0 0 0
3094 1 30.81854118588523 27.98807807329669 37.33323805276734 0 0 0
3382 1 33.769688148667996 27.832222645251257 37.439012475763946 0 0 0
3379 1 33.536588265914986 29.55873446119824 34.978984385289166 0 0 0
3670 1 36.65019785675109 27.895314179856364 37.40649307522624 0 0 0
3667 1 36.61831973406687 29.55199137567866 35.08753571421046 0 0 0
3958 1 39.56950181615642 27.889107236805756 37.43439332137366 0 0 0
3955 1 39.6756196430038 29.637306433100814 35.13482858595083 0 0 0
3993 1 38.15147932827469 30.520489900308668 37.477158032864295 0 0 0
4032 1 38.266827577155624 37.211726444255866 39.70831732510017 0 0 0
248 1 40.92573686296129 32.116730487909635 35.13568890023426 -1 0 0
2842 1 27.82635578499562 32.99998095361591 37.51005320705039 0 0 0
3128 1 29.335201713764555 32.12123287435459 35.060349190931674 0 0 0
3130 1 30.754343877880583 33.0552256457676 37.507174049692594 0 0 0
3417 1 32.17453502670156 30.32249194090219 37.48455554752026 0 0 0
3416 1 32.302069035693066 32.151595383723524 35.121498615768076 0 0 0
3418 2 33.739790035826886 32.906900234452486 37.5097838501663 0 0 0
3705 1 34.979834094473816 30.274186808337138 37.37619431360859 0 0 0
3704 1 35.22054562572198 32.07585960714949 35.197080380892544 0 0 0
3706 1 36.6190340916056 32.967158517612155 37.455107629396096 0 0 0
3992 2 38.11706074014768 32.19928716533633 35.23582427622344 0 0 0
3994 1 39.553309611800145 32.7573317581425 37.563063045530626 0 0 0
2839 1 27.91212581575417 34.651288045920566 35.072366954096196 0 0 0
3165 1 29.377869180862625 35.48479669539311 37.527149798796174 0 0 0
3127 1 30.81195017865003 34.690268410649544 35.19947738346059 0 0 0
3164 1 29.29464956445473 37.19715695917297 35.22513246716946 0 0 0
3415 1 33.68282495664508 34.6137819448289 35.183206877607304 0 0 0
3453 1 32.22772539463219 35.34601999066982 37.52247438477558 0 0 0
3452 1 32.254359189282766 37.07478935082631 35.193473079930754 0 0 0
3703 1 36.833358834312904 34.62403475297872 35.16058363378798 0 0 0
3741 1 35.17555207838224 35.424224680065706 37.43987460308415 0 0 0
3740 2 35.09516871148074 37.18508929302675 35.22791664511972 0 0 0
3991 1 39.56594100648559 34.65749075217716 35.086526306838266 0 0 0
4029 2 38.12729908075603 35.553711848420996 37.46457537087876 0 0 0
4028 1 38.09366623535402 37.216173340416766 35.20258371236116 0 0 0
212 2 40.998480316200535 27.02752002378333 35.22377480939869 -1 0 0
2913 1 29.284702617441127 40.49248247314259 37.45413129233309 0 -1 0
2875 2 27.692403948093105 39.66712092228166 35.178589404171476 0 0 0
2878 1 27.91163228178426 37.959435553293524 37.39582281705735 0 0 0
3166 2 30.725958076574045 37.96313500609634 37.42657485331863 0 0 0
3163 1 30.709460347310877 39.70790332838201 35.23226343346087 0 0 0
3451 1 33.81317682889953 39.92822459814425 35.17351259687953 0 0 0
3454 1 33.54085872213827 38.12293070326818 37.45067061288326 0 0 0
3057 1 29.366744500618267 20.32180775299601 37.491152153775914 0 0 0
3739 1 36.65636895410826 39.62225133956747 35.15371523161218 0 0 0
3742 1 36.48208628111729 38.029268283264166 37.50435979859273 0 0 0
3026 1 30.671107184629562 22.896235327048185 42.174227385759266 0 0 -1
4027 2 39.650300605804034 39.69282160767814 35.11146049724279 0 0 0
4030 1 39.572682259576155 38.13985681304293 37.48471790752964 0 0 0
216 1 40.948538207352385 26.918202568446596 39.88347283387887 -1 0 0
3060 1 29.285724112755297 21.888387754133177 39.85096679369373 0 0 0
3457 1 35.11779176948316 40.58148626507183 42.11461566351643 0 -1 -1
2879 1 27.669428957053533 39.778612381622565 39.857609403588185 0 0 0
3348 1 32.2079532946906 22.038112319120494 39.90522432402126 0 0 0
3995 1 39.491364711406206 34.56441316493481 39.78914541741662 0 0 0
3636 1 35.16039568286554 22.070485378211714 39.965509638097316 0 0 0
3924 1 38.09564108368993 21.87881081060667 39.907634112580126 0 0 0
2771 1 27.98960692267989 24.565299137436188 39.956395815158345 0 0 0
3059 1 30.885134061345948 24.579954066759452 39.86107796818578 0 0 0
3096 1 29.423273976270966 27.06477724913414 40.000644451820406 0 0 0
3456 1 32.1869015323627 37.22993636604161 39.75034691372636 0 0 0
3347 2 33.7340129929711 24.522394814300224 39.849988478381434 0 0 0
3384 1 32.38972403945505 27.056833844707775 39.65720802576794 0 0 0
3635 1 36.52625026798174 24.505449607321335 39.83508525363291 0 0 0
3672 1 35.12315300980731 27.1569011055148 39.822256579908355 0 0 0
3923 1 39.62484850144331 24.48343467246253 39.84211785952999 0 0 0
285 1 41.0089993918902 35.61674736621577 37.64908430851952 -1 0 0
2807 2 27.816027160302273 29.59571915372211 39.84420127105197 0 0 0
3095 1 30.70216559044288 29.589208223782645 39.77670262205967 0 0 0
3422 1 33.74043176201637 38.08239829441298 42.03313479191189 0 0 -1
3998 1 39.50204863638635 38.056191510859655 42.14141233409501 0 0 -1
3383 1 33.716066614905785 29.58245260338204 39.785979648929825 0 0 0
3131 2 30.787754697821384 34.59319505317122 39.88166539263402 0 0 0
3707 1 36.72858935938618 34.83278424749088 39.84651072964688 0 0 0
3671 1 36.64131712035905 29.701151227704205 39.828565156004046 0 0 0
3960 1 38.0394357210791 27.15648642030753 39.922055852271654 0 0 0
3959 1 39.64156253850476 29.65226954634867 39.79658330584765 0 0 0
3419 1 33.7999641462314 34.66099511379507 39.78895978601808 0 0 0
3743 1 36.82781138807363 39.67179334943462 39.928428388108 0 0 0
3132 1 29.311333959933037 32.29112614480155 39.812318815492716 0 0 0
3455 2 33.83525040653829 39.8245922421338 39.78750589705777 0 0 0
3167 1 30.653132341830617 39.74113830690962 39.88243903244455 0 0 0
3420 1 32.281822828212356 32.15091350518693 39.724169642127066 0 0 0
3708 1 35.20915883571797 32.05021970138034 39.76092317336577 0 0 0
3996 1 38.066368266480154 32.21241096078399 39.97606525287728 0 0 0
3421 1 32.25252003135449 35.52895520540732 42.127812211261755 0 0 -1
3744 1 35.07351441032942 37.2926718796173 39.71262042437665 0 0 0
3168 1 29.252090055028184 37.25349167016669 39.740551166557864 0 0 0
2843 1 27.908034962574547 34.67650902780781 39.77295762994848 0 0 0
3386 1 33.68911717234542 33.02717857284519 42.14056696412736 0 0 -1
3349 1 32.34700717817694 25.385888266024118 42.07483248134591 0 0 -1
3925 1 38.11000247613546 25.27294221860828 42.14594651263357 0 0 -1
253 1 41.018154867380645 35.694333164731 42.13249310661209 -1 0 -1
3098 1 30.819508284979577 32.935677206094155 42.12934928655028 0 0 -1
3133 1 29.327760638122133 35.466999656595526 42.07955477509839 0 0 -1
3385 1 32.33527891456556 30.372394807885705 42.03957294073841 0 0 -1
3637 1 35.08776136314884 25.48325973412951 42.128758442753124 0 0 -1
3097 1 29.25978644980789 30.464424443748907 41.94804012783648 0 0 -1
2810 1 27.86694263788116 32.89810715842557 42.114544421557056 0 0 -1
3997 1 38.19650120363285 35.524076300126964 42.182174654948916 0 0 -1

Velocities

292 1.6414654124783241 2.194741783288229 0.46512765042018617
979 3.1901026131949957 -4.466690620135072 -0.41694748875258064
580 1.0692166831993157 1.8429654299902705 0.403532274586413
868 3.217971698376126 0.05520711679041743 -1.9915571487536396
40 -1.8292005969756946 0.4860606964509821 -0.4859401909791597
1156 -1.0317435018356884 5.098891300814865 1.2420584622301427
581 -3.3311380632857372 0.5458631378781442 2.1026629596323434
5 0.9164722168739271 -1.4656470356087763 -2.5115106359918973
3 -0.8106328053825047 -2.0904984701651976 -0.07664433973823168
1013 2.032102016234389 2.827474704576426 -2.125937606243842
291 0.6593514354028225 -2.1711152838682586 0.14908740457885056
616 -2.1861000713992467 1.9394086147742493 0.3160991431614772
973 -3.7304369528117016 0.286848733204277 -3.6683364254433157
579 -2.8535305244327067 -0.7069075911216322 0.9569254054242938
80 1.8720384456562382 3.646999475824166 -1.0582830295450854
867 -0.712666807945941 -0.30581513800795546 -1.9552344822803327
1155 -1.3262743676512356 1.1905153016669316 -0.48093993495643433
328 -1.0850059059681272 0.8162393013626582 -3.27704348500411
39 -1.1827757287444194 6.236154237928206 -0.5625240665566273
327 3.283877951977426 1.2079076400961832 0.12966508994597292
1157 5.447512451091553 2.0209793634849014 0.12523980091134956
904 1.8937199299345262 -2.5585493061927096 -0.8406211352162293
615 1.352287548509925 1.8164072860905967 0.3017335630076978
903 -2.260476721040423 -3.0566868448124542 -1.1190417858712398
1266 -3.015464906521024 -1.2828173735937265 -0.6840578672018525
978 3.0078859283860906 0.7189164673028196 1.7223647235669697
1268 -4.0742901844385795 -0.7349507591678763 2.3907166008869303
1192 2.132843905282741 1.7561161501781248 -0.5363661346401618
1191 -2.2420201241803985 2.03332259223599 2.158787810111979
149 -0.617605742052446 1.2458475432011702 0.633107054983412
364 -0.7167175149299627 -2.126971506379307 -1.3162437884084952
41 2.9411410312482236 1.0995067908883125 0.4680731489506985
652 -2.717741439939163 0.3537796566110348 -0.3469713976519572
940 2.2842905628931347 -0.6503487662060689 -3.2031875576826945
110 -4.103437556214431 3.9972322538229985 -4.003674811886734
1228 0.6311788107427911 1.7275918997036626 -0.7236011951958342
75 -4.839918951484688 4.888733286299756 1.081511360710755
690 -3.098673345826534 -0.3477215051287795 0.11159371801162257
980 -4.076662966137247 -0.9631425555811565 0.6659191585958004
363 -0.34841817763731553 -2.3431600206697616 0.29975025547404605
688 2.0871467072312764 -2.238972810973533 -3.475401969115805
651 5.413134371545826 -1.194945339555247 2.430566098758373
939 -2.7031631462531136 -2.074120682555836 1.5515931298414085
1227 -6.470040123907321 -2.1413647218071414 3.288449708299705
400 1.741501650680024 -0.9531835444917683 3.6098397483414435
111 -2.0323070696618757 -0.5075730588947177 0.9270427877971096
8 2.3268754338371793 -2.1173372231747414 -2.818229771891504
399 -0.633290957076175 -1.7108616501506195 3.5305289335152388
691 0.03099414599802904 1.5477125757084043 -0.6961764044237366
113 -0.041417500198349375 -3.105160238768043 3.6087949749961536
976 -1.3024443409174482 -3.435927491605207 0.6833994595387599
687 1.3371029530731642 -3.2390044198158923 0.3235455440140246
76 0.20325624162547776 -0.8409174059393506 0.640102248788284
402 -2.2624480739704196 0.4183710261675069 3.3855126178285264
1264 2.3975140895393867 0.6276155898607124 -2.60863906677213
975 2.291378928130474 0.18028561427784937 -1.245500737439139
1263 3.706532283194857 3.066608947949853 -0.1236682744579491
115 -2.476977251928005 0.7762961500416949 1.2724802997802376
943 0.2372286482421318 0.5052974441854914 0.1042953350963809
114 0.014999480798809944 -2.090902072026156 3.0608399482367763
655 0.7895447301619457 -2.823408810470404 -2.383448023855907
6 0.2393148477515907 2.7053028823143537 -0.6755035607511297
296 2.5964465372938133 3.0409058375305493 1.0107335746432018
1231 1.9650609337091185 0.8393240837817085 -1.5297539343235735
294 -3.8188922961798815 1.1412475207847328 -4.1576444816156855
584 -0.9858920155279308 -0.6866133852961575 -2.3520573545318135
1265 -1.488158497991778 0.3806769330285023 2.824205318756642
582 -1.8942146206855994 0.7060680748637216 4.689895979950423
872 3.7730699153257654 -7.570255648920129 -2.7388058731038334
870 -0.11617345453117688 3.7274379328370153 -2.8151182679996003
1158 1.8095301575313607 -1.427132018916302 -0.26895671839876817
1160 1.5195681924047724 -2.21681460150946 1.1094314322279344
7 -1.7858248656221392 -0.31954796105730493 0.5161962011626529
329 1.9273537686910303 -3.0418497910327913 -1.6595896624580488
295 0.9314625133710891 -5.18684784301678 -2.6689562273399816
617 -2.7303275389833823 0.7144867393982564 -0.8939915050870364
583 -4.514986832823035 1.2828757859375488 3.0177196809155897
905 -0.038311860475476946 -1.4235527255168214 -0.025777653270071303
871 4.147429149868728 0.8928306795798373 4.7973141869359015
1159 -1.809054416129207 -0.31610466808645643 -1.631136492009521
1193 2.5781564628877467 2.153955615574809 1.2427358085968079
403 -3.123526071442248 0.7473318717246066 -3.3108054689545994
332 0.15676249575258142 2.3075911944135834 -0.1374978950095421
42 -3.5337291360857987 -1.8833557740201965 -5.1312642953819925
43 -0.21348588700750598 2.7527644990319247 -1.9648027220220758
365 -2.8878016872536056 0.1451147512424311 -3.665206459646893
620 1.3192483224308353 0.09913795035122738 6.260803396078778
330 2.4938731152608193 0.7211767740193621 3.3137434167805706
331 1.538621817997579 0.36841637336438515 1.6036711408865802
908 -4.751583184780706 3.52670920214598 -0.7782238479739885
618 -0.7214038187166 1.2157910660988374 0.26326217105273875
619 -0.49322123695531306 1.3768530835121284 -2.4413905560238494
941 -1.0735346812243147 -0.2906478323838031 -2.641916472448754
906 4.418779036165549 2.2478536170164523 0.06615335114773542
907 -1.1832394434899267 2.4020476969806497 -5.081404435538704
1196 -0.43304126895196504 -0.7913991517823422 2.623443827378413
1194 1.6284737986238056 -0.3618594579413386 4.992915060520639
1195 -2.9528083108398437 0.40489951793439144 -2.6638779218586017
78 -1.0399113646193452 0.8507294800618478 -3.213241541528711
368 -3.0311561180097364 3.132887816782109 0.05475894859320488
653 0.30465310330068807 0.6153451765790972 3.8349290968282204
366 -1.002110042780071 -2.348951490866305 0.9377194567414872
656 -2.3704769603758273 -1.085335973792087 0.15900684283058006
944 4.83578512996063 2.4456455208980565 1.170884299462864
654 5.605020977236559 0.3619008971928144 1.1246527244736684
942 -1.3067187153449131 1.3413499839298413 1.712694448943627
1229 -2.33930196630336 -0.30522276332562975 1.4397051950118496
1230 0.27131647572057244 -0.8688423267581928 1.3916548134675881
1232 1.8872400587083837 1.4490188470144678 1.6283969704373689
1267 0.7039152361017685 1.6606904376812406 -1.6509496357539821
404 -0.20936603496942766 0.3743702102047768 -0.5212014818874315
79 3.6137253344401286 0.8100658982562489 1.7302389516419592
401 1.3344228720817743 -4.8023845217493895 0.880051760016781
692 -1.2422231281139986 0.010971261054114697 0.07926148243995691
367 0.9594318861414821 -1.8692718070298406 -0.5965931029723642
689 2.2682953973064515 -0.46373394040113164 -1.2102741144133822
977 0.44925938886609695 -3.939278845616861 -0.684260276935005
112 1.3737779361826838 2.3502188498577103 -0.5198543674733996
1154 0.8198019395545445 -3.674362996676694 0.1262363696750276
721 -0.7526357622044173 4.668856086320658 -2.319126761253651
116 -2.6885118647019097 0.18228393842777119 -3.7783738879555573
77 1.1759066352567442 -1.4734212262216195 1.6352722232142543
37 -1.0260713585642482 -3.6244214039562124 1.1828800883891826
398 1.9835539268789888 -4.494484842369126 -5.31145354002821
74 5.927669387355131 -0.5309851909755293 1.576240356196255
866 3.676589231473919 5.231046456560828 3.5648298690438387
649 0.1468282401264722 -1.0044571240717595 0.710627116723765
686 -0.6580550220211827 0.35624556764482984 1.4593267626587987
10 1.8638452210122542 0.9919526929855543 4.38743500483006
300 0.9268452517183846 -2.1011287876603806 3.9719666628682178
120 2.2474674406995554 2.494894917824503 1.7654709791255976
298 1.606627924227995 -1.2620581767416343 -3.435727447849061
588 1.4533710426288773 1.8909335941069718 -3.84219762684634
586 -0.6671185212718204 -0.9494067143184582 5.243983291131434
876 -1.3544337928362706 0.7408541102282117 -2.4551641447920614
1305 0.43556504572797966 2.805798789062352 1.0326080542741518
874 3.3117095603727447 1.133518694939655 -0.5815773808041251
1162 3.4565651612499257 -0.8558943965377082 -4.16402770143041
1164 0.13737228663086967 4.140490613107416 2.855231564154008
11 -3.8212447238388854 0.8067509140795581 -3.685567500062413
333 -2.43083792652242 0.8007512913827803 3.972836942629347
336 0.6671629729478733 3.9164802514617016 2.1923230995045
299 0.6863176886825569 -1.8406788894034483 4.492758537466707
621 0.7486877826116406 3.965904587253148 -1.8399283031046239
624 -4.905380567262484 -2.6645700603069313 -0.25069474872042996
587 2.0121581190778723 -1.634402172416344 -0.5027757450006264
909 0.8021262152555554 0.20057330273502977 -0.19001288515920536
875 -0.4412532519989635 -1.4827584671224738 -1.9011452237701305
1163 3.781973381235485 -0.6343937581655121 -1.670714119604428
1197 0.07190130962495926 2.134744867039495 4.652517507898069
733 1.700898598381016 -0.6046651088674452 -0.04372116294726546
46 -1.4204750023005603 -0.865277977016415 1.4816347515015595
47 0.7727385644247258 0.8654910626020442 -1.0563009008163826
85 0.3122063125452799 -1.4917844997076988 -5.501491042338723
334 -1.9010941573733993 1.3407866757947116 -2.6452126301712027
335 -0.7612368570698066 -4.0668060530953305 -3.738200571180815
657 -0.31399197142855395 3.608028635463933 0.4359489171025782
912 -0.5277991870373873 3.3913684651420524 3.79774222741761
622 -2.7237344619349777 -0.3984332908306426 -1.7665894257799464
910 -2.6132870316918977 -2.3803594861314017 -3.989833763620642
623 2.3173150931326796 3.067019405013192 0.9095328977562214
945 3.6277579210061854 4.4711228149217845 1.4210039982607938
911 6.2078179084000595 0.952628132899178 -1.392116192633815
1200 0.15408727696124222 -0.28338497963765386 3.334526309087709
1198 -1.9517928846816237 1.5741835058665237 0.9897419195154904
1199 -3.474032537460171 1.903801333583648 -0.9937718711149872
369 -2.3673700542393914 0.011829888143382835 -2.5798217698953168
82 -0.8430192221307202 0.9780698896802955 0.6087327293789099
372 2.134032035936263 0.013760600906783651 -3.723547997793223
157 -3.003943714512703 -2.9432893466526706 0.15150900081987884
370 -0.18861207356828774 -1.4368806720020737 0.3111047077235017
660 1.0888346558073951 -3.0582022441721026 -0.527507823365971
658 -2.7981312851401867 1.4100101364373907 2.455437029303082
948 -2.4491382622416453 -2.7857886558736786 -0.7266219851979597
946 2.535033443541227 4.01896164847186 -1.0649409364973157
1233 -3.115802203822721 -2.148107013313418 -2.1890903095073715
1234 -2.978796340202958 -3.5656238801796483 0.4285680725975534
1236 2.777912071859328 3.1980699586413626 -4.537820723079173
83 -0.09930429597433126 0.11725921015538143 2.1853554105652524
405 -2.911553977725219 0.26288234269818667 -4.6157946296093835
371 -3.2511591458334426 1.7559286059792125 1.1758804621938566
693 -0.6396499403621451 0.19052140089074107 0.3821590718129949
659 0.31446203909509474 4.929672043684896 1.6048201778861853
947 -2.415102215290882 -5.530750999745195 2.540398883812632
981 -0.5136205838774912 -4.834482054182797 -7.367181604728743
984 0.5481158583399871 -1.057469110107657 -0.2932997210776288
1235 1.7648970080437394 -0.34278794842112825 -0.43475546813506866
1269 1.954952918396522 2.699473297454419 0.7492670432426346
1272 -2.074618788450292 -2.849028048228754 -1.0057883828368697
408 -4.9994252882625005 -0.02243269733477382 -3.0740050989384042
118 3.103867218674167 -0.4656640566328975 -1.597389243775833
119 -1.7188511070132724 3.7639127279859004 -1.335209683278172
1021 0.4015674059954848 0.43570873533090104 1.4080662136216444
698 2.0420887118490296 -2.467933637078231 0.11826953059891676
696 5.894850922107084 -5.8018635295461625 0.24637496113395244
406 0.13807893485479394 -3.0056391484130316 -0.14051127782835032
407 1.289426052062592 -2.039256282055033 -1.0696573337230963
988 -3.2913101797480664 -1.4024327122119147 -0.2642960205004558
694 0.31188611505398994 4.27177989149631 -1.7899894435258255
695 0.5800968377056857 3.446571464777086 1.9423558669375753
982 -0.6007859025863733 3.19387275613364 4.411900734456945
983 -0.05999880703183125 3.165826486814322 -2.327422871045465
1270 -1.6174774304992898 0.6709031626992753 -2.5902407432827466
1271 -0.5476727872637204 0.24335994579667197 -1.2062616168654483
986 -1.5083894935014603 -2.6123182365703266 -0.8727103699270171
14 1.689715051224531 -2.513025827133715 -0.9739282885726327
304 1.6512264348871182 1.7182542618867802 -2.565935748238519
987 -3.3076635471949953 -0.04048283920286928 -2.7338036479042476
445 -0.6782846353802062 -0.8251237230027975 -0.7089578026965093
302 -0.15577716417263057 2.8526167058660494 4.2924089310979685
592 -0.1302615495058632 -0.28501457600012103 -2.2278835898582816
81 -3.1336977457357063 -2.500741911210274 0.051079712556095634
590 6.7285726061104 -0.9404032277728217 -3.1426780572342032
880 -2.409003539295277 0.3319069789514766 -3.381728996768777
88 0.5204175306515355 -1.438555446237636 -1.030875510392449
878 0.2553593492186114 -3.512705644998797 -5.566713962962485
1166 -0.31056704000261887 -0.4359400255475572 3.051244444067868
1168 4.897683162136406 2.2670082863690064 -0.0740555645940662
1276 -2.919691849111252 -1.5472098820695703 0.9090190807960381
15 -1.4696733281342778 3.0753567644542397 -0.3358866204090509
337 0.7295008127563946 3.7431330180645372 0.21805798709080737
303 2.9281969391315625 1.457335030900778 0.7281909663993861
625 1.2031395622692205 3.3465018868655334 0.3287323670904069
591 -0.6968014285610378 2.6925465527274155 -0.7739273605278764
913 1.924825889956674 -6.609329903942384 -2.328758468216906
879 0.15265676789478502 4.511289115570899 -2.9989799181287347
1167 3.156695919042563 2.943893062087908 2.044159450464848
1201 0.33134559821989745 0.5493253386471239 3.0470715614866113
117 -1.0791839026013077 3.1106084136258922 -0.09398633088806363
340 -0.24734113174557654 0.20234476845877983 0.5335846111395558
50 -5.492803382873459 -1.473028799848816 3.287364678674362
51 2.8074687808359897 -2.0507448139873548 1.5104751938594754
373 -0.9183278489059952 2.0322785544852753 0.31442356251023035
699 -0.41106475005882653 -8.753726263841253 -3.9747031032084705
628 1.6319218899730599 -3.9687069664188357 3.7485926796229085
338 4.8958454102325115 -0.6228762438398164 2.6917752698837405
339 -0.7425917179336736 -1.0820168482537238 -1.5017280730954885
661 -1.2432020863542868 0.9516407714845962 1.9872552014864957
916 -2.2888787643539086 1.0741209414144814 -1.631090080305575
626 -1.0085697296558995 2.1785015270968913 -1.7795270343173881
627 0.5905842320005975 2.2232502459631105 -2.0932447689045977
1204 -0.1115688201687795 0.1196994717047045 -0.7943108920707636
915 1.8441015709910633 2.7054791918450443 -2.606860137847642
914 2.6418789216372245 1.1875847667532404 1.4467787417819775
1202 0.7052839649323923 0.8344842697580166 1.9868866684144202
1203 -1.7258218301342534 0.6417440121442 0.2651328842127551
1237 -0.9587911963123292 -0.3439498124527966 -0.3444356136627338
1275 -0.6190380342820891 -0.817969070948943 -0.7158927994682124
86 -0.05176751111726837 1.1688345431771545 -0.8247595584308558
376 0.28697787624415033 -0.23559183679296727 -4.308217808072001
374 -1.391022801335207 1.0379806472269824 -1.8895006313826603
664 2.6187022296185387 -0.05212564387651984 1.5384655684060715
949 -3.8970853663853533 0.2631136724499058 0.5637477826315598
662 1.8881170362180213 1.9501911856531353 -1.0754146893640235
952 5.316828012736058 -5.202718780200598 3.3934075852597907
950 1.274164630596996 -1.2290436008249397 1.5710708089564747
1238 2.4469121032487853 -2.005985220215482 -2.8094627837575676
1240 -0.3062926639597707 0.8494835689047388 -1.6521849095220547
87 -0.7549789739768765 3.1513199522686066 -0.4586276460833437
409 3.861795172687892 0.02882782278715577 -0.6891716018284247
412 5.279746996610656 -0.30653794935547857 0.978492218988785
375 -3.050691911568966 -1.3417040361107992 0.5889363235274845
697 -4.247928102615509 4.057298285579912 3.5400937665500067
951 1.7220431742493865 -1.105145268608862 -5.54941072491761
663 -1.294150105371771 -1.707767519518556 1.5359608547851409
985 -3.2436176244043984 4.871056897747658 2.634723868264267
1239 -1.3077689046391474 -1.9124991655689605 -1.6887190611562493
1273 -1.7490188305765433 0.5359979854843314 4.095147166879162
122 0.5512877511212068 7.2985033981284495 -6.0156277238452
123 -0.7765093145199707 3.346804008328734 -0.7459736868623371
1274 0.5275812554041216 0.0552368204498295 -0.6529614391060936
411 -2.785976837030906 2.9135370945528574 -3.419111858513033
410 3.8568366159842626 0.19755327987576138 -1.1917448431531876
700 1.718354537786628 3.0166816763064803 -1.3520057187289525
585 -0.40459748587972716 2.1129415985169877 2.1480227464870922
1161 -3.1022843153020405 2.4029358590235974 2.484102593725313
18 2.6282757080050128 -2.079108427155456 -1.4045798236557547
165 -2.1946863943136585 0.492539551572875 -1.3324000646512772
306 -0.9537248796272794 -1.5301895531312586 -1.3264308421126447
594 2.934916173849322 1.548926721314746 -1.4385342556010692
882 -0.8597865838023379 -1.5764489152610182 -0.5451472298858808
309 7.832659471911371 1.9610764075885105 3.9238831920207278
1170 1.9496404471268043 -4.358438605563077 1.0737549608396781
89 -2.18968990152827 2.6586860574162885 1.662050356680989
1169 -0.5079226170499335 -0.9491476504731287 1.8031114990207082
341 1.1461457793986867 -2.41922210228071 1.4089102919768073
19 0.9260679600615839 0.4448199926803324 -2.4933512375750855
629 -0.8265729269986104 -2.121116690336338 0.7420760802104661
307 0.35143867866865963 -2.3830572184573353 1.3638333063888377
917 2.4763741926959977 2.014322897896014 1.0474956117972682
595 -0.8296797812222516 2.386642058292497 1.1296638428289927
883 2.6441297629393885 1.2618984479927313 -0.11925456542878692
1205 1.2886476952075665 -1.452736025800692 -0.5929121966370103
1208 0.05730294994652557 3.1537334731749542 -0.14693415647956354
54 2.587109522225127 0.7333926298276122 0.693806416694822
377 0.7027774390536222 -5.345570131353441 -0.8072441643037422
55 -0.7040934392751294 -3.8039871674424135 2.082151362298157
991 1.384413069280715 -1.905656931458513 -1.3515466331032444
342 2.271018553735645 -4.1040167869597175 4.426207653656931
665 -2.594873023779317 1.8948019929733795 2.917670434638176
630 0.3822116780034523 -3.4978866027816586 -2.6046221819177937
953 -4.859739890462805 1.084861312019303 0.017816290147579496
920 -2.772139536293343 -1.2727348429871959 -0.9449528585932295
918 0.6635732321521908 -0.21058725225062924 -2.433281814997886
1206 -1.2868294647577767 -4.5518611942347 3.014711896948612
919 1.6740456078411492 -0.8968753146176458 -7.809847210635681
1207 -0.8797189607534598 -0.9518498205619584 1.2286774181509204
1280 -2.506816508978086 1.3398711913397374 -0.1109112288996745
1282 4.430053445318796 0.28902041739728146 0.8578729869060043
90 2.087046784057398 1.0198984331936476 -5.296927346650955
380 -0.6589723237800087 0.5470214035649132 -0.8760159199482938
378 -2.9269568475356906 -0.9904576560560195 1.7139187914714866
666 -2.952114014912198 1.4047065320983243 5.029993889394763
954 1.2682788121404074 -1.1882253715890918 -0.5486967085964262
1241 -1.917309756561454 0.28163154376625715 1.1859294298388239
1242 -2.476213137509991 2.3183664698539066 0.6452941261305893
1244 1.5180841260362246 -2.9839358132047638 -1.0950826497662205
413 -1.6433022807815336 1.3514082220734747 6.745826375886392
379 0.389026722615502 0.4260175424811931 0.7833784212356775
701 -2.340480894776055 -1.5946253691153445 2.233559288907935
989 5.132513938347752 -2.908601088904057 -0.4810872518016815
992 1.7339594976573667 -0.4855510685409063 2.4141426757282147
1277 -0.4742038161966422 -1.7603425097891847 1.9947552079988884
1243 -0.7224589339060822 -4.19984204378702 -0.46853070519043216
126 0.04864257125392918 -1.9478194735091943 1.8739183773831651
127 1.4514586416974014 0.3386946858254962 -0.7255413967207236
414 1.7443340014645743 -1.8814458983491105 3.887558351209771
415 0.08174887904636488 1.7256296293856677 2.5863360106894846
92 4.3061346645603615 1.131622608371182 -2.1511877307570413
703 -0.9054473939254764 -0.16008097974335087 0.6226554578635539
702 4.229877263515804 -3.0673203209667026 -2.4697081562166265
20 -1.6655760848542498 -3.445389109678494 4.14476844495561
990 3.0639008683354434 -0.21976768953118622 -1.8787006458911994
1278 -2.5497211513156723 3.732355481065221 -1.0496275324912836
1279 -0.8236431839455053 2.3786147117462404 1.8616355141816572
308 -0.0272195947878447 2.8884730419112454 1.807305674246048
22 2.369881669398163 -1.836995331942572 -0.29195227723398454
1173 -1.2126867617921306 -2.075402577456555 -1.7452541601842138
596 -3.8844339318044 0.6949248628428655 1.7659053357615315
310 -0.8970721010039233 -3.227304048032474 3.0142071513999356
130 -2.6144882341032516 -3.268756963869935 2.4609838245870574
884 -2.437375107450925 -0.17884589410097435 -1.5168048962392977
418 -0.8509025594807271 -1.7562138245077008 -2.06918752218405
598 0.20382218105372185 -2.890197211908115 1.9101050400878752
1172 1.4153099106117186 -5.9454104633313705 2.852686014290263
886 2.19643835376806 1.6044226500701635 0.02626865481154481
1174 -2.5229818277265865 -2.907502668405491 -0.05742706282307775
93 -0.5553034477632575 0.6165868377898723 -1.1273473344072071
345 1.302520320884071 -0.908774751164549 1.0730036415887387
344 2.182489470540328 -1.0307082757856003 -3.1218597844004323
994 1.5347546198946824 -2.4107495663440885 -3.063041091418001
633 -0.1232681101350161 2.071284546527617 -0.9653549002212117
921 -0.26498578625667085 -0.8262538552379414 2.507292763925865
1171 -0.48553808335791465 -0.5686592997910542 -0.06322898872026247
1209 0.2002940410246316 -2.4487368185332046 -2.1943868269214675
58 0.10443742845541606 2.0263626084262985 -1.2078068116500982
381 -0.1927766064785966 3.4749565957235284 -0.48667113281631935
632 -1.7889301018749384 1.0826708767622266 -1.6279967955158243
343 3.7162988282407223 -1.3562222768989591 -1.7783060826599124
346 -1.4992686603799754 -5.548346142010442 2.9292443558163788
669 -4.596011128004739 1.3429211359991384 -3.9370203154409564
631 -0.19685552439446594 -4.169651728484941 2.0764563254799575
634 -1.7982217988950113 0.47204861065244225 0.752866405337002
922 3.879666216525407 -0.4416233470266328 0.23116883375118413
957 -0.5293159236582842 -4.308019217028563 3.091034532203474
1210 3.7816636952172744 0.38036377559384005 1.3385656523525034
1245 -0.2078415551272753 -1.503443292789845 1.6748989305710626
706 -2.026006664906897 -2.4972990142620324 0.18084246768412815
94 0.5489107156109889 2.3689038480745674 2.8366685941465493
668 0.42187557629978295 0.19926683182892893 3.071788180608317
382 2.6323027913204355 -0.30221762493626264 5.094754135543909
956 -1.2914380181237013 1.1574221342850828 -0.8893874593759106
670 -1.899916915641609 5.185360647747039 0.015592378116568318
958 -1.4194480995453231 -1.6723914140621376 0.310724349276398
1246 1.6487961036655463 2.0377010855270106 -2.272217454837366
416 -0.21986285343541995 -7.917832160028971e-05 -2.0965539503470385
91 0.29315604750087576 1.3006333837688102 -1.5927399342147655
417 0.39305727776495 -1.6190162683775893 -1.5582440236276431
704 -1.8593268469119355 0.4743107783318596 -1.4115795412955965
705 1.4243708694732893 -4.781719219259873 2.7238805879735075
667 2.6545351715636487 4.268906863642168 -3.189321367388378
993 -1.4730310315801676 -0.04639511051628878 -2.953109641840052
955 -0.6828725082927364 -0.7975077798559316 3.4672356811392233
1281 2.546632901398566 -0.671382904907824 1.426003272024856
741 -1.192067036949877 2.9213815792401183 -3.098793721715256
305 -0.11518982207990813 -2.472839166437559 4.474628698687339
453 0.4968591791132317 3.3840113908646687 0.2740581360381779
593 -0.07853993611009755 -2.6557154946199995 -0.6255910627630397
128 -4.19569027713871 -0.5884769351661341 -0.7855794513047595
57 1.2917443474976387 2.7515588308165295 0.8935328135331166
737 1.482617016925322 2.194936050663661 -4.645303978697029
1029 5.391680829117443 -0.9242754133636399 2.6311210979968034
26 -0.38819772059548396 -2.088092509669537 1.7699974679439798
312 -2.4866237966867195 -5.2093493123426295 -3.0327723900111683
893 -4.064749840883867 -0.4647437359338148 -4.723500357262876
314 -0.6404484080293503 -2.2716140739074664 4.608875858109062
600 1.2437947804887144 -4.307161974478628 2.1104768200279285
100 -2.3347598596287247 0.20763906416266076 0.5629114655306234
602 -2.3266909064512897 -0.72932007892646 -1.3022857989630086
888 -4.261918483202427 -0.9954267942506898 2.2445532426532697
890 0.8312744739193588 -1.5581243602511743 1.8433535522769235
1176 -1.5212820460456375 -0.9534870353211379 -2.759106518208945
1178 1.958453837656648 -0.24885581681735117 -4.321725917497819
137 2.6058446215242896 -0.6135679963860233 0.36862961618967977
23 -5.564846516229605 -1.768110109088275 -3.2058859536275754
349 -2.782489884263266 0.35255438901555575 -4.267294933264011
348 -1.3990162218666626 -0.04160950807773903 0.5986127662700106
311 -3.062607243146002 0.8361738584625008 0.39300983258316013
637 3.7685527982531766 3.936207957472465 -2.9484639029597246
599 3.9889596203147257 0.12532377429551714 -3.391616176265518
925 0.3283228435443441 -1.5911669245422562 2.7845118775707887
887 2.5253772856391286 -5.3363845249201525 -1.276370233310708
924 -1.0756181422399618 0.7659756684791973 -3.634736208292212
1175 -1.7402300148622725 0.7634986643138986 0.8664044350089056
1213 2.198188221692044 -5.030598188036891 1.1340441273686301
1212 -0.24456653297992484 -2.863174978771889 -0.6050288835312908
62 -0.673345241364964 -0.056418526973529184 2.2921648226513605
59 -4.698903478549289 1.398439615583439 0.34037495626592723
385 0.37936010215857663 -2.332294799259412 -2.8627870200905865
636 1.3180569243640612 -3.0661004555672147 -2.237530498635539
350 3.4246056139390735 4.6063090327156475 -3.094410393440575
347 0.8050420872372064 -0.4955945196719035 1.2742677816743384
638 1.0748957277276066 1.618729367362405 -2.835778118994593
926 -0.955420162357923 2.382505462687142 -0.9377859216499225
635 2.3338931589446816 0.23124543535905834 5.23228298612291
961 -4.006162863904043 -1.2119559786761345 0.601987626994284
1214 0.16773549384731246 0.9106577645086542 0.5994716022754
923 -2.3791003787640905 -0.2640415745138426 -1.691763765618547
1211 -0.9137307565980364 -0.6597320420410749 -1.653460598178051
1249 2.1889005594378133 3.2600070345843126 3.546971399321249
98 0.8489205197565715 -3.203966655056745 -2.957173702038695
384 0.08868758270310022 0.09812235468360078 0.7084293031935168
673 0.18311345514112976 0.7413247191542465 -3.0841093140771942
386 -2.695202092162335 4.983304845958805 3.670155624670305
672 0.23804912153391025 -1.7348212131813319 1.3864058560277022
674 0.10566527182001872 0.48680917049155525 1.4884502554246242
960 -0.47549588688963196 -0.4669874911599015 -0.5684841011502096
962 -2.7111599482889153 -0.141307078099848 -0.33458658508293465
1248 -3.890750410267034 3.8861295946592023 2.3687592178234573
1250 -3.6629777681590165 -4.577121752863722 -2.165741452097189
95 -0.7623020487812582 3.227822538138188 -2.3530119841755797
421 -1.8390929208202291 2.4253126241018204 -2.4994961723838096
383 -3.996658363717369 -0.7020350395683289 1.9970914845754426
709 -0.32306332230859275 -4.38151401206813 -4.067240554976237
671 -2.3605276208401005 5.217474398840485 4.468039393521873
997 0.02068295181614506 -5.794680038556907 -2.3809321091965243
996 -1.658920283918085 1.2836717518854315 -1.2053211411729836
959 2.7749999763255713 -2.1083011721694467 1.9005600935036873
1247 1.1200655731729603 0.8298952253433477 -1.1417837503829207
1285 2.01391229565059 -0.15661225666843007 0.7346777119503619
420 0.5781871868671632 1.7508188981218518 -0.29008832628558745
131 1.3816037688803504 -2.3915265900113 -2.460761713181355
134 -2.164721803594744 0.44047110431743963 2.457257758969369
889 -1.9039996929838787 1.6025742070031597 -0.28254738147140024
708 2.136905352101683 -4.042397617424137 -1.3218527185490658
419 2.058794284051976 2.084490237641542 2.630428934015852
422 -1.0162137497345747 -3.043123296711055 -1.7994444151153814
707 4.283143037569766 1.8508310393222682 3.227448862432525
710 0.8750900138103719 -1.585794120323425 3.176296188172552
995 2.5273322776557006 -0.42813115907708604 -4.214078565027399
97 -2.6983263882609383 0.40717324009986205 0.43462220161479986
998 -2.095143926577602 2.2914362752266775 -0.7925882474572794
1284 3.081958550179695 3.2364441465613702 1.7896551882464156
1283 -2.337518540183719 -2.884089826216449 0.2514361986573293
1286 -2.01238390605795 0.42429062142649615 1.0826631170007992
1288 1.16556837475482 -1.5633551198870206 2.9135235831787276
30 1.8733561762511937 0.06163467310166667 -0.6935878457323933
316 -1.2063492120927355 2.5714375854096696 3.774482741709966
1002 1.4169474297859288 2.3380419178310916 -0.039262062815411995
1181 -1.3425522360214546 -5.52496792727849 3.193663518679142
318 3.7358565771621475 -0.9723158255538532 -4.723405222363376
604 -1.040970208058644 1.1018581793659334 -1.105834108188732
606 4.785448695687195 3.207657362009248 -3.927129504553512
892 4.042505898909322 -0.8967691951304889 0.04489351903839161
136 2.452291684411801 -0.8328931057357147 1.7607053875249181
894 0.5095527711087786 -1.9209059000505904 0.20744394660498774
1180 2.11537233780321 2.4640608027533353 -2.5155607642800675
1182 0.5850123425262013 1.9733871753073804 2.073320232998476
1177 3.2923661019765618 -0.16672206206883408 -1.3687115610812421
27 0.030518875271111738 -2.423933269573685 1.196941292511804
353 -0.34713422943230654 5.31166925128968 -4.931009557077122
352 -1.5593990046674415 2.2724633518652877 0.06231486994966885
315 -0.2284299439364025 -2.0458680004617023 -1.1403135728246703
641 -0.6758140548974503 2.0426623139275684 -0.9993954841947893
603 -1.5936123111387344 -3.9735175382741064 -0.8937838149451413
929 0.448981972458976 1.3752298139497074 -3.4520709594694967
891 0.5923590214768191 -2.052669520745571 -1.1602225728086408
1179 4.1160619214490515 6.385989036257896 -2.014247891454283
1217 -0.06619357469328523 1.5412777713931896 0.005789550171782622
66 -1.6551558448363726 1.6957341024656123 -2.037154180445237
63 0.7852824053445013 -2.3211234265054235 -3.4509463526566178
640 0.12740138705900103 2.9558123467523116 -3.2065189665238005
354 -1.277012636382707 -1.832188876010574 0.7039774783412829
351 0.5131812172115695 -1.4460307405818775 -1.8427030795001327
928 0.668303003220054 2.660338127123407 -2.1993786814818703
642 -0.7389030669758563 1.1221349106792344 -1.9466926755695109
639 0.22503362151759457 1.1114897730251383 -1.9899495950368482
930 2.4674192414909273 -0.22449002333761928 -4.043491194634346
965 1.611398842341518 -1.3739641191942915 -0.5280611691723931
1216 -3.0833908854697856 -2.2024124824245312 1.888147175620556
1218 0.9927652337173485 -0.1511286332131308 5.691624617027648
927 -1.9040639371686392 0.41938253470474174 4.582394403956789
1215 -2.145722702545541 1.8127934142469015 2.5648690401778813
1287 -4.173205717413804 0.48602203736043326 2.339330016646433
389 -1.13106050512584 3.6332659002311574 1.475445836625839
102 2.532886501086428 -3.733383526190795 -0.4897840538259861
388 1.5921169966150213 2.8321750106193098 -1.3818163774399979
677 -0.2052116194879831 -0.4391945953826072 -3.3826656986799577
390 1.151517223816224 -2.9015756303139963 0.32973527148354903
676 -1.9337809644223298 0.28326891545363164 2.669671866120143
678 -1.3878611211467409 -4.736320797856249 -0.6778231872320519
964 -2.596715367040214 -3.222097065502028 -1.2545896331550426
1253 -2.060781061746539 -1.1114267295024178 -1.2170498125550795
966 4.073905120221938 -1.2148083813825865 2.491508314813599
1252 -2.590210912709462 -0.23999222457428931 1.4699143834500061
1254 -3.0458909038268143 -0.4094258365887723 -0.7997746847346244
99 2.1848386563161455 3.7125478325067403 -1.4223481359748311
425 -0.7676341342145098 -3.135568421137013 -1.0029631187832646
424 -1.8954309390241717 -1.1129216774586776 2.8263784798973357
387 0.5740013338857592 -0.849547138947024 -1.3593201406435647
713 -4.449483404549523 -1.723828707537133 2.1662286704318703
675 -1.4796154331537439 -0.5570463832959276 -2.7668371786996833
1001 -1.0095674593429806 1.7456957996602434 -3.6076854053909457
963 0.5236374112665567 -0.5671118013534426 0.45430849979520754
1251 -0.8928499259828402 3.1334169501729017 0.08913334356145106
1289 -2.9466574368218468 0.12335971650680615 -1.3846030539874736
1290 -0.4115369822201553 1.3349247016419854 0.023549899798950176
135 -1.193043471462052 0.3500325768943058 -2.9505663154219577
138 3.9553915585356205 -0.278099612877026 -5.032538604367734
101 0.046395566922299215 -2.233104350905119 -0.9591673445659468
426 2.4407015152796747 -3.101432879071649 -1.2816644296631454
423 -4.673682259260517 4.119725558394563 -2.5564398322707778
712 -1.4153221408706242 0.9231066400343354 -0.44358983668413626
711 3.3018073954966276 -0.1834810589422691 -0.48423793928233705
1000 0.5631258746519434 -1.9768078688044468 0.5184885949952945
999 -0.9077892253435615 1.6081357426062957 -4.5151070208311275
714 -1.0054219694089657 0.48753524280052113 -2.7095385690039455
457 -6.509478892159411 -3.4737490720843374 0.2150348529424689
317 -2.387537746740345 0.1639890975008424 1.8946224596459817
601 0.5993433020393426 1.9986578978385336 4.785636403279266
1321 -0.12843664761151075 1.3905301793906806 5.003411309532695
29 -1.9292882917075422 1.420126946563404 -3.0843759958410333
461 -4.645692727146357 -2.4210770132677486 0.3059950398822466
34 -4.130905001772013 -0.9318078700590435 -4.06021243155031
320 3.421779242431724 0.019564786045610152 -3.0747331467392796
753 0.5387713982042709 0.08625925868710332 3.4670165435473392
322 -2.046750865654644 3.599194535154394 -1.7907820575536595
608 2.5044914354511922 -3.281997916773208 2.253748626183067
1189 -0.6993187176374746 1.0298315072559974 0.6833707567949393
610 -0.23108547624614237 3.9121378348706832 0.6752406741714213
896 -2.109199122332167 1.712676737831387 -4.07257836662824
465 2.162418794152577 -1.7851819372867455 2.5385004351922418
898 -1.4423328683049126 2.495050917957449 0.5795199750612307
1184 2.6452548460441885 -1.5835076379970396 -1.5646382212436585
1186 -3.016483333975462 -3.230413461799174 -0.47123234024957
897 1.2463829190550704 -0.19025052572200088 -0.3384330182253757
31 0.2979163186307956 1.052710872700368 1.4674137127161186
357 0.07517096981236429 0.27985269213277897 1.2606118706994276
356 3.065221367788672 -3.515533311730322 0.538041030112153
319 0.9509864022502179 -2.187836020871912 0.4561390396368421
645 1.0519037646634093 -5.449539096714158 0.08237567986765358
644 1.338411401889648 -2.439331860994839 1.970585063808581
607 5.669984704766007 0.05905968961409838 0.9896297175300806
933 1.8259859309360238 2.6780085505476348 0.9646827591275328
895 -1.2216731620165364 -2.589960957064687 0.581244742151006
1183 -2.2223462567890384 -0.6267036072454744 1.1085016399934782
1221 -3.2039573092154447 4.499258973104616 1.0626806381455467
70 -3.0227714156075773 -2.2602601974884493 1.4132471957279633
67 1.8935308014966412 -2.8407787990765008 -5.120073466364227
1296 -0.7438101719596308 2.5475203277316845 -5.285381348423746
358 1.8422543655075148 -0.10040311206794048 2.272478961526313
355 -0.9032645708634001 -2.6832048284409225 -0.881503230587858
681 0.36913923010555333 4.861336766150753 0.24224026434305268
932 -0.43533194562399186 -1.0362009538381234 1.4779326365873062
646 -1.7337852369810804 -0.32784114839358214 1.06784955255687
643 -1.2329550293758538 0.37860167199190164 1.1398836032187323
969 -3.0042531610276533 -0.5234337923540084 2.0452556948768335
934 -2.3496857117365386 -0.0798134943561481 3.684810505101005
931 -1.119229134218729 -0.3608518330921584 -8.834244950608031
1220 1.3817208772462424 1.5020701225993427 0.971101141509462
1222 -1.0845617999694608 3.16305882924711 0.07054323445545871
1219 -0.22544569938921616 -1.3006010025699095 -3.921970077471287
1257 -0.2837549184088277 -1.3389812043543785 -5.865425400813097
393 -0.18680223387064135 0.25961233053291954 2.3679894356785303
106 -0.8116803451662079 -0.7487238594369872 0.5675969076066133
392 2.4502536822650898 2.991928614789751 -2.4601747674608734
394 -0.4786425660883839 -1.7461741009108673 3.6437734503525743
680 -0.5970678888116194 -0.7054355758544486 -1.2890426409636235
682 -3.3108544972873797 1.9683444817857696 -1.630598944658523
968 2.773713588866558 1.6550585289089916 1.8807416831951
970 -2.149837410405109 0.7235338717838611 0.8739272472988538
1256 0.057187629666085614 -2.239410802880361 -1.9976544287212994
1258 0.6036636325438788 0.7226836758778289 3.695019235183262
103 -0.7963150439031674 -2.5256932202870654 2.7803013275580413
429 1.5881305219932242 -0.959103804837211 4.476428354424402
391 -3.6665802647505337 -2.0696986797326797 -1.5392228131322852
717 4.663290266315407 7.38463265029917 -0.8120741741051319
716 -3.1589028891673903 -1.7124174471579012 -2.2064181849936664
679 1.4663201848187324 0.30763425369567365 0.7912899491239598
1005 -0.5715343457808346 -0.2731548786429309 -3.14873433507762
967 -0.7765546552839001 -1.4168267441207 -0.284299982168224
1255 -0.34354549433409676 3.0607773614099703 -3.1408064439979118
1293 0.8576127081467584 -1.8347623540922857 2.0498667846103458
1292 1.024057900202263 -3.532517063416034 2.7231055046240376
428 6.973269820036977 -0.1857131716979011 0.4877186755219386
139 1.4835738172764716 -3.9141682668633195 -0.021072952308047458
142 -3.9499364540188484 -1.4162194738592981 -1.6364549987535582
1295 -0.23697097256359195 -0.2335815071891921 -1.7583109078403767
427 -0.4013448778079266 -3.647716058703986 -2.1499521332434433
430 -2.8865252976334426 2.240159911395702 3.606283391925377
1004 -0.13049344907756252 -0.44422106295485214 0.013250105374226304
715 -0.3494004441587059 -2.095742290111195 0.3095095961764485
718 1.2835716429802264 -0.07666208081000553 -1.1278168484981248
1003 0.8858018679287758 3.0631847578906823 1.8948169715422096
1006 6.651449458396844 -0.07076891393577579 -2.6422905801142496
650 -0.7904262273840076 -4.783138769158085 2.9707515589010747
1291 -1.3743111915199224 2.3336297277539715 -1.5680746468687798
1294 -0.6022717253072191 3.688551350156636 2.249932234316797
324 -4.146930008852322 1.1075277338196177 -0.7681628185157396
1225 2.5912789500861138 -1.0719238955410217 0.4350736637243734
901 0.7939888827569214 2.3889276334709892 0.48541661457626983
609 1.6966096063391518 0.40367130430385734 -4.401620225471368
612 -0.5604618769213697 -0.8283132587241825 1.5131884098474815
72 1.1284472615315282 5.594874622584771 2.164971065275927
69 -0.8803914376471912 2.6639965020255207 1.8153362570728877
1041 -0.09702492906238565 2.23004187217942 -4.955122563218022
900 -3.869606382585393 -0.36315644329697183 -3.235206236959438
433 1.3729808438559121 5.659302612922014 2.6271709928339306
1188 -6.246854884274154 1.8695446661169317 0.38180108224074694
35 0.42166852536936206 -0.8708098701474591 -2.4962378558134675
323 1.6151960824138627 -2.445574232651881 -2.740311587891547
611 -0.24152014786429257 -2.7751846930803428 -1.2751856538264887
936 0.6099369605715463 1.4613980301322083 1.1978272490133761
899 -0.9784102754342379 -1.0100164806812015 0.0654413016106757
1187 -4.8391197384596065 -4.337534359995608 -0.2873232607330245
1224 -1.862674926749951 0.060979666696420236 0.7289276738949444
432 0.4406025204547558 1.7261301400189835 -1.034602805567552
360 -0.07151649024895317 2.9328410377045318 0.7561168492566743
71 3.6983390839689205 1.313072458658292 -2.452804012487574
143 0.9707662899769954 1.3310970973805025 -1.570769289539885
971 4.305153052418349 -2.1316012961170627 0.44242031950253224
648 -4.1867145155323415 0.08282753996343221 2.513989801748851
359 1.1125827621126168 2.5178604948498053 5.192063890025728
647 -0.9846772625583473 0.7910635772053312 0.8797404556415711
719 0.16119997513322237 1.3692349621377147 3.3693510842755883
935 3.388992350254548 0.14860496335913806 -1.4400649358589743
1223 -1.232557832742804 -1.4761678022962241 0.11283226603562786
396 2.5528677682570624 4.659078559850424 -0.7988021384313491
683 0.578803507068539 -1.2567929164084017 0.0007518925241998757
684 1.7933496690451471 -1.8989317368682936 3.5038532900647956
1259 -1.0216152777355294 -0.6352954606297639 3.837444287666518
972 1.2416994226766378 -1.1211586301478678 -0.9527950959485617
1007 -0.6164743495354928 -1.1613134014537585 1.145715638296143
1260 1.495879889616925 -0.5156085490105254 -2.5529490545295643
431 2.2067503589731423 -3.2839210609302683 1.008615322815288
107 -1.8980736464752794 -2.2591229599303175 0.0487672982619091
720 1.0435446712637058 -0.24597392516037433 0.7083550056999413
395 0.6502404837466826 1.8960676498523046 0.6844879460553459
1008 2.572362159009497 3.857564235434298 -0.4306747262785747
326 -0.7443677985607895 3.7595126132920758 -1.8342225997842672
141 1.83192877437683 -2.816608063109296 5.099464695584681
104 0.841796229349492 -3.2162081029560006 0.08842646952378864
144 5.170035702198865 -2.3460809982055006 -0.8489061413296686
2 -6.571155793065084 -1.4507184100192163 0.9183877082418318
1261 1.876229528492551 3.236050151162568 1.7720493380513331
105 -1.0399729351464548 1.5376960854513628 0.3579499102784799
362 -1.24368815227392 3.4084789347374476 0.1290728972921074
68 4.506468761099064 0.3491994306807506 0.6673441092703555
38 -1.8399963780505486 -1.2068292845741642 2.406036070109601
614 -5.722167835459466 0.7966122285359282 -1.0899788861834123
974 -1.1747336908657204 -0.965499721051282 1.183794464482468
578 -2.223216844020868 0.4809014053258629 2.174219127962462
902 -6.729083050707307 -3.135838313657438 1.4417147747656072
1009 -1.7441080682302337 0.1366043469489736 -0.6355394871807282
361 -4.23853841304886 2.156927046047424 3.6040611937953044
938 2.0288040218029764 -3.4813297901011833 1.437609084918378
865 -1.9401384221718823 1.236996582862874 -1.1928405175181145
325 3.0071604994457166 -0.09547490524658743 0.23880163615633482
397 -3.3323658931873883 0.2261896805048505 0.574604949175926
290 -1.3234687419611348 3.2548529724383433 -2.7863994633586664
613 4.05811531175474 -0.03986522365574729 -4.549666797090168
1262 -1.372871257772836 2.153729823482127 -0.8673820686115995
1226 -3.790179465024895 4.617678690229643 -0.9915141101900554
1190 1.0395220022156106 0.6958191821236507 -2.589318107580791
937 0.4004807411620509 1.4734137009040733 -2.71375978294272
685 3.133019282477374 -4.350669816833815 -1.8755199232777777
436 1.3825861770250034 -4.367566280142206 -4.016581948904582
256 -4.073277207519824 1.1927117461256957 3.5684128947257463
724 -1.1270897182345891 4.207297814049349 -2.6576642172683997
1012 -2.4728583820077144 -0.8592567708491213 1.3514097568300156
506 -3.111990954378199 2.360748204714101 -0.40358113859766037
1300 -1.091082998740312 -0.8112134533397019 0.9280827906503664
147 0.43268637840567004 1.2370570117657518 -0.6837321560463823
152 2.259439297763082 -0.8649906390036926 0.4125108689673852
435 -0.7120663875289692 4.863907327481719 1.3405495098233744
760 -2.9006187734386413 -0.7865538619507394 4.5796387668390635
293 -3.3016547182648766 -0.3416918399451735 -0.7187879165510447
723 -2.7551522452362205 -6.946370966904937 2.191992410531224
1048 4.707660940444952 3.1090189731164246 -0.6223679140481844
1011 -1.0324489185866597 -3.0234690239030018 4.184570521494074
1299 0.2970888485541071 2.311398200936048 -1.2617661687017945
437 1.449775095212923 0.9935690556508213 1.3114031573463067
472 -6.358304454593226 -0.06314931992439861 1.1620415048829902
183 -4.616360413192596 0.49067073384136795 2.587466165446472
259 0.969925138135478 -1.8493732551487254 -0.4093097262684772
1410 3.47555505415938 -3.21977484322872 -6.157013984826287
471 3.8466907211840593 -3.705948412417812 -1.7252310730095854
869 0.6613143433488142 -1.073718051883778 0.2674238856079011
759 1.063403844556872 1.4935464071980347 2.887318671055245
1047 -2.695431230451041 1.001587439326053 -2.9585465902721015
1336 1.5952020367414377 -2.3095933985315176 -1.9506325592936462
1335 -1.384011900122051 -3.2621726578053907 -1.8291196972319705
1375 -4.030657619292514 0.30049097114085765 0.8092099283077219
508 -1.259186457553102 -1.404265910919629 1.3733668760199598
1411 0.0830836194350977 -0.8632823446942044 -0.1606809478967491
796 2.534342243613286 -0.1656391355706711 0.36969675786594697
547 0.4891637485522587 3.6124266945696726 3.5885763184292614
1084 1.5325465218031602 -6.020027268303049 2.1157772029459783
834 0.2308993037911104 3.0829998703539414 -1.7201642511939235
1372 -1.8873319993250866 -3.51500316142622 -2.2483990269791487
725 -1.424843303078839 0.8377044989282786 0.02946082171490541
1301 -0.6553753724888397 -1.0048734211315353 -2.82327633422523
260 1.3671706705667694 5.397142200292824 0.37955638302951006
219 1.9101658265290422 -4.0592035425225115 4.967398781311625
1123 -2.6962871065059795 -0.4066653938472145 5.814531584402877
507 -1.8178604731657693 1.6888501150603878 1.0469937764128496
795 2.6601762407698417 3.999296766028898 0.09232886793026714
1083 -0.4319842826149102 -6.049316772104804 0.20836421486064466
541 -2.9690388852491587 1.175998290479784 -2.5493342397239425
1371 1.5993360697020471 1.2830999092009403 -6.444535208407433
1409 -2.0869427509933316 2.8421089532463157 1.9190987909397899
544 -0.03513475991533361 -0.37516779964632435 0.20547401331109708
255 -1.8578752502648213 2.27027362143155 -1.4068329639058887
835 3.2549293991840154 2.85015573201881 0.33024108597633667
832 0.9223035693819537 0.41134480533800183 -2.1641334072246288
543 3.0430963595139646 -3.311511864499407 -2.2223019839852345
1120 -0.3966797692177244 1.144523184904716 -1.2451602537436548
831 3.4950682014393117 0.9403137602489033 -2.637554262391249
1119 -0.39114686956695094 0.9752086200971893 2.2650362764783316
546 -1.1797581596006406 2.404060743943055 -1.3293017241575258
1408 -1.5749604321389734 1.0919345204577147 -1.7255132475039874
1407 -4.973493659663355 -2.2213642241290437 1.5009738689607992
836 -2.532829735523024 0.18722005203868378 5.351252204834146
150 2.944919780263063 -2.359449652704616 -0.013101319144363016
440 3.054366889711263 2.413313340506385 3.621708015824204
548 -0.28236907362020225 -1.1635158942968242 0.08641640647065313
438 0.7615530765802244 0.12127434633480767 2.6597116450784934
728 0.21626646278345787 -0.12926627879729516 -0.49753515092256556
726 -0.7538277334716709 3.1699008219208302 -3.080456208304636
1016 -2.6846375625906895 1.3076189962406042 5.798866801786709
1412 0.05390630076524117 1.5243854157360752 0.44502661702802987
1014 2.4850756616566194 -1.0647421062678977 3.300340417547448
1302 5.641373413327167 0.6755348494436663 -4.267364872141301
1304 4.6285836846377935 3.008581516616257 -0.9731725413551845
151 -2.5676755174361263 2.4199165753857916 0.15819698615758407
473 -5.115365952263282 1.4913561209217816 -0.7381044416828061
258 -3.6659518728825287 1.3430284926182108 -2.276302980976965
439 2.4616262270341696 4.695028700530162 3.868481840256841
761 1.1454493995461141 0.46646916239132014 -1.7239584439826319
764 -0.9516011618961309 2.5453210094383354 0.5526602980316494
727 1.2047938838114722 -1.3728685684875908 -2.1765706663145252
1049 2.310154411987434 -1.248169177992409 0.8491063687390968
1015 -0.1324335028854225 -1.9174362550977302 -1.8402673303126682
1052 -0.22522947310387323 4.743094235939119 2.5347926490560337
1303 -1.6399811774508697 3.1523663305827547 -1.3651468900228747
1337 -3.431375509023824 -1.5268306629900514 1.239692513832553
1340 0.15817110799138176 1.6541992265588064 -1.3514236769700907
476 -1.3647781960057888 -1.2129674168826206 -1.0725328765001763
186 -4.452462863593222 2.9604516437223767 -3.2957179605324467
187 -0.9614660661881199 0.015145722515303474 1.4445914962362416
1122 2.862578003838775 -0.2001879183571302 3.440961120952107
474 -0.3187660280209328 -3.9489691757118726 -0.053878066400948624
475 -2.302684077863007 -0.815437307973234 1.748317708820667
762 -3.9101192063039467 2.118128681192507 -4.602221692995138
1050 -5.622110396964068 -2.3106892833387045 -0.3151996406425195
763 -0.2177485259794275 1.8769830799394618 -0.41072365876037
1051 1.2997668243292793 3.942308857964228 1.3612835768938418
1338 -1.9283767926214586 0.7236318923103795 -0.8431770061130451
1339 3.492017302329268 1.0465180793432436 -0.24924145133953077
509 4.458842373396884 1.310720763666981 0.5553978663822264
512 1.2171934647839118 0.8488991672287911 3.022909441431081
222 -1.6990223837611098 2.307411266528761 -3.8273760502349834
1124 -2.133412894680256 -3.495630721541592 -0.11222969231588033
797 0.16084306632931014 -0.9875822872337193 3.950693761996079
800 4.435216508389876 -2.1962407667877466 3.6234748821520983
510 -6.9341196673112675 -0.5749878864801273 -2.837671368565167
1085 1.7031967812059314 -2.770081759511668 -3.0697696010247553
1088 -2.883963944379133 -7.262758759772468 -0.6958178348869021
798 2.5860238120113257 1.8803088789160975 2.9460115914104392
1086 2.481502403378674 0.7666132059794416 0.8687543210062082
1373 4.210202661316381 1.353424077815497 0.4870936228096185
1376 0.7525697452786954 1.4205113988705207 0.14840589012462943
1374 -1.6725142858097026 -2.5535575875931005 0.6797478549295981
545 -1.4742738494638283 -4.292514463948696 -3.5432569015137765
223 2.391896506560924 1.3260482601206915 1.5514438703322526
833 -3.486951224000015 -0.8461338628402637 -3.351436173446
511 -2.411799389370073 0.45145289811973904 4.005133858127126
1087 0.7599306638020311 -4.448507911253586 -3.8200900616590596
799 2.5499046806645054 0.3912480613413871 0.7519867666266057
1121 -1.0775146507268154 -0.218585780729433 -0.8196448396197918
1334 -0.7669958724032997 -0.6943990332628311 -2.4204777840006346
224 2.0418136618750995 -2.967105032737199 -0.09173739866542995
184 2.476839201016902 -1.7134181884501518 -0.9171812509106064
220 -2.7902885402754887 2.1665668784134318 4.777209456897804
257 -2.189826098057562 -0.9445665433734769 0.09433526914871265
793 0.29732396410255235 -0.5454183815356253 -0.9618741890333056
1117 0.7554774626478735 -2.2687869312298594 -0.9041325676512947
1 -0.10202725213070103 3.0557905621676644 1.6205688907014772
758 0.9339541427405921 0.8704125073042485 2.3429062793424573
217 1.4363275775879294 1.9019763490337247 0.04225263790201618
757 0.21767747045561772 -6.7563667859789165 0.8285622527409812
146 -1.1948426808669992 -1.8561979508933533 0.8107820051130082
154 -2.0572773297267712 0.23938701916979435 0.07133942269649234
444 -1.4432622067445562 -0.9579913305340968 2.453522350687345
442 1.22429808985996 3.51537224507823 0.10006545515452393
732 -1.690831527477464 -0.4186462232239035 3.272681318426705
730 -4.228957846019689 1.3964010921800782 1.6954170629404532
1020 2.6598567976256366 2.731681666844452 -0.09342672840876078
1018 0.505547393415275 -0.7631220268221967 3.596769108188734
225 1.6658036238761573 2.1052449887717954 -1.848610188970576
1306 -5.9491209558217175 -1.9752908819297383 -0.7639882196338459
1308 2.436214467712648 0.22356177479481473 -0.8439418838519475
155 2.952823768924648 0.902054935370047 0.5931994259975508
477 3.6969803089759865 -3.6285314943483655 -1.2775052128292783
264 0.8183742508086572 -3.6479407009951004 0.14303887671460086
443 0.8357889603231076 0.5722223633811508 1.5973355484726932
765 -0.10315209424347258 -2.3512396932777593 2.262815746478334
768 -0.8131286677949534 1.6724961075801303 1.469507047743168
731 -1.815116302242683 0.5988997333473307 1.7568835887733967
1053 -2.481217575439008 -0.1810937331643874 -0.9237625234069259
1019 -1.484863859737069 0.9371728090386819 2.595453713419693
1056 -3.6399694816175967 2.1596152498658205 -1.113759759524315
1307 0.9870535880698856 1.9962518437910204 -2.0704070958244305
1341 -3.198861590574335 4.750141915878725 0.6922393712662835
1344 1.3403559224965098 0.1979457326886565 0.399506556340586
480 -0.1899226027994913 -0.32300268576019164 -1.4168588016789636
190 0.6128887203401129 -2.8606011484029326 2.1287339875883693
191 -0.2896951972418135 -1.524423392696148 -0.48912282677277014
478 2.1629196208234003 2.919057341508068 -1.839266968012298
479 -1.7058947413139638 -1.926927767488002 2.5761584664161883
766 -0.9458921643901121 -0.20613823930910286 1.8935206093873007
1054 -0.09981721724622608 -0.6017113523673008 -1.4535745687389876
767 1.7821062818463156 0.05146415247968244 4.332173183320272
1055 5.09998063145827 2.927014877071831 1.9931081720652095
1342 0.07489545333796417 -1.4071941356949949 -0.33948898697256696
1343 -0.6715694041297939 0.49568301165627005 2.9703238737083275
513 -1.4658394601982576 1.0004592122254738 1.845323044518134
226 3.5339543777050686 0.19577874919357888 -0.07993157816723936
516 -1.374520679598751 3.7338223880877717 -1.4511605542547459
801 0.4865122960792473 -2.6967138688809578 2.4828000324904203
514 3.6403456286765477 -1.7421454394395903 1.0862445308230515
804 -0.6295359783149144 2.6751108534024497 -0.7047191700059858
1089 3.56939938759078 2.584323503285951 -3.1195584644283088
802 1.2033840982573325 2.4650020047811054 1.0510472298999058
1092 -0.7430231849476546 -1.6468709374148627 0.9256076347594996
1090 2.8383320517314905 -0.7835001386449356 0.9964237395650299
1377 3.583502338296216 0.5252933585930079 1.81195643427796
1378 -0.6354677948791505 -4.37349489774071 -4.421484093433929
1380 -0.05061417950800883 -6.162468829979205 -1.057740685984244
227 3.3669285149399735 -0.5396408594053828 -1.2275393564855384
549 0.3021094726922773 -0.28792926881272973 -0.6937177349557357
265 -2.655074082423887 1.1496786579741842 0.1057932539243167
1420 2.877584516239271 -4.598748597467241 0.12727164943950672
515 3.3119221965681804 -0.16729028613669797 2.6916631357540606
837 1.5408608898749474 -0.6429847693328897 2.1543528295407306
803 -1.9235035865379924 -2.162752411205015 -0.7918766739348791
1125 -1.6300668027547638 2.038612789867668 -2.287810434125617
1128 0.7041350845246379 1.3523281511211902 0.5106540312209366
1091 4.515375444923383 -0.22929985598066213 1.7651287756528984
1379 -1.696525355830507 0.2014952901195595 2.817873026732887
1413 -0.5404194463196875 2.3096316981641345 -1.2283624116871603
552 -1.1969472107855512 0.41005857406222557 1.6613665737668488
262 -1.1935547109024873 -1.9606177085687433 1.0057184631919702
263 1.1907547814307151 -0.08180281541545302 -0.5847799765232813
193 -2.151584276921459 0.42334193237389256 2.1682732141413386
589 7.469824971729181 -1.1543776348503103 -3.976599985616344
840 1.6778521691250137 -3.617703408498819 2.1382641251385537
550 -1.1443016896667042 -1.8138744753477238 2.43485548256919
551 4.492653726048536 0.86820745599066 3.5683739962460854
1419 -0.1927153662041771 0.1697633000025934 -1.3153013124707222
838 0.06419818208310872 -0.31648811780380337 -1.0899538837376348
839 -3.0383805232942147 0.61380651033778 1.498942429603865
1127 -1.2623187838457781 -0.3019761076881815 0.045847944989481686
1416 -2.1163051246924494 3.0740950605239155 0.1409644958528517
1126 -4.203648964110238 -0.5399730903138691 2.9056887699828304
1414 1.5067765190595435 -2.851684070623351 -3.1290657337059544
1415 -0.7927876577366005 -1.4274291458623982 0.6014328885304518
192 -2.5383477479515104 1.1072848816812677 -2.733374580892693
158 -0.6665056664899377 2.393398760726123 4.4001128748452345
448 -0.9108894978431271 1.2171615366279094 0.5958935693386701
446 1.1726942139648278 -0.6368682000274496 -2.279348620646286
736 1.2335259756481356 0.9981582447700211 -1.5480316749995722
842 5.241576939423175 0.808237552849479 1.9717419185767926
734 1.3087345208338153 2.058627930202209 0.22485337903509608
1024 -1.201444514798934 2.0542033255842296 1.8298046098479563
1022 -1.4774397648323754 -0.438883171966125 2.0716849418236087
1130 -0.8131968079221569 -1.2998918564818718 2.979557206570699
1310 4.1888647242814105 -4.7366926775559755 -4.90077580829291
1312 1.6093280028448471 2.333823419094482 0.5002740179391961
159 2.047327504102447 -0.4768623863942105 -1.0849895535592726
481 2.230163385365296 -0.6761196768418064 -2.0246668784600637
1418 0.6700392563360583 -0.6299289606173101 -0.8408087863732178
447 -1.2923665215562048 -6.879106017408002 -1.078882711531466
769 -3.590388308570545 -6.333335115791153 -1.210323869986145
772 4.092292830134476 0.5037273081122062 -5.3282421420474835
735 3.67558789734286 -1.1969087674021872 1.2241396735918668
1057 -4.125480410672159 -0.801164624979322 5.070880328051907
1023 3.1533848774346325 -0.09001112345579548 1.4026352580484998
1311 -5.700150535081001 -3.63868037011747 2.2559901933677797
1345 0.9659483781713303 -0.46655389258499225 1.1988106105252752
1348 -2.0949131926199165 1.1802262436963877 -0.96135942394019
484 -2.0321315010416043 0.8057043497255434 -7.7839840240134475
194 -0.37354631283611356 1.37423982487785 0.3496928666576707
195 1.1091742454730464 2.629790942503469 3.2029236605527696
482 0.6446483817735168 -4.054133274278561 3.1008148936816418
483 -2.1377124800315213 -3.03584397899852 1.1891491955231714
1060 3.311208796540335 2.051271907297589 3.9663552424925146
770 -1.7722248212710818 3.09105476265539 0.2702092867021053
1058 -3.148697610399834 1.8529203350242838 0.43073335342721675
771 -2.685237609088494 1.6150339193316314 1.1846210463569369
1093 4.304748046248741 1.237120197156134 -6.479301492294566
1059 1.0990313581941866 -0.4399814974936842 -1.3303861914936888
1346 -1.1125497235187962 0.07435028040509245 3.454576835931149
1347 0.09690177302430375 1.647052741682406 1.4569419207807004
517 -1.9332005549056488 -2.265992294688777 1.9211134621675783
230 -1.1577531077412087 -0.0706210078536089 0.47087569912246346
520 1.1810143252106158 -1.6561780150333776 -2.4635106599170817
1131 -2.273327462999789 -5.167612191560476 -0.3805123664587753
805 1.0493851885217569 -1.4343564523458328 -0.03904031739061936
518 5.894825384198804 1.6491326617111641 -1.4812126602415763
808 -1.985546430771153 4.610559717107935 -3.3987753353386383
806 -0.4082272677975757 4.45388764579855 -1.4191639128955842
1096 -2.8301638953628463 0.17760169609628929 0.0931268698470774
1381 -0.4816046316200924 -2.2469532980301823 0.2556774255829015
1094 -1.3809826621395782 -2.560776087618205 -0.8906967035111412
1382 -3.7663894653192047 -4.789697510153197 -1.0029734063060984
1384 0.2987133992801271 1.1205706604988324 0.32202233592595203
231 0.6215507193529365 2.0653932419527767 -1.7815644740450383
553 5.354541272329599 -2.8792827235967136 0.930416786885301
519 0.7412501546129593 -2.674016871048646 0.2486232196958871
841 1.407632564900303 3.467597816706321 2.5776280486633674
807 -2.135225692135332 1.93639073344518 0.35131740060848626
1095 -4.039229562502903 -0.895008143340165 3.0827102279231506
1129 -2.6993505118414927 -2.8523312579340114 -1.5895842685657637
1383 -0.8731333127387653 1.139568837691181 2.476341228544535
1417 -0.646994169531678 -1.1149709569837132 3.5225495510303997
843 -2.6191516579321976 0.6024551188358656 2.0736403601403173
556 2.0931280962662684 -1.532087955959153 0.9063713021469627
267 2.6293979650568047 -0.6602569068048011 -3.3907142894500564
266 2.0543578711555224 2.4693308412462067 3.3443684796457513
554 5.164039422153412 -1.0609498185103592 -0.6011837118420589
555 3.7973442598845946 3.8407648884699577 4.052529367938043
844 -1.720467646701218 0.4474083618127048 4.814653740379539
1132 -7.320582151036061 0.42104828327775773 4.447824732551414
189 1.1106661221016592 0.7948826405216816 -2.8704401824965893
441 2.5513948564899347 -5.1432025071798595 -2.1368644463242914
297 -2.659906022710847 2.7900900804670288 -0.6526879659521045
873 0.04125169780219077 3.802072086754624 -3.098948049245357
1309 -1.4216387681997495 -2.379037861902406 -2.499758418668428
156 -1.6235433525345642 3.1894277292332065 -3.195425245274518
301 -0.7999904438953774 -4.380164096501167 -4.613335524901855
729 -1.7987883759020546 4.534540445954743 -0.32723619984310576
9 1.5905366565271948 0.35304394337751427 3.3596208087768678
1017 0.22932593306335883 0.6991345614937332 -3.334786697081841
877 0.3965897427040023 -1.469439675421305 0.1233546181092386
1165 -5.332295256355117 1.2246101297136138 -5.4324336310165355
162 1.9723266949331484 0.8669875217098788 -3.509885124437936
1426 1.3872252940927037 -0.8101208732792471 2.1588336481130663
197 -1.9730811623087978 -2.039507433216813 2.0473655466653398
450 2.7367172198907745 -3.432509848134511 0.19295173685737438
738 1.6325259206289424 1.47691070633579 -2.083642761958306
1026 -0.9665634302804363 -0.030613775667748006 -2.39434316140503
1028 1.1659656400992815 -2.611542239045076 -0.28912379493831486
1314 3.890744919055633 -0.9976305740725983 -1.5523881580583365
164 1.4185538107169637 0.7159324030378411 2.6907250181693843
485 1.4513843201082233 3.063358992743171 -4.058090503252385
163 1.8149938797306295 4.416447343108076 -1.2037122180010273
773 -1.1457110928131742 -0.2866080441682973 2.7382037019561984
1061 0.7851536627598453 -1.1970634151105672 3.0750029616836447
739 -1.9040279316085367 0.6412781763313952 2.7152140674251957
1027 2.4410171204902538 -0.4664985351143264 -2.160606283177089
1349 -0.13761857473588604 -0.6921241560181618 -0.9877981166578558
198 -1.7741027065330093 -0.9512145330060683 -2.832808627321232
521 -0.04294298253881254 1.0559743079951904 -0.5443182452023673
776 2.531356741001618 4.057535191425012 4.900061180802548
486 1.6551921444808102 1.6212994082092522 1.4181234622320518
774 1.25984997910784 1.1130891775651126 3.0338480410812583
1062 0.31809069267337226 -1.5985733174991759 -0.23478961403585757
1350 -0.6438741123658364 -4.200001767961268 0.44695521025290985
1352 -2.241575120433758 2.061976830617584 1.5514674495386453
234 3.8824916525587234 -2.228195365847612 -3.0458229840187316
809 0.02978284014565515 4.622600131515613 4.91482239377914
522 -0.7320064432749277 -1.4741985656742946 1.2318722026758422
1097 1.3230341094585714 -2.296686108693813 -1.548224519875481
810 0.007328096415431972 2.816658824571287 -1.256193266657832
1100 -2.2104935586051413 -0.8927429475233765 0.6684080634071947
1098 3.2796620112712653 -2.387250713753244 0.15066184365340002
1385 -4.481518128072173 0.3940318129334912 2.6086176545189343
1386 -0.2375960338138913 -2.430551186034024 -3.325125896076945
1424 -0.6768884888988678 1.3187004998919645 0.16219318624157983
557 3.164059320462416 3.206796613272773 -1.8192747073387152
560 -0.016736055091357387 -1.538080817094257 -0.4519716987476563
845 4.062358496276758 0.9324640271374538 1.2742245479079672
1133 -1.4684046504825075 -1.3906681560405514 1.374706360087991
1136 -0.04794986586455533 -1.2905918318823666 1.8987882662697675
1099 0.8804390032743528 -3.8620446899946175 -2.653516635216436
1421 -0.02073167848467664 -0.4890402821471998 2.192764010348911
1387 1.6523206434821802 1.4472262985869988 1.8437361823412841
270 -3.9010675654361116 -4.262398217803629 0.08257556669081814
271 -0.7520620979107122 -2.6231934446638516 0.5811435623497053
201 2.336978768579666 -1.0895939170160844 -0.9781379950470435
274 0.19201560323759095 0.5254899578301099 2.33073030611774
558 -2.4976834031524406 -0.077385224416753 -0.7376906334912728
848 1.3495948546397742 -2.9035491586399167 -3.976751404653808
1425 2.0449016329467655 4.198343097687576 -0.6329741334563279
846 -0.5898193737049957 -6.455625057071206 -2.2610131790064614
1134 0.6547000377282294 4.765180759218667 -0.11189354908007867
1422 2.168331948081292 -1.680712596259983 0.36643527317370334
1135 0.10216339044161198 -0.2893370518925651 5.0001964773087195
452 -0.05496699229202775 1.8311535097310438 -0.45609203672097837
166 0.5634108119564865 0.23894929182765212 -2.5275683307428163
847 -0.5716923092093871 1.006965120343084 0.2099953480064544
740 0.33296836744307995 0.7414614991354379 -1.2512522557674373
454 11.40289449839667 -1.7231301422965613 2.0129861772081212
742 -3.083564437794126 0.38436147190506853 -3.9180389612211326
559 -0.13902389892331277 2.4493975830953167 2.170638201878668
1316 -1.1639421230096763 -1.0304910503018765 -2.9534585952601002
1030 -2.0355721495616685 1.0567114230905321 2.2074944307188096
1318 -0.8908995333217521 1.0276580750169741 -5.2522308639235025
850 -1.2111122844407072 1.6942894762141039 0.3966040596143993
488 -1.659858329027395 -4.585753526400817 0.003746574844895087
489 1.4678897155344186 0.8908170420832026 1.4924314555839944
451 1.8183883694270322 -3.9883924062844334 1.4272119159351373
777 1.9067140495909265 3.312211542084591 0.26005194166773576
1065 3.4624209911465758 2.1374273102060095 3.3348876427074035
1315 1.4828810051844021 -1.7449003182437381 -1.4326443474053128
1353 2.4614419850170868 1.8683660872200987 -4.5326084308406855
199 -1.2060767744442062 -1.6294587845044997 2.241649497751076
202 1.7500261365550824 -5.614300696646367 0.3877430432776581
490 -1.277320999933067 -0.3421939146100203 -3.184253078934849
487 -0.5291058902265191 3.762634562147817 -3.099587831676457
1064 -2.036331621964116 1.1108128738896768 2.496897604255726
775 -0.9455716817093706 3.7338338368476696 2.760870483315804
778 1.3261750651565065 0.8252442343197525 2.6690241464282356
1066 0.26121653361160346 -0.8459211181884818 2.4972011144349353
1063 1.5022844523702505 -1.4363664506818568 -0.12230613920685422
1351 0.11727984230203352 -2.4502671158535927 2.420219005264854
1354 3.0342259007425385 2.2089018890428944 -0.18253501536048924
525 3.0512930000014826 -0.3252230344005684 -1.5950595578936826
524 -1.9919757658236272 2.259192966519233 -2.8220347545276683
238 1.8350676035820899 2.051480593176637 3.8182729977857446
1423 2.7346657410951747 -1.1445783784934127 1.2050933780205042
562 2.8298279861594127 0.7545807809764299 2.7393711946522066
812 1.6787710791220765 2.6035324206790222 -4.44001808809374
813 -1.0595688665313276 -2.9216915615478283 -0.40235055841269657
526 0.8640981693113369 -0.8346317966487503 3.162692228629237
1101 2.1624442147232656 -0.6862046762614019 1.1155556847796526
814 -0.12197111367691935 0.0415023072565883 2.248996774740439
1388 -0.9034574201974589 1.5791405315337343 4.111507679654232
1389 2.6669530914589594 -2.6433006941180435 -1.270083187722921
1102 2.461800825580188 -4.161336341269367 2.2171530207937926
1390 2.617819185460722 0.49535390760521814 -2.9599126575778567
235 -4.176916852041798 2.0709658643218614 -4.691061330993672
561 -0.7121653460763668 -1.7733331153791987 2.181363145949119
1138 4.345249281708857 5.591167938427829 1.9296622335612053
523 -1.5119965144397998 1.8278370042450673 0.6819515720826088
849 3.1316355733477135 -1.0659588403242788 -0.507197415172939
811 -1.639881035049495 1.1915939143833136 0.07301794276675933
1137 -1.8427060083648066 0.4168097183280873 -1.4384476774205164
1317 -0.31089069762483357 0.6519925094075788 -1.3451110121993182
885 0.7689850195253966 -1.3921047346297146 2.2095817716653405
881 2.989258858477107 -2.348420588268705 -0.7941676479390699
597 4.039168984930559 -0.18544739698454843 -0.3035317792537319
1313 3.0046114224752225 2.7488910135825315 -1.4612848844138528
21 -2.762436901075629 0.46132848005065535 -0.5604977386013901
1025 2.3690411645674687 3.6008647149860815 0.4910493318552528
449 1.5576545323458049 -4.672404762365746 -3.8380740927989527
170 1.7070617669572086 2.213896513781396 -0.13406836237559022
456 1.1269179162529326 3.141605720512937 -0.43335695859564627
458 -2.9190428443971776 -4.6209976675536195 2.8871141441161323
744 0.12377395910431875 2.7438554800665416 3.9260133791336465
277 0.5995355476716769 -2.0471931588308654 0.6986246858220632
245 2.3207332345903717 -0.927836275106642 -1.8882545392509487
746 3.434184136316454 1.1108099254728676 -4.337144313830139
1032 -0.3468732432489772 -0.8970760450110133 5.672959377414464
1034 1.7837396071294254 -3.1944336800653574 2.5411079230260647
1320 -1.0075688655494446 0.8899301709906587 3.725353888651689
1322 2.0819741638116183 -1.6904038702444972 -1.447325358098772
167 -0.5852649145676815 2.4020834291526283 -0.38182151691930144
493 -0.5283162315769231 -0.09738062089626873 -0.5778957406220001
492 2.777415692848905 2.003865757163911 -1.0067842678609031
455 -0.11350770876709994 -2.0138300522278687 -1.086475469913515
781 -0.8404734386331225 -0.18542638608316445 0.5938913776747039
743 2.850127468360049 -4.97852957995692 -2.460338918310739
1069 -0.6359207849103383 -0.853710719306578 -5.598199586467739
1031 1.289576957439396 2.5571397051764886 1.639397347100943
1068 1.6573933430583625 -0.8047171281281997 0.5356642710635532
1319 1.8536242463088437 4.298571814353512 -4.0853796901725365
1357 2.7371304191365504 0.138179568640852 -1.0563069663431923
1356 3.8408993271465413 -1.7992428402493759 3.243347134661746
206 1.0763330022378528 -0.164107073745011 0.25522055678776623
203 1.2923317039200202 0.5954658373044718 3.698695146860038
529 0.08251193074621699 1.9537673282596155 -1.657999378590258
780 -1.5464617263879914 1.5675709230235841 -0.5332640626843771
494 -3.462220775954707 -3.5206936010408802 3.2599170177065
491 3.0294172784498397 1.339582574813635 0.7908598894790408
817 2.8797726083142883 0.8688042965108671 -1.2011996701722365
782 2.2366395287662852 1.51914566589473 -1.0164609519163144
1070 0.5149173395963259 -0.6056462706235829 1.175906563170746
779 -2.5759480740710745 0.287905297317745 -1.4540776562505364
1105 1.3108281164028501 -0.48937140624989794 -0.6989922867399926
1067 5.53866100621046 -0.8024131678148677 -0.6504906516046627
1358 0.4767658579762039 0.18815491473271476 0.973408053558957
1355 1.6580372823734 1.3851960215630927 -3.1067425960585893
1393 1.2711535197257864 -0.2751761886610906 3.4938660706225164
242 -4.022460387990471 1.013183649071525 -1.9350828450529993
528 -3.3436776257672802 4.378398878803229 -1.9870599626509733
204 -0.7994947143939121 3.117365288214809 -2.001999534121416
745 -2.1349833326443064 2.4523623376155537 -0.8215233771675651
530 -1.044175321081501 -0.07154234593244364 -0.6983253891753138
816 -1.18441966493447 1.1115809828606968 1.7792435517654925
818 -1.0564018442173888 -3.20885336245677 -5.004071938380984
1104 -1.2146538383190573 3.1687726375318577 -2.4162648426442286
1106 0.2848737627424626 -2.71801768326124 1.0814649773981702
1392 -2.142997689812757 4.326917213765986 1.1060391307543178
1394 -0.3233860233232353 -0.0729952184959115 -2.5286818437049896
239 0.37385751856945887 3.0667868479290705 -0.0025175529896992194
565 5.758870860753397 1.5561348900526386 -2.6134077522530452
564 -2.6295058343426017 -1.3670272619807344 1.1232441425549096
25 -4.393021938337925 0.04277023399151716 -2.1207705019087144
527 5.735054129910508 -0.7429677725511237 1.7520188887244215
853 0.4067718153886586 3.0661126513969292 -1.9334373630633108
852 2.49897455028046 1.6407853359517859 -1.359990285806184
815 -0.29002152555879873 -0.9679079402826207 1.3565874868604144
1103 -3.668082988647791 -1.5386952397526297 0.8101727084171684
1141 -2.7393118149188536 6.133278352021165 3.763023822085868
1140 0.09383478606702915 4.133671799661144 -0.7855449192396207
1391 3.489982746647853 1.414319667509222 1.1786960785396732
1429 -2.844837535738097 -2.3408064318542685 4.607633173122034
1428 2.699074407645259 -1.1773672928892525 0.31277425237588263
275 -1.3001571357690416 1.0336313848366627 -3.5256505249020904
278 -1.2193833771310356 -0.4506663189311122 2.352583836085973
563 -1.2822648440753364 -1.5966934265853792 -3.2610834621699087
566 1.7411674058911466 2.5983148224542654 1.2313724897202873
1143 5.652193503530611 -2.663728796643771 -0.8021522009589656
851 -4.789534316203337 2.1168391610711206 -0.6213273649081621
854 0.8338555448786564 0.07238272407334076 3.6280691344724367
1139 -0.6725116926117857 0.9517041318721221 1.1446644154576782
1142 -4.486005526452638 2.918326726854915 1.6295009417634483
1427 2.262165415594289 -2.365691169670562 -2.1884615841622077
1430 -2.33178614953946 2.871721301874566 -1.5621427337382847
281 0.57951709202608 0.9128367701916729 -2.6886836974652955
174 2.392320363975435 -2.539156879483721 5.158886188657663
460 -0.27127271938651143 -0.045683364353423905 3.674567864693946
462 4.176985532461712 0.6471784641620726 -0.9944632573651734
748 -0.22514009209639116 -1.4834731697408998 -3.5482953568426256
750 -2.6085512112174953 -2.105768360489145 -1.8969434983317004
1036 -0.9165078397088887 -1.0785325738657947 1.4051970627416384
1038 -0.4441044681376906 -2.3903294821410035 -3.1941306005373002
1037 -0.4968662849065694 0.628376272405911 1.299631044194641
1324 -1.7002890241738224 2.720415440213554 0.22447057818571145
1326 -0.7743754531666295 1.0825513058596072 3.4428873167059235
313 2.848034009302461 -0.05244236148109261 3.056167508005889
171 -1.584944464223512 -0.5594366924252542 1.6060382029819975
497 -4.387107387205634 -1.7988032963817817 -7.341847108509415
496 1.3918228592764699 2.2576325164923157 -4.970604217274161
459 -0.9668027430038278 2.7866947873845134 -0.4211550219077349
785 -1.0377127857370116 2.6200680596843995 -1.786518654755488
784 1.9755571012413913 -0.9724097101888322 0.6355987289152134
747 -8.480779380046398 1.8301465147542926 -2.5268355700454763
1073 1.5339490822506712 -1.537024195560556 -0.08653729442471382
1035 -1.803391651316525 -1.8412133482042157 -1.4838375881884034
1323 0.39481411092060853 -1.8930207064660887 3.7263272820633944
1361 2.773660586458837 1.632552527168186 -2.075462694825499
210 -1.637890307980539 0.9400386822745982 1.1773138788554296
207 -2.805002279377055 -1.8928960015684417 3.8656377180211825
498 0.2797660570079445 1.8701098556669686 2.5061194690867366
495 4.381446245228092 2.901066240454101 5.3200255626335125
821 1.1445690524556054 -1.4764554786538995 -1.226374051574685
1072 -2.410523679666341 4.036411223628645 -1.0220297671301926
786 -3.775217982991226 4.675329670608756 0.1414084487595308
783 0.3820862429345673 -2.069097811310413 -3.9065758629426974
1109 -2.6902017899426114 -0.23483111920377686 0.3145215985722808
1074 0.15364520617786487 -2.470624059553054 4.103344518498278
1360 -2.0542064327612097 -0.37215172692875803 5.487351541248334
1362 -2.4045120861282663 -2.3218526082024225 0.6669039743655398
1071 -5.46279700490332 -2.558774854223454 -3.448238716949431
1359 -0.7732785718260625 2.828277547694517 -1.1340413671434935
533 0.8043231480929349 -2.2800260867505706 2.914059226848305
246 1.6753511702786914 -1.5092638153344704 -3.0370305637054646
532 0.4021082120665872 1.0256679019117108 -0.530974518164726
1431 -2.2249759387150005 -4.825102604248367 -0.5766797903073881
534 0.9752118129389371 -0.8264353073940933 -1.1976281529940673
820 0.09815305003385065 -4.986211234567735 2.003615078720631
822 -0.8204212273005335 0.3836281494208686 -0.9373058699992622
1108 2.217038425656828 -3.265116564699502 -4.241570957482335
1397 -2.850054856080433 2.7033192520147753 -1.5210789952830468
1110 0.1542557464938129 0.8553734382095448 -0.9042076309586726
1396 2.184835842170216 -0.6248577364213649 0.8390782945998314
1398 0.3481778352233895 0.43071662271847433 -0.17656291912403654
1434 3.173357123167419 -1.6167944015828815 -0.1174915704079211
243 -2.6722099981780247 -3.823146469369689 3.2010558621432743
569 -2.340178620240023 3.184808837230881 -2.199169650770741
568 -5.33962014419749 -4.307822333562235 0.5940163238071082
531 2.477562497354611 -2.0764167315400317 -0.39687776890463067
857 4.483711009546795 0.11831667190046648 4.549805580557934
819 -2.66104066508646 4.422408159685472 -3.818844095353244
1145 3.508768782734115 -0.18746471933855346 -2.1479252387177468
1107 1.2207792101612773 0.7948842318277569 0.8754117312559511
1432 0.6407659106024118 0.6441746591356317 -1.8901774197648382
1395 -1.0146281066791403 -2.0057797079213633 1.4936256197901174
1433 -7.643795169684512 -1.3193142329754572 -9.827582219358003
282 -3.1335811722710867 3.262370660210013 -1.6235593517068712
279 1.283688319834411 -0.23670196339000893 1.099101212004389
570 -0.7680800928691263 -1.3047641849616889 0.8202682208453482
856 -1.7245201844525868 -0.02655174709690592 -1.4075036949942876
567 -0.10258866885674717 0.150037358075816 2.6511678494859523
1144 3.109015827014894 2.9532050766063502 1.279555743681044
1146 2.329247590072089 0.8106928547001726 -0.30499692447087084
855 -3.9681678776609766 3.2612964803400777 1.172283620603925
858 -0.5157117333303354 -0.2703610560267149 -4.87219349887208
1325 -1.2589696147837204 0.05289502036794585 1.9946329877737878
1033 -1.9764020447325867 2.2917459705518106 1.011427036956056
605 -2.8014393159548625 1.4024693258673304 -1.9731988137241183
749 1.012643559167982 1.5614620308772087 2.6717020011860835
178 -2.640655715077799 5.0969728479950085 1.2737179734614112
464 2.3527863648905005 5.495911516048053 -2.246529936125139
505 -0.4035300490881139 1.190638595738777 1.6748093467609164
466 -0.9419860380941494 1.5475733188835794 1.9286874066915591
752 -0.8709365784921304 -3.231844719945618 4.169806758061492
177 0.6917141539343524 0.9807378923314182 -0.029543280198654102
754 1.6604972547316657 -3.634019578549515 -2.4150087978414483
1040 0.30966727430218194 1.9387540081306225 -0.8127089615796871
1042 -0.6670912500622761 -1.2808926567429484 0.5932041999913238
287 1.8517463143328894 0.6033013541018203 -1.0068017691261633
1328 2.2052372280738948 -0.9195222428138664 -0.05014188017977416
1330 0.260434624004433 0.6840073818601098 3.024218267151807
175 -0.6365606672925075 1.3858449321398434 -2.860709793932677
501 -1.0735245279278058 -0.49914743071767925 -0.4515403779413526
180 0.6901601555611672 -1.7960843620707525 0.13574732959259625
463 -1.4792463786849732 -4.244661953656492 0.4688520896895916
789 3.165184969130044 -1.8044217027959228 -2.273837674710807
751 3.2848694723038285 -0.6520921503301003 -3.3463152016128297
1077 -4.539441286594247 -0.9081086675179911 0.04259951790562597
1039 0.9576101282205511 -2.3686688867395236 0.5783347749856026
1327 -1.6566048604305907 -2.0264693633096407 2.0980650618564667
1365 -1.1707271189305672 -1.7536656653148228 -0.91388616333217
500 -0.0334985783646924 2.372502014351097 -1.0702749839204253
214 -2.401410651289822 -0.9383742091368983 3.51202882891581
211 0.4983104927233464 0.7059940592995374 0.4268919086224014
537 -5.235205951163128 0.12785141470534261 -1.9250186420943707
788 -1.9698585030558369 -6.857642616324864 2.510632961554119
502 -2.087286114719723 3.580522447140861 -2.332139680678366
499 0.872740138651396 -2.0788313272384005 2.988769124360459
825 -3.700157516376673 1.7548278783393354 -1.1522972052146667
1076 -5.8837181831195995 -0.42844311237180943 2.1397713049083174
790 -0.6338424618597781 6.199484061116425 2.075500693834045
787 0.6395007138196239 -0.933608538255492 -2.0079206756591237
1075 2.479803270464154 3.3767148304177104 0.47929224070659
1078 -1.5142515362762197 -4.455821255583617 -2.3053529444186167
1364 2.8724494894616286 -2.4010656232956262 -1.3521584997984266
1366 -0.5687292409941702 -1.9369159993858007 -3.377486101245418
1363 0.20505651663703273 -1.1938047892631067 -2.1608693348511037
1401 0.6863827833112931 -1.2068875986608643 0.03438561368880264
536 -0.5273291319852026 -1.3901937543775462 1.153774634565201
250 -1.198815072032797 1.003469393290383 1.4005724640089359
1151 0.8101409953264402 -0.5019873041920633 -3.008652016478739
538 -2.4124493149492907 0.5487776544433871 -4.250269300462243
824 -2.1388931355238143 3.5480689534426157 -0.47061261047216085
1113 -4.849358617757932 -0.43981021820657196 1.3015831543073078
826 0.8811545862245076 1.7363683577370868 0.13179444104166493
1112 -0.9269976395064838 -4.294810556574118 -3.4457206548419137
1114 -4.593600818886637 0.6560233877410533 -0.9127472695439982
1400 1.7192110557001254 3.674149660791137 -2.5479348825917927
1402 -0.2411981119396284 -0.04724295832802983 -1.7145759146619437
247 1.6497120513910093 0.11047125897187111 -2.1069215816442073
573 -2.5107093579186293 2.076841642046642 -2.635730925447904
535 2.353231765710058 2.999020327498366 2.338868800162103
861 0.7473270128858084 1.09249423124013 -2.431904245041988
860 1.9435284497891105 1.4185709557199864 3.1259680297595067
823 0.07459798236904507 -3.125631355605045 3.0315874048466487
1149 -4.2044334242029615 -0.21660351796334748 -2.068082212380792
1111 1.3929373498170163 -0.35809652010031096 -0.4748829005261824
1399 -2.469529110903831 2.6218829152377494 -2.5845126432408163
1437 -0.5673664294385706 -0.8137552767239326 1.3430498887188647
1436 0.004784287537540253 3.4562004767461803 -0.46450360803421026
1439 3.064634988683194 -3.6889402704963636 -2.3145788296857672
572 2.839595775692889 -1.6792446930938598 -1.726523914682443
283 0.954715844663291 2.037848799813819 -0.24072908714844565
286 -2.6598917031928173 3.3205258279443184 0.9926687222185534
571 -1.3768168633596378 -3.4688993324610107 0.25841280016925544
574 0.9989909722113751 1.826513521396495 -2.268947075002344
1148 -1.7564258588424386 1.218409023864274 2.1348119214811483
859 -1.979405045442121 -3.1894653548291267 3.1481257669574387
862 2.5050663590994295 -1.661674795441709 4.160038243354484
1147 -0.5512296710754205 1.175674667845691 0.20081846921821936
1150 -2.9427711083876207 1.0264362833832166 2.214952914122949
1435 -1.2678630349961708 -4.709442276607156 0.6451172187773471
1438 -0.8532343899282737 0.7584117702273959 1.1488522459877104
468 -2.7586038304448453 3.9057631230688257 0.8623740323641362
1298 -0.774681711094277 2.4108940159081524 -1.1799063094530196
1185 -0.06204860916730672 -0.42377494229279683 2.0340277890337037
756 3.885080804730107 -1.1522883629085965 2.0666163988473873
576 4.859150570036012 0.9861535536851216 0.5856780948943484
1044 -0.3273252636821166 4.637739555837176 -1.7991873086821073
1329 -1.1034246736564715 -0.7665834097282817 1.0307031642319406
1440 -3.920700075552957 2.305987098003825 -5.832534902317742
1332 -0.9527604945117698 4.776681716304111 2.5796627769043643
321 -2.603536341869757 2.0846890252543755 -0.9012867820424897
179 6.7176969405700575 0.5344494985400312 1.7548414642406076
1403 -1.9301672590882561 -2.268687427797265 -2.914380321740464
467 2.8061529264878278 3.927609428405097 -2.6717948343140283
1152 -4.173305508240258 2.91500096418314 2.927069203222889
755 1.6793411055151177 2.4110494263490905 -0.2624443225464442
1043 2.0935738013559386 -3.5275643426441725 -2.971200455780486
1331 2.4956475814045778 -1.7603570477151593 0.1508465682656171
504 0.08870817401806393 -0.27965440585594625 1.2901399730025107
215 1.560666138056671 -4.300883508335416 -0.2062451226594143
792 -0.10584686991154085 6.48943445428013 0.45168360636512855
503 -2.7688575826364974 -3.076350631264555 -0.013465295672246556
1080 0.22364799495993037 0.4770058306327103 0.6041710856933126
791 -1.4930431385695422 -0.8758286188850324 -1.8808518454332819
1079 2.1044499819681803 3.5457628937443757 0.38905569957139885
863 1.7702042733058712 1.5646816839374629 -4.638642541740615
1368 -0.15695895332698384 -3.4320369713461605 1.4634645602458531
1367 1.5925306976226228 -1.3913205429015574 -1.0668185536368229
1297 -0.9521743215902959 -2.0719041985752478 -0.06879918125285324
470 -2.043698939444274 0.10584404663677119 0.9713640299964953
288 -0.6790420805455412 -3.3312182285109677 1.7797522445346423
540 -2.070336925139066 0.9402388570493625 -2.6051991499554865
828 -0.2623728707581735 3.3905065285115987 1.2051853969011774
575 0.42554694601326754 -1.9439906902330837 0.8940466491840724
794 -1.443011291319232 0.8011702510493128 -1.1926157144449583
1116 4.347114623057984 -1.373211817308953 2.004610886302294
1404 -1.1578376282227993 -1.2068418977212607 -1.0730386560649923
251 -1.1273932911340931 -0.4998271226392572 1.7813392550191969
434 -1.8906083380439245 1.18520091558234 1.3870672569792766
1118 -0.5581480368843112 -0.20387721450307328 -2.0151603841092474
539 5.547087939500046 0.9103920682820339 -3.659467538195775
864 1.1200517211298442 2.4519916666241515 1.8657214549753034
827 -2.0532977969495185 -3.4867747528329467 -2.756873765979994
1115 -2.100393966759083 -0.27587426657732056 0.8346802883422076
1081 1.3846488596014728 2.607542852258213 -0.544029041620647
1046 3.3285662213743734 -1.6487401400889874 -0.6831724183728257
252 1.0604188646812847 -3.556013228639612 2.513130966714593
1010 0.30729755873940884 -2.238727714344925 0.3230884530059887
1370 -1.132342244034656 -2.319590201197328 -1.0576959851214462
1333 -3.8544618423351897 -0.10176211959080586 3.0401401361637626
176 -1.1472312705412855 -1.7745459169361884 -0.18734320233887455
1082 0.8832807483386774 -3.57454556671728 1.9230866436940577
1045 0.08098022502599751 0.4977188087470621 0.8074292515789971
830 -0.0546722402623562 -0.6474415738290813 0.4855325580746605
284 1.4486023036454376 1.5202270395353445 1.467564781587863
218 -1.3482618041332664 -0.6780789803292647 1.4320069813401537
289 0.5932149544861596 -0.7950748560252372 1.039560607222972
829 0.48207552958680516 0.9608156534581318 -1.38652047019641
577 -1.2050474118272396 -2.4186944804489987 -3.6753368672366507
1153 -1.8690707052093187 3.4825384809347675 2.0100160350618497
254 1.8924770979052177 3.768033525314092 -1.9422596296891355
542 -3.0572311116861473 -1.197930860276885 -3.1141962697808445
182 -0.6635216385743608 -2.010426017371534 0.4988365275356668
1369 1.0254203398617228 0.19537384603055913 -0.21111668017717378
722 2.8560343551130187 -2.554631573713856 0.6490376257075458
1405 1.030326660906046 -1.354513802283102 -0.9402771814623442
181 -1.207927011955389 -5.040126401575561 -1.902213145209336
469 -0.7855815966022275 2.040618275546181 -2.6110968835275767
1406 1.9602177235443947 -1.844556590570282 -1.5086551445637846
1444 -4.393655374167422 1.6204929487740956 0.06007324514796148
2021 2.37102596493215 -3.24463589673674 -1.0097352301680589
1732 3.861745425762081 -0.3357229197884436 -0.1325250237839563
2054 2.519070814247491 4.0206853115865036 -2.049101598703123
2020 -2.700254432042817 -1.4482388813882523 -2.2884083656327214
2308 2.6189141412374255 -4.180412891590706 -1.6305501027205576
2596 1.8080138076678414 0.9741216194037248 1.4311180834202535
1443 -2.466137002338095 -2.708493868886835 -0.6170942177727382
1731 4.760825685724235 -2.1397332392987285 3.809285008636721
1768 3.6186796277904056 1.060830802026539 -3.2014718984001553
1733 2.696495406126163 -1.2881844259486954 5.2178525755942164
2019 -2.4123619858877157 0.6017983133189684 2.3737575893492258
2307 0.8213223221720978 1.6569675086008584 0.5704875133567691
1480 0.07750488254867385 4.621778074045312 0.6006724321519616
1479 -2.028650441392778 0.6349542861183165 2.1769318681027663
2129 0.6061131799389241 2.788231458292951 0.19214577654104828
1767 1.954013207468201 1.6496976311906326 2.460238938753384
2056 -2.0467591641101635 0.08942764111504635 0.36774111651285807
1550 -0.019033016673413842 0.7325008372627021 0.6364614730595275
2344 -0.6664302500301277 1.4432209213570333 -1.126198741538945
2055 7.196161392740987 0.10424200508474833 -1.78213671868324
2593 1.357149687345494 2.3140966793570383 -1.1641378463373648
2449 1.8383031489267372 -2.2710680739007776 -0.5130138384128464
2632 -3.203807655973817 1.2093183921857502 -1.742651078187038
2343 0.682755452688644 1.6721409850364606 -0.1611078862890898
1516 2.0239236195046972 3.4176285280361656 3.749214372302405
2417 -1.004828472671183 1.8999287734412529 -0.749206887941222
1804 -3.293163488712174 -3.410997706218847 -3.348687884629531
2092 -2.987992235873813 2.1785106693036242 0.3407885224611113
2132 -1.351556770043147 4.668702250894422 -0.18478182005019753
2380 -2.0875126795936096 3.0046241708074253 1.2111744706758576
2095 3.3449232077514286 -1.0240566685267962 -2.4087011365870588
2668 0.79465063685551 -3.6125204151145214 -1.231880945833197
2131 -0.7728372666217087 0.9340387418617438 -1.2378549894682103
1515 -0.42667833384062503 -3.0956348175651134 -3.143354364674985
1552 -2.188428115192582 1.0294561538824798 -2.904599644796598
2130 0.9087692100306167 2.473722566438477 -1.9951812001598845
1803 -1.3137947511831767 1.4745823393566846 -1.463136188097684
1555 -1.9670706230483461 -0.6693658955206843 -0.04976068227923764
2091 -1.557857662760967 1.7276659491794333 2.563338079385819
2416 2.1230469642057743 0.7519809046241764 -2.2758881741491765
2128 -2.8708887155968195 0.4629596232470133 -1.6456169047171079
2379 0.6323375633755979 0.05840156803764853 -1.400666753408735
2418 7.722174578525637 -4.714635661614432 -6.09978450398146
1551 3.1078759152487554 -2.7463824844846965 2.832659791531203
1843 1.4059867202979526 -2.6224582910670584 -2.171609839554173
1840 -0.04832415177109724 0.935257365632794 2.2810136886128003
1839 -0.9470478968432936 2.4386266982266367 -0.3427591941315899
1554 -3.269055838350779 3.628483880384821 0.0845873486217779
2383 -0.6148712438582957 -1.742535425515388 -0.04803470492285742
2127 -0.6847318198684589 2.8798944662851 -2.325178051607375
2704 3.0323473962733933 -1.1496696208417896 2.980158071545232
2415 0.6317814810183535 2.2883739639446374 2.65494606842752
1842 1.1802533388053351 -4.223443234553128 5.26109505688172
2708 -1.1961360083276356 0.34032249907660594 -2.8841405863631127
1446 2.7584526585769154 2.542092685745678 4.166289785945468
1448 0.8027877648514936 3.3164437324359866 -1.6118450833807225
1734 -0.7786002298631134 0.06446675006605741 -0.33159236663811986
1736 3.04957208639687 -5.646532217130418 -2.1432119403142966
2419 7.104716482330874 2.521394379125496 0.9092698823435331
2705 -1.5506157283155482 -1.1335936675112002 3.517390928089659
2024 -0.9367460600799162 0.7018416991500064 -1.4041412229131456
2022 3.7140413848739104 1.489635649318031 -3.8800009630590533
2312 -0.013494900245608682 -1.7377424938305608 -1.792790313771239
2310 1.040320542814957 -4.066212760989301 -0.9673196799676175
2600 3.198252360861186 2.3284516200547842 -0.49573571119764503
1447 1.280968069941004 -3.3854326923483162 5.301516813857336
1481 0.8514402275046292 0.2099258370772226 -5.48137078184078
1484 0.24270890613240084 1.1887991933383673 -1.2701532723938176
1735 -0.7835207713676786 0.8666646617621012 -1.3169315347673234
1769 2.2192744898819075 1.5638659916811943 -2.8559285202154117
2057 -0.9954329563697284 -1.1349427715645972 -1.0407777566945968
2023 -1.3780957747955924 -2.204841141033096 -4.613282287378095
2345 0.745657505164101 -4.053054368059726 -1.1071809149060348
2311 -1.1656594441140555 1.8999508797690992 0.5541913967331141
2633 -3.038948705373953 5.024473400891959 -3.035277714517639
1482 -0.8005952867578127 -3.3324006591799473 -2.278293040154141
1483 -2.8502425739974315 -0.4346706094368545 -0.10196704686159082
1772 1.5391169070592243 3.186228736009298 -1.8346716066457274
1770 3.2905185798879706 -2.1714868816218993 -2.966876181924837
1771 -1.9901481647214079 0.017042164488179058 1.8611738361661214
2060 3.781536421569907 -0.71392261669635 -0.5647042724048039
2348 -0.48542159034966315 2.2362341149221536 1.176639825140183
2058 -0.396740939147339 -3.202346862823311 -1.3525128101497772
2059 0.23205456719113104 -1.698249700432835 -3.294750217487067
2093 1.1810144138729042 -1.6023156475443743 0.5644321263291383
2381 -2.6451464343765547 -1.056557249029078 0.9682353394500754
2636 -0.08612457613072128 -0.7653813392260777 -1.2665633761227901
2346 -0.29931680532589783 -0.28204920983633736 2.781180637209767
2347 -0.22441645767647475 -2.3650018408025586 1.907472902821759
1517 -3.6125985962964666 -0.7425431251010305 0.16526232698397297
1518 1.5818990444764132 -1.9139242799292444 1.3323261161505489
1520 1.463300204722076 -0.7960582279680375 1.2491189850867623
1805 -1.816865618212874 -1.5572428765946986 -2.2940995631436234
1806 -0.9805833573181368 -0.21341534526424438 1.2019906922106012
1808 -0.7390622660847913 1.173260991229654 -3.162957711625133
2096 -3.1921488054927667 -2.7154543329280263 1.361362212957809
2384 -3.1998589790256142 1.418133516498831 -1.1854184052592407
2094 2.189510588627196 -0.32631725208341195 2.1095278589236797
2669 0.1596725166747187 2.358921295879584 1.0457986913468686
2672 -4.889441134877311 -0.5893664047097446 -1.61630384629321
2382 0.36778270901968935 -2.6007136351496176 -4.976091694575789
1556 1.49266791565877 2.5400017607996697 -3.5465643832421283
1553 -0.553189768097334 9.362318966762876 -0.06466728919590818
1519 0.8339416629886469 -2.5252646727283863 -2.024846325142569
1844 -2.590931894712205 -1.676978427827729 -4.439710740415679
1841 1.137767286795758 1.0462426132742424 1.6029981815117689
1807 -2.0751192743150275 -0.23081750919006866 -0.8330656276225112
2420 0.7228489473565648 -5.974162064572382 0.5515637149911409
1514 2.0274559074834064 0.7965112322574648 1.95382085729149
1765 -0.7511304476761549 1.6922850074380693 -2.347468494448968
2665 -0.8293106913139949 -3.5196580552908863 -0.07467960614175495
2165 0.21915211949154184 0.2506435152435818 -0.36005764855520295
2089 1.7616164570147252 2.566657335822784 -0.49078573551836757
1477 1.8357575724321675 -0.9394882991459131 -0.6901794215331791
1802 -1.12341452959517 0.5334053000568687 -3.6826316724784802
1445 -2.1729925563222325 2.2670840702787967 4.115999616231756
2090 2.782985701201956 -0.3628288439338513 -1.9023981404164756
2306 -0.7620310640208544 2.8167728730934374 -2.8624619730566616
2053 0.5103695281063314 -1.6889143589434779 1.2795196766361039
2018 -1.2778017755320874 0.8193162566994451 0.7124530191364244
2017 0.37870057537432006 -4.107623391413496 -1.4078792207014836
2413 2.121200460051546 3.3286467033714975 1.5614417750779712
2125 0.8379363606719633 0.3141174309715212 2.402263338085294
1442 1.113000648891051 0.9483956392109191 2.1396614306643973
2414 -2.8622096858001207 -1.0873134706991279 2.6425024055495516
2701 -2.4152517382663246 4.522421532833709 1.2680378804708794
1513 4.619358406071227 -4.254540439506019 0.9663765549164339
2377 1.1481547932278489 0.8451152000477045 2.7363045981887315
1801 0.5208917652539166 4.515365370548635 -0.259862997898821
1549 -0.5239062145535007 -1.4103543608214257 1.4292058224907718
1450 -3.118146802471082 -1.8007102813534015 1.807649219730157
1452 0.7277803288412117 2.74646728935212 0.9723671480211455
2745 1.5026481098589413 1.1326056264424202 -0.007801910744890992
1738 -0.4754292521986602 1.3259205984706737 -0.2883392606171757
1740 -6.127730636434546 -1.6103569108351345 0.17894220286979343
2028 0.7524365661097275 -2.053993379590762 -3.5574864112425195
2427 -1.7168697552975354 0.2710361122990487 1.2115923215138307
2026 -2.0259297708606465 3.0766893671444784 1.1142496695413748
2316 1.013387631734555 -0.4776875209408916 2.282208135498719
2139 1.1013514608002761 1.0422984819111951 -2.611522251487092
2314 -3.7481387894884994 3.339387204900296 -4.64243049799989
2604 -2.2551661732419275 -1.9938052642397865 1.6040978051489339
1451 3.1885228959088803 -0.7464699659764904 -1.5545929829433003
1485 -4.593211147524723 2.63634942028169 0.02686804721732504
1488 1.5579853746714984 -1.77608452935513 -1.8281227334869348
1739 2.983478557155611 -2.782726637369429 3.8689476585250313
1773 0.5854992526020906 2.6548714319960998 3.4699690631177016
2061 0.8886056266238231 0.6602869519474001 -1.5990105434825839
2027 -0.47573115019097345 -1.4216726435586888 0.1881312693128553
2349 2.272415510338261 1.360459510335642 -2.428602716083282
2315 -1.0032808159743094 0.28791563653909596 -4.417881519200727
2637 0.8317558882064269 -0.15234638414141702 0.412676518000985
2640 -0.4158960906449119 -0.12324424641484528 -0.24054588323271608
1486 2.8342821664715983 -0.68516558820352 -2.1201713438470344
1487 -1.400842484420975 -2.775975216905446 -1.3549849781303092
1776 3.8590692644032165 -1.2262451875523908 -0.09954953345789323
1774 2.302087644106663 5.382219045677648 5.526852695530137
1775 2.2444759851094482 0.48593648716540855 2.2665740305174147
2064 -0.8277301433918945 2.454657920830668 3.4501393471776907
2352 1.492949339730694 -2.572937320810954 0.6060378566922561
2062 -2.7210791435907264 -2.5056122027501884 -1.4864633124804865
2063 0.973114260314146 0.06769230853144581 3.2504174842925444
2350 -2.03255186715417 -1.1105639054385268 -1.4130491579864628
2351 3.8806832846869823 -0.0017409792117297658 1.6202063190080307
1521 1.328133908119563 -1.2643557313254987 1.5705463252834424
1522 0.09319385491092648 -4.145520340252008 4.334938952376606
1524 -0.21157032021360095 -1.7812969586749559 -0.1307836438944341
1809 0.16603689066090616 -1.0833846805525142 -0.46195041226616934
1810 3.88105557901156 -2.159463317161827 -2.129796042324534
1812 1.0137752112848954 -0.1126932905826962 -1.0159780293708063
2097 3.285164709681518 -1.3208808480584047 1.0994564092415282
2385 4.2329678711124545 2.301895961598686 -0.12831090965622477
2100 1.0136269584734445 -2.5327422904886063 4.0602052182389
2098 2.824912481943909 -1.2246863911558912 3.2842754292040603
2388 0.7520816830120028 -1.8759172443542609 0.9435499638691057
2673 -5.113838738492202 1.077620649350467 -1.9989864995695767
2386 0.12081441731709604 -2.492507073679894 -1.9876101074071455
2676 5.655781700614824 -1.115277597179617 -1.3050496383855181
1523 -0.13864264560428421 -0.05586126881674002 1.9782622763413678
1557 -1.907111480504397 0.21018835133700883 -1.1055816536241756
1811 2.338456016142442 -0.3107971000651728 -2.803257178097662
1845 0.9766838883959199 1.7381690924060131 -2.574002698190903
1848 -3.725763294907509 -0.31873109725787124 -1.2870963458068538
2133 0.07147927008614179 2.249005946451659 0.37076635204144665
2099 3.8783782944114735 3.53007475243484 1.0291309288519201
2421 -0.6807242085617848 -0.3665414837005641 -1.1926270866940019
2387 2.102945946176749 2.023910590373608 0.6180711898981407
2709 1.7656374992781552 1.2727271557983273 -1.750395263130609
2712 0.24260534450984036 1.2627825789712226 1.014221077063469
1560 -0.34469374571398875 -1.5769723526367745 -0.6285567150081321
1558 -1.4815119219818813 2.3644050564259955 0.18023308409122826
1559 5.571280198089444 1.5539127845414573 -0.9664605265152112
2138 0.14084140907713819 0.8119460255532396 2.52487283289872
2169 1.1234514337907084 4.490153250749031 -0.1743740228422331
2136 1.2986845017914084 1.6851112353532662 -4.788758669164414
1846 -0.1315884648663776 5.1415278421341695 -0.9941222331068228
1847 2.0860361048394234 3.732834759261504 -2.6454984771050323
2428 -2.9304624209632992 -2.799081796353713 -1.7115242942203366
2424 -1.955091904224453 -3.1678612355365945 1.9262076503488663
2134 1.989056137848783 1.8489123813357855 0.2635252409641108
2135 -5.885201565175208 0.19035715208032564 -1.744711970145158
2422 0.5213175399962957 -2.7292120052148134 -0.08904590373024437
2423 -3.1608346825771423 0.4510356528179806 -3.176104302979604
2426 -1.709310344948896 -0.37357416839404234 -0.5094628506710815
1454 0.20882941257020407 2.6039539594116 1.717696565325537
1456 -1.674941717675391 -1.0842257800505808 -3.011323702912552
2716 -2.4277538926818956 4.642170169546374 4.099462482711972
1881 2.3146965655623086 3.486097912842852 2.0507836129296058
1742 -2.994658446485724 2.0875341518698085 -5.703712829178632
1744 3.105606498107013 1.704462481770506 0.4210810479397309
2032 1.422726061070234 -3.5653428584077704 -0.7250872983085028
2030 4.404579625916622 2.144476555160726 -0.049594019330487946
2320 0.0122679899033787 -0.8126376464486929 3.918893899378069
2318 0.923598147228175 0.11561385315060942 -0.31050645795214954
2608 0.04856785190423795 -0.4447626204108859 -0.06026126377619223
1455 3.6839182675294526 -3.4611516630572234 -0.9957823795320994
1489 0.30932541801609786 3.5683616777697806 3.0926037262973245
1492 4.849378467239479 -1.327057980030433 -1.7351235967115153
1743 -0.41899890127888645 -2.8100001688107756 2.7240159044901238
1777 -1.070557903936709 -1.59875102359939 1.029445806314681
2065 -1.462245618104302 1.0210480449675308 2.77303020940052
2031 -0.17174576794836338 0.3188431475290168 1.1520567528734005
2353 3.453959451771264 0.6673987749419277 -0.6590075650222347
2356 2.860028812433409 4.315213449815552 -1.8012544318081765
2319 1.1498979419671607 -2.280793996218671 3.6200881271358605
2641 -0.12030584369838228 3.4769997891056788 -1.995040512939107
2644 2.481195658923482 -4.263530132010405 0.2954292758452206
1490 0.830885186133843 5.7643122213063736 -1.6873103906007352
1491 -0.6160946411003559 2.2664175047795965 1.8923865843898529
1525 -3.086760411638694 4.884055403190123 0.4008626189214084
1780 3.6495253820343785 -0.020991333505326667 1.091191314161514
2068 0.6416649618688747 0.07219188731844647 1.663437512898448
1778 2.2090932159144736 -3.308984132085917 0.587079381695603
1779 0.0562791242533846 -1.8898643742497194 -2.627212127685938
2066 1.2337450501405391 -0.4551770514485161 -0.8084431221812676
2067 0.6091844075517868 1.7009657275206218 2.1025476006481476
2354 0.40410971101118903 -2.551369781857585 0.4221552758247431
2355 -2.8602398972692837 -0.08472573058905594 -0.2230119897755212
1526 -2.376013619016148 -0.23728426906125 0.14876793246034173
1528 -1.5468440071534961 -1.1006186436616248 0.3061728429585195
1813 -1.9952303295394476 -1.6837396271892102 -2.42902115855383
1814 -2.128793285836171 -0.8010658921775321 2.183030511821103
1816 1.528414587387831 -0.25094668907684 0.14582808143499956
2101 -0.12668583854067778 -0.6342647969459002 -3.631280088073026
2389 -5.250286364202038 1.3487493936928379 0.06216946622013433
2104 -0.3404149179966708 3.6879544626918057 2.1512476532682965
2392 -4.145941142567226 -2.6131188986774005 -4.120379339859207
2102 2.2631931090442636 2.500567388314965 -1.245328384833279
2677 1.1828077837303737 -1.7994456270903703 -0.576359755192725
2390 -1.2313871217244179 1.4354202313342412 -1.154296980377465
2680 3.320809388971018 0.6629632725037815 -1.6017433947904909
1527 -3.174427322096795 -5.308540405869177 -2.364732405185615
1561 -0.06483582720387168 2.349307319232099 0.6507016389584125
1815 -1.5734468586900046 4.1871682329962505 1.0236456881705376
1849 -2.9093708664747515 -2.4519085904779936 -3.7060781175206583
2137 -5.50648742661203 -1.2062156191168187 -1.7756422623500565
2103 2.118722185457762 1.457613158346135 3.224507319775361
2425 -0.27370032981075315 -0.0831177901322581 0.10311316286353868
2391 1.2568280902538977 -5.019601930809841 4.3452767415997995
2713 2.3335804258600974 -0.2521470830564426 0.6653239584135044
1564 -2.956767148021799 -1.03447326586956 0.421187590107389
1563 0.08043790252748713 -1.080664155673427 0.719508794064074
1562 -1.1686556642274757 -0.1690223578586448 2.7040681755878637
1852 -0.1983134231676936 -1.406258619565457 -0.4025812983483839
2140 -0.36520715507277646 1.7728148813259956 1.7141069032744438
1850 -0.5892713976319764 2.1404186877081166 -1.3564420088174216
1851 0.3828475422843392 1.0489954006563553 -2.1521810199949987
2457 2.397433072728527 2.590889681941378 -2.1781076883995136
2605 3.1784595316194726 0.9632577704619265 3.6803781486025158
1741 1.1674433843333394 -0.9913293887166286 1.5164585786604183
2461 -0.1412866890639032 -0.08760633978253513 2.055569576941017
1737 -1.11411939644762 0.8043434267473285 -0.5718385405282643
1597 2.2852956067176198 -3.394155960883733 -0.3769612205583188
2173 -1.5951134734273615 -1.4713113438692789 -2.2755205605318998
2313 1.3147887303807666 -2.1333982839382033 1.4233425500017653
2317 3.152858773235704 0.5837854399060937 4.805643444523768
2601 1.788526297941756 2.1522664514604357 1.8594730727275814
1458 -0.7751696299444694 -0.6120505081777919 -1.4926061251747043
1460 0.3691504571286598 2.0082057476321804 -1.2332922733929093
1746 5.891471492507927 -1.8524654724123932 -2.081313431214793
1748 -0.29300096612099596 1.5302211237961996 1.2165731381461689
2036 1.1268110744377962 -0.09428630151334891 4.925135524024924
2034 -1.4312798180963753 -0.6613259733275987 0.0038473146710430854
2324 3.051333614714843 1.1986458906488235 -0.09698465821571213
2434 -0.2846967141915038 1.4498677053915114 0.6913574816851552
2469 -1.4440056517405948 1.8132344031056522 -0.6483597201087882
2322 -2.366676728042985 3.679348791347566 0.7428949674123191
2612 -0.15462048308185414 -1.1154850296638126 -0.567598156193074
1493 1.4438556057672942 0.5590629582715029 2.4753660458421387
1459 -3.3102804839972975 -0.6324055627085738 -3.49546520766126
1781 -1.980445862446241 0.9891887863364162 -5.336581649001923
1747 -0.17469004960277829 -1.149731976501749 1.1437049024126003
2069 -2.734801493637917 -1.3403040270294808 -4.778800939297991
2357 -0.7892942254433681 -0.41529539881415933 0.7809585274175199
2645 2.837066121716558 -0.6957116220543099 -0.44144471601480245
1494 3.5314117725062215 -0.1140549516852892 -5.089298313678976
1782 2.436514885492614 -1.4386266560265817 0.8546961850798591
1783 -0.11628170125450236 -0.8042086436729198 -2.048023315732216
2070 1.5067492803535039 0.39959446338005544 -0.3077103626747835
2071 3.115954989023154 -1.030428730654054 3.886954523228378
2358 0.4081256405134189 0.04513965822841485 -0.041065236847996914
2359 -1.7896218233175674 3.984359360817469 -2.1713083364498997
1529 -1.4133931686246237 -2.695028160101615 0.0418934855747971
1530 -5.147352684868372 2.881701533648042 1.260152046486011
1532 -2.4905794356302673 -2.78391139733847 -2.2485781572386663
1817 -1.7812858146215835 2.538554193014145 -0.506807727902953
1818 -1.3575288534760537 -1.5223618196216235 -1.9408551999895942
1820 0.0017895831869531545 4.097375837403296 2.2497138116342725
2105 1.8935948379660898 -1.162532851184435 2.9557958311193326
2393 -2.1392917367303923 -1.5951412619840029 2.1384399587758662
2106 -0.0003634813534981779 -3.118491872917345 2.354311967420638
2396 -3.1344946393398683 0.8200101100361948 2.3771673271246625
2681 0.4898429182298279 2.620769406911911 -1.4990663660504064
2394 -3.772316494848453 1.4103886912408325 -6.058307410318701
2684 -3.510205967362893 3.8859906460333553 1.3523348909640978
1565 -0.5469130490967885 -1.2236199146145268 -0.8250041515925292
1568 -2.668139146130734 -2.437713694764633 0.008550127807599018
1531 2.9785241190082488 1.6344188450676491 2.0771389987050837
1853 -1.100072483385609 -3.36182983586443 0.8744017118518214
2141 -4.224642469459743 0.7364776857317206 -2.0322513696403663
1856 0.8873348267625136 -0.9084797507972147 -0.5560503175894497
2429 -1.706025694956661 -0.33511944384419806 -1.8441657966282439
2717 -4.463658193812082 2.1187340853977523 -3.5432026492053086
2720 0.41288257221388697 1.432766159917181 -4.392496914051568
2395 -3.61900917500996 -4.751121457007625 2.3734735091697465
1566 2.63443315847114 -2.6828439137558844 1.9730066044746537
1854 1.57734130640663 0.5597049023062827 0.5695844728937774
2142 -3.7417438383850796 -7.665576632433431 -2.9214052901869882
2143 -0.5040092563707482 -0.8979998517646872 -0.8016249394133668
2430 -1.2232765999096789 0.0013939186706829084 -2.851274060396204
2431 -0.025941997397483773 -1.5941784735857862 -0.838256447061146
2144 0.023869909563889426 -1.405537849106543 0.8740449906708291
1462 -0.2498282221729972 1.5501719850320643 1.234191859484007
1750 0.38847139762744387 -0.19406809640013442 0.17480402159317263
2038 -0.7141510829393126 1.0230235782598742 -1.103860060309179
2146 2.975140156668233 -1.76233805037625 -1.1286522825422685
2326 -0.16771013470180926 -6.503354980888313 1.731992708111989
2432 -5.312177769894502 0.8307305848900411 -1.3116683386490824
1497 3.496768032667632 -1.7494752557799607 1.7969170067229205
1785 0.5443254023656174 -3.61171072880905 1.0840963733616298
2072 0.4532452559887924 -0.8617273900534379 0.5705606390780631
2073 -1.8783080882886003 -1.0259668935919757 0.04588344908947563
2035 -2.599553649275083 -1.999959456943397 -1.267817052563821
2361 -2.3367415733164107 1.58207827142412 0.15584734268640799
2323 -0.09682424780040602 -1.6688007648401504 1.1046843298378677
2649 1.4160564448957391 -7.239142060347022 4.439100230111143
1496 3.4385479276236333 0.7480348620228322 -1.0937107569332856
1498 3.5069681921328058 -0.7714833481571589 1.7482530954582747
1495 3.580530475936785 3.259125531949731 -2.9574577946555323
1784 0.46379218416246565 0.3972704200004112 -2.2243820628572313
1786 -2.6863634380115777 -0.04162309179126512 2.7771683019420395
2109 3.6692837731741825 -0.9562369512354735 -3.40627609795674
2360 1.9933833300942816 4.036625628875097 2.750252178756368
2074 -2.501911434248873 5.1355492468297514 3.612291952224116
2397 2.079516964075047 -1.3110456567838613 -2.3993718073549535
2648 -4.993996811033287 0.48941831817863524 0.6588982293930009
2362 -5.199890592975677 -0.6808148599935532 1.968063581153967
1533 -1.647513943374534 -6.007707677039329 1.298201457895931
1534 -1.6940086383311963 -0.27433938353302684 -1.5102572838355626
2108 1.7356544006407082 -0.02099400845851311 -0.08715703131888977
1821 0.6625075915160069 -0.7615090561537615 -2.462316001358662
1822 -1.094098308120077 0.04086008753232755 -3.3435341717263367
2110 3.9220674721990796 -0.9220139264636813 2.0360907563678876
2685 2.128634243415621 1.5582493947198812 -0.23438783699531882
2398 2.210877633284449 -2.2695529389283355 1.8642398596256897
1569 -1.137858928417918 1.734888073560248 2.025013666588688
1819 -0.9800616650641318 3.559275890048698 2.9930065862528714
1857 2.7569674877590513 1.19420689751513 1.9791803794660001
2145 -0.7906142399858163 -3.0948409482016346 1.448726979322178
2107 1.573747242329178 -0.17727065883670642 0.9957059167482307
2433 -2.6209134178619484 0.38984918251662465 -3.417928383411523
2721 -0.24980631366754807 0.5508535096313892 0.7873948439601134
1567 1.016460269485637 -1.0835519277819516 3.281752908904711
1570 -2.3823595760648417 0.9587135829494051 1.790280632004049
1858 -0.319845374794227 3.537397783990164 -0.2824037321618546
1855 -3.668436237306664 2.3098480682035896 1.2354679392900856
1749 -0.32393501023817844 -2.0838797734358545 -1.7889535801486438
2181 -2.9385406738951514 3.261429659205903 0.12842042426781036
1461 -5.061678371402677 1.1667695446563122 -4.2543769102196265
2757 -3.5928678983526257 1.2252574970464594 0.05855153142349407
1893 -0.883478668506669 0.7448286549641091 1.2537408152379903
2609 1.4326575900030525 3.3565035746450707 1.9254804797184242
1464 -0.12266202795308406 3.8318557262738917 4.5439176200622
1466 0.8722324495458619 0.12507708651222593 -2.2944268161256027
1465 -2.7937638342910858 -0.3380765405726778 -3.9907617555662536
1752 1.5093932859804975 3.0311787097440117 -0.7997957674169511
1754 -2.239630314868583 0.23218589387653246 -3.2780188553316276
1757 2.938488293665293 1.8124619640636028 2.675535352742202
2040 1.648661558735099 -2.2980105757445415 0.24388827700713836
2042 -2.4770335833842854 -3.487365526224211 -1.4517900520341458
2328 -1.674255056600096 -0.028945390570909175 1.270371172679035
2439 -5.382419993152873 3.7138376659236774 5.659175080754308
2330 1.677611279580921 3.2720429224285628 0.40750729839179395
2616 -2.209754571184468 -2.3698793952084083 -2.8204984316320383
2442 -1.4409114973049808 0.7131264253867979 3.723109649626098
1463 0.42242089075771877 0.750506273988353 0.06914600246118804
1501 0.42694541633206673 0.9913870067013355 -0.5301642019144159
1500 1.8308723124751967 2.661335795741502 -1.5783977393528508
1751 1.4217393118331996 -3.7236543228686565 -2.106969494863728
1789 -1.0332949484502276 1.4173646650104392 0.28036298659873227
1788 2.9064103610574255 -1.9091807662741735 -0.9767281371109257
2076 -3.0993013805429523 1.745748207685707 -1.2291602752315887
2077 -4.184767227631584 -0.5056743909838775 -2.7822359212941516
2039 0.17704707391029711 -1.773494001953882 -0.5509816421127423
2365 0.20267902823469805 2.333164106971572 1.3123084841932156
2327 -0.07604130470906652 0.9000456888834311 1.3150898011011602
2653 0.23466401645979268 -1.6765196622991998 -1.2728111568966027
1502 -1.7808535530373364 -2.483557673562763 -1.874739571430918
1499 2.610212672379248 0.6498851315207541 0.044989637386318025
1537 -1.331346192424089 -3.6001322700218785 -2.9300099564180084
1790 -4.012422234262333 -7.373725349865916 -4.104827105836896
1787 4.496692631765427 2.205802854093479 0.5229208099364212
1825 1.5908108885185686 3.855438913962332 -3.6264712780890282
2364 -0.2808857638261736 -2.4923990169436667 -0.33044522158323086
2113 -2.1929081999151405 -0.7475515798955809 1.455902724321087
2078 0.9097999291175606 -3.1137569677576113 -6.201460702403158
2075 -0.5583826648671232 4.630129800442767 2.417809196706323
2401 1.049815018459151 -1.4515082086366768 -1.3403813464397776
2652 -0.36607945389641156 -0.6207059753783195 -1.1226063605533885
2366 -1.9010686409146524 7.025444652637503 0.07155832246078343
2363 -0.4091025488029573 5.214561192468746 -1.4470248656956
2689 1.529458684807848 1.3953792632244544 -1.9585860950438898
1536 -3.6707855626373473 2.2750470191307697 1.8815629470044206
1538 -6.5966330584411 -0.11901961378202039 1.1533355107890029
1824 0.8048969615787613 4.609239741258174 -3.219764189986156
1826 2.2763593608924153 -2.1271624701891607 -1.78076794204783
2112 1.7119846329656363 -0.5998867035422742 0.7828825683152103
2114 1.5907753074925242 -2.832203434902806 -6.35727904478896e-05
2400 3.096809170598539 0.517332522898313 0.951006326647424
2402 -0.9158014072658506 -0.03930966107555396 4.219264366931118
2688 0.2032099136205087 -2.162433541653361 -2.010992457312808
1535 1.1202557895465346 -3.0092704791795866 -0.9162372887344854
1573 1.0991605998679075 0.5294881712547176 -2.312855952543393
1572 -0.46848119047732956 3.112528811236196 -3.6354451001024692
1823 -1.9434155974187188 -0.8125099913992401 -0.8559244801817929
1861 -2.457604080592498 0.7566125879478193 1.1284914121952963
1860 -0.7703615242733569 3.5192855524287583 0.12925548928030214
2149 -0.21196101068368148 -0.7729332355383474 -3.329866619644822
2148 -0.9785620639566832 -1.4528247434683677 3.055325092067571
2111 3.7417675992311974 7.1797182758039995 1.6294724968806626
2437 2.274231792639052 -2.197006426329907 -0.6583432400365149
2399 -0.7390990769378172 -1.1454791849774286 2.1354004354751823
2725 0.0030292737730752478 -0.7380501224249262 0.24385301780161822
2724 -1.4954808737587917 -3.33366259178446 2.1181378017089276
1571 -0.8854577557632969 -1.1892739451631476 -0.6065751002724371
1574 1.0462835871490745 0.2233844826671178 -5.043007690193829
2151 1.9040650089530866 -0.5240721987219739 -2.512358572058467
1859 0.6124326853390563 -1.603069458815947 -2.0279316861704593
1862 -0.8588597667311841 -0.3519648454738116 0.10224328436033216
2045 0.5816391061055963 0.34356317894896643 -3.413734788269067
2436 3.776612349681771 1.2945622978423708 0.4327197079279494
2147 -2.0517542945032092 -2.1743217405846567 3.0080967249802533
2150 0.1893705602584396 2.9695536411003705 -0.9147342439511279
2621 0.75416176292811 -2.6954002771688055 2.2921474377683606
2154 -1.8162667918161002 -1.6438404463273306 3.1268729689880854
2435 -2.8938647779562787 1.7844301771146873 -2.1682620675370567
2438 -1.3157291529628516 0.9880454177521089 1.0857917308102354
1468 0.7139524896501218 -1.9476430302745824 2.3547370138287866
1470 3.581911764652735 0.9543660449116871 -3.4472591312163003
2152 -2.43730121177259 -0.14661106845650343 2.9953999062905923
1753 1.4877044141276605 3.7638671180602055 -2.291956896556107
1756 -3.2884396794680577 1.78046112167741 2.5390804600949237
1758 -1.750151447642942 -2.1721350229191976 -1.678942758755405
1866 -1.298006339857648 -2.1435462912214303 -0.03600644215046332
2044 1.5481059042719403 1.0351931303666424 -4.116364424656433
2046 -4.348881493644878 2.356278077018142 4.666789897331002
2332 3.9936395529695976 -0.49778616719404245 -0.8229094631690685
1863 0.3545427607844562 -0.7634561880214957 -0.285528824936482
2334 0.9025270508168092 2.6336920522704936 0.08733512394168538
2620 0.859121753033822 3.741490130437128 5.2919785223269065
1467 0.4212037194147997 -2.8608962277087646 3.862588913298305
1505 0.7252492488297962 -3.6373653578881506 -1.0798941278713503
1755 2.9257800726322363 -0.5411790039722416 1.2237348256836138
1793 -4.55095833186478 2.0896579081525166 -0.9530148793233668
2081 -2.615692478532838 0.5597228680185544 -1.6034143443999
2043 -0.23118615426481257 2.7926844526243717 1.5682148675970071
2369 -3.6831162096247905 -2.46632065169357 -4.856769631913998
2368 -2.6770920567721914 -1.0759270560650156 2.9088571384495565
2331 0.9644304610598224 -0.22105268923490579 -1.2408744313407616
2657 0.8094106527011491 -2.0944984940905162 -0.802417675099941
1504 2.7702759009712845 3.2729999675256574 -3.0011109857732494
1506 0.8074060415429798 0.35839812913257785 -0.43009740697195065
1503 2.3362461852460563 6.710554040278357 6.830238698507666
1792 1.6599430983852494 1.106108210479663 -0.15495173951097832
1794 2.6571222117450946 -3.5115577515887653 1.405054532118184
1791 3.24821721514738 3.2814775308161326 0.5052389278205321
2080 -1.4907409766680253 3.230351922615159 -1.6798672129081853
2082 2.1945261546562818 -1.0447724552849182 2.803968088582336
2079 -2.780575775261762 -6.277850696170868 1.7193331717044595
2656 -3.282746510180974 1.4709855141671515 -3.209133798953252
2370 -0.4013888572371244 -2.813981866122515 0.8374220430047259
2367 0.9408695805565886 2.416813456862761 -1.7970024893868526
1541 -4.463697589978012 2.0744421605500847 5.078530728117915
1540 -1.805784274788589 -2.0050805087681822 4.422662461794656
1542 0.5242066466311943 -1.6632295004382143 0.4089608535632296
1829 3.1532371116704456 2.0162800594374652 -4.420347386172346
1828 -0.5465224024493348 -2.3918909954107836 -0.5667204860493746
1830 0.9171390923753879 -0.38467931531983307 -2.0718441871362665
2116 -1.0187008746455728 -1.2739216556399904 -1.6545442756021518
2117 0.6230979405799172 1.3573776374943702 2.798890848166012
2405 -2.973098805839115 -3.6348244615076193 0.8040528172895967
2118 -5.7668463793219935 2.2277281368986186 0.7667329273541955
2404 0.43315397172080106 -2.062519749126705 -1.6445079089922896
2693 1.0247260703901142 2.3018263924522016 0.5062922260319632
2406 -1.269907090856681 1.051228629986801 1.7104681681614826
2692 2.310542016524032 4.395966217159587 -2.500424151813181
1539 2.3133195705712897 -3.925790714605603 0.8582395109835628
1577 1.8220484044293503 3.061053928361764 -3.3371172390193826
1864 -2.1066875201309285 -4.682473685942329 0.72795823308864
1827 -0.29461643394446196 0.15339125182451482 -2.0613956895322803
1865 1.5853221921655798 1.8193115353304983 -1.9059910575681507
2440 -4.066121610065612 -1.998680263413639 -3.1947794814118793
2153 -3.599182419017424 -5.19280853433654 0.08003114567036941
2115 -2.2437590987947336 0.6634276236085874 0.2380136654165506
2441 -0.8774496199469362 0.791845961515717 0.3100531112527319
2728 1.803073331085697 -0.028233127673030864 -0.7140000609628997
2403 -1.902798402545682 1.3884054750092223 -0.6435268835117304
2729 1.3545239736096326 0.0234875271844579 4.418982564537792
1576 2.1704550965866547 0.3326915377169694 1.4854001415602356
1575 -0.10585076821034048 0.484610611298699 2.5277289568864743
1578 -1.8300714434608572 2.6262909368239113 0.43688079500453697
1469 0.6590377121238328 -0.6406494473251038 2.493324020440774
2473 -2.450872281068904 -2.0379219885383635 -3.5186311963472825
1901 -0.639653930306574 0.9199620387108914 1.1551219302626943
1613 -1.8768289433896863 -0.4043289120396894 1.3540435638327664
2185 4.694663298299008 1.1152189452831143 0.30189391895623674
2041 6.489999499834286 0.10836538233455396 5.535791669088575
1472 -2.7497750959365335 -0.6696174844411508 1.8299875918372674
1474 0.9917426615463097 -2.3016271838824847 -3.0544297923440027
1760 1.1849936484969246 -2.4068724740957133 0.9063431321420443
1762 1.2539878641512918 4.2259342297466045 1.054020751133674
2305 -4.5203445403290035 4.162018756059286 2.102167641718386
2048 -1.9367779556898082 -2.8834792478378013 0.5754499337201832
2050 -0.95244829016205 4.256083383553025 -1.8535132689715075
2336 1.4746301566351923 0.1335730738722149 -2.7681588790167106
2338 0.6282051080674346 -2.0464839218018374 2.371504854654471
2624 0.4169886430407805 -0.38256534617879145 0.1972571911980457
1471 0.3148915709691188 5.3382077720992225 1.94713908928514
1509 -1.592474362318636 3.8232918112133913 0.8006124298182336
1508 -0.7667230050889737 4.190253487176804 1.6100492917364049
1759 4.154536803568164 -2.590429192597203 -0.46206749412220544
1797 2.815233809275862 -2.531197211080083 0.17774595775152688
1796 -4.44168311536327 1.4498037002637876 2.271513259106107
2085 0.6530186333530718 -3.4091029673900652 5.7938745981592135
2047 -0.6610625844766365 1.9169523999464948 -1.6807640887074828
2373 -1.5979344537243112 -4.834190088447594 -0.08386248319482821
2372 -4.298245168318309 -3.4238030851076107 -1.3718533852981014
2335 0.8063179554967053 -3.6292525027698455 2.2179152643494784
2661 2.1037335807208164 -1.6141478174121597 -2.530758587304012
1510 3.2698956057401123 1.9127009848912475 -3.4497197834957873
1507 -2.626582066102258 3.1679152905055354 -0.5794025527265693
2084 0.3670056998476565 3.9257360164077904 0.8645088019071064
1798 0.8077476613852468 0.5928692215129389 -3.1562277241850096
1795 -2.6843270402210977 1.8145832353232954 0.31393726522204113
2086 -2.706306281392694 2.1900586724052125 0.17710838640027682
2083 -5.146426041766633 2.619388250950743 1.709626192346779
2660 0.7168209868956823 1.6625766211609967 -0.8629369034587637
2374 0.26696809070770855 2.253965140465674 -0.5311751539679235
2371 -3.1312518340978666 9.517834429932908 -2.1453593765642185
1545 1.4365740951909418 -0.988445765173185 3.350507304602871
1544 -3.050476644868991 4.791905043428136 -2.1295086299204637
1546 -0.9600555337751047 3.766610393065697 1.9514933331266389
1833 2.900818306877209 1.624925436941597 -0.6578895435588572
2121 2.881414810606407 2.4294372882891904 2.8943833202896374
1832 -2.963331898802338 -1.2540442472448718 -0.9351230988748807
1834 -1.6049296176325434 0.7396403041047489 3.7627649995896975
2120 0.77621717272751 1.31376246473538 -0.7091379391419562
2409 0.10889616811558026 -2.2050806322971375 -0.6980645559486794
2122 1.7669527125521876 -1.9582405242630057 -4.9269329569326485
2408 0.4951093994376929 -0.779688181760602 0.09304860273463908
2697 0.41395311247547123 1.1852992038340646 1.8762070874430816
2410 -3.535958447288425 1.8330090164453152 -1.658568314596428
2696 -1.8333188266018563 1.5498677142010924 0.7746892960390852
1543 1.0023600526530287 -2.9965969830234442 1.0358304668846425
1581 0.22085426575681635 -0.7577970184621602 0.48456407611652563
1831 -4.017307579511637 -2.5826088596107337 4.275027807254225
1869 -2.1789885529135207 4.377529080249132 0.8125779893705443
2157 0.7885333436928076 -0.3441868871032549 0.5697357261687105
2119 -1.4913471981562656 -1.562861642169069 0.6516760955884041
2445 -3.334000506460787 -2.1961453272650617 1.4894101722157593
2444 1.4692094216564622 -2.5750673086223053 0.8789836136149926
2407 -4.678210254430853 2.3009448994990045 0.11128824116113073
2733 -3.553749321561904 -3.82927815686074 0.6444867339119676
2732 0.854012032131586 -1.5774545856645126 1.7239031416498354
1580 -2.2745248947274397 -4.604970687669526 -0.33969537058421795
1579 0.1709174099288082 -0.23840505438706128 -0.6621678701813111
1582 1.3467627658049435 -7.068651280078449 -0.8503940738097974
1617 1.697428503502368 -3.1332065159355857 5.9261676806729096
1868 -2.6231175423636564 -1.5806835713325615 1.2391264613116262
1867 0.7101825009439348 0.8815628053447141 -1.8309343707022236
1870 -0.6523280886145941 0.5289253119151925 4.242063134804757
2156 0.43991143325427945 -0.7121936926596228 -0.8539310924169335
2155 -2.495871964755824 0.02999784872632794 -1.5533711589051666
2158 2.045270842404709 3.578650862962461 0.816907504363101
2443 4.697893436146636 0.6333482448901235 -0.7491955460856383
2446 1.624089096074178 2.4202261096688824 0.830697258994174
1476 1.340875837783746 -0.12472276383594304 0.3783298629880088
2481 -0.6236031571615026 -1.819043184507211 -1.581443283451107
1764 1.8541613139826356 3.7576134729402817 -0.36964383508048565
2052 1.936562678782074 -0.04054734499681459 3.207539285919859
2769 0.5422475996733036 0.2724729531177987 -0.24455705030802802
2340 0.5589214810283054 0.42027035350648906 -0.9298854491971112
1838 -6.332152165538913 -10.453053240590846 1.7602399043844288
1905 -2.1715245202194997 -0.7633226294321372 -0.34095412359343547
2628 -0.015005671564117511 2.5051394339070026 -1.684162545767835
1475 -1.7751549431013178 -0.9294837294868178 -1.7267697409807075
1512 0.25868705417123794 -0.667167787122057 0.9075435219209737
1473 -1.5349095747237889 0.7851126459712797 1.6381708454789488
1763 -3.9005331521481748 -3.30203435839229 3.482900831223481
1800 2.152310771825603 -1.5351580145624992 0.5476287175304869
2088 0.9286188769535051 0.9982850256609602 4.91343906678167
2051 0.6441365025256405 -1.3095991395616835 0.6452404620594977
1730 -0.6564151935928497 1.4044582146668214 3.18869762114078
2337 -1.0420716763932019 0.6910450911865408 0.1624418008530577
2625 -3.4330754292604975 -1.0014243426660259 -2.5682942392286225
2339 0.23613420960463036 -2.9205776316008936 -1.445111736383241
1511 -2.012311925924637 2.928259991830059 -0.25601676471660306
1799 -0.7033629818849608 -0.44752950917865386 1.0971040241057874
2376 -0.3822092615030243 0.5119156290557771 2.330312184513695
2087 0.8781791626925941 -0.9820362140582987 -0.6149614379910162
2664 -1.124105215110976 0.09983196514751795 1.852932304956847
2375 1.4661829725434543 3.085996212694284 -2.53091657452245
1729 -3.0112884001216482 1.21732279106161 0.1877366344586966
1548 1.082174551986419 1.5665983478670016 1.1485528937960736
1873 -1.4741400366057285 -2.4343007824599696 1.7020036625733668
1836 3.0898967529350143 4.418617418943016 -1.091219454791835
2124 0.3370944589260762 1.9270038125846642 1.973573093148873
2736 -1.634675444622692 -2.3563881017339074 -2.694143426933395
2412 2.7967857275520105 -2.925493841101486 -5.443595243518939
2159 -2.4796116447880747 -0.36533342202609426 -1.176360198440192
2700 1.2159072374842426 -1.4697128429416721 -2.801575467994142
2629 0.15415163569445092 -0.34552003308961565 0.8574487874078814
2448 -0.805302609773794 1.2707970922499252 0.4831619312184414
1547 0.10688212034146766 0.5223724355244765 1.6050517512849753
1584 -0.7969362044390237 -4.276728212896939 -1.5804747793386946
1835 -0.9683014337274966 1.1850013166585973 5.5860594481087045
2447 5.640662433835116 3.454805250140267 -1.1287739263452308
2123 -1.7547776128611552 2.7494281203925817 3.0455882655091204
2160 -2.3441007002480525 -2.2772437763870137 0.9002526741231139
2411 -1.761289396052327 -2.0152407352065493 1.590707255550658
1583 -0.3549174096181941 1.9983301056754568 0.37293170108909085
1871 -1.6158949842687058 -1.623563517720973 4.20547269735334
1872 2.525891883224512 -0.044516654560984636 0.9665792740311077
2341 -2.854716124497889 -3.801856720806443 0.1187465145588395
1766 0.6934001260068361 -0.20357657394866 0.4006284933607883
1478 3.721354788649171 -1.4765357173208982 -1.0257256224321325
2126 0.9038268850491556 -1.037544099549406 -4.316101060508365
2378 1.6017841779640005 -1.7119675530516638 -1.3142901405992349
1837 4.241126883316165 -0.3260403505352853 -2.362513297648534
2342 6.051561373673349 4.2649112925496215 -0.9516074050635704
1588 2.300475055477198 1.5638208412891894 -1.2618956887355524
2309 3.272482652774085 2.1890034063426516 1.9601338213081632
1877 -1.360362690522807 -1.9925318788309319 2.199039323949985
1876 0.9492942458553965 0.826487038180962 -1.6161354509802284
2486 2.9244291091941217 3.718442669967051 -0.6917580712382793
2164 -2.314195452980838 -3.780258517137029 -0.32609277329447905
2452 -0.6117364640316567 -0.8101532483202278 1.6082547434522667
2562 -0.41421057519039695 1.937962730435106 2.2682166069161473
2740 -0.35908045221386825 2.915361825213029 2.466675833190806
1587 3.4390173640005464 2.709079887502171 0.6985961667727949
1693 -0.10119703705791636 4.237567492830834 -2.06182244461324
1875 2.808917986789098 -1.7817058628653784 -1.770613345317065
1912 0.9471915020615416 -2.3518997959611174 -2.9270398007744185
2741 1.4132060401030333 -1.2994733115298567 -3.4860390754082244
1945 0.13606871559453126 -0.7125569430026831 -0.5254942268896022
2163 -0.27069212606548754 -2.1098245939283164 -5.832462051131379
2451 -1.8327236538296328 0.04032716750970641 0.5180975724622773
2776 -2.2715767567764953 1.9375173499787808 0.30615335339768585
2564 1.4853241345866306 -1.653127762699852 1.49192414565955
1624 0.191616955063462 -0.2035618368997547 -0.5288089977718508
1623 -2.986959385807547 -1.742110043636237 -1.759365262528241
2597 0.6973787486940252 1.6361217740666198 -0.14921103613416847
2200 -3.4501938766239233 2.5514445840497473 0.6736688266083992
1911 -1.4998843117696905 1.2220491636532098 -0.6096771971112405
2488 -2.956286827531558 -0.9788355377291457 1.7870296302392898
2199 -2.3964859608120195 3.6356379007130046 -1.4917569432454691
1589 1.0692541486642841 -3.6832504364756082 2.4005868442437195
2487 2.9169804062854494 -0.7414968469119367 -1.1414822291057527
1660 -1.7573768778580123 0.24925954544330867 3.389291649214289
2274 1.4698007432481146 -2.395024992130197 -0.3004683608419646
1910 2.7445550515470085 -0.031022400232405635 -8.264421832769294
1948 1.0266546403663188 -2.6343354397235133 2.910553662233068
1874 3.5271324515058073 -1.137758137540376 0.25600344255240187
2236 -0.3877369867376967 -0.32650422530474954 1.965662635711852
2524 -0.6326276886446791 1.462636525287546 1.0057962928301818
2852 1.584310133068766 0.04386422081689389 -0.009659944101670984
2812 2.0265125856036392 -0.5847850833688082 -3.5749795055113296
1659 -3.6977664982199876 0.8860720794542073 -0.02499146161050744
1987 2.039555420198364 2.686973024592105 5.4238156330502045
1947 -1.7261876159895413 0.0863059174313922 -1.2623827352921881
2272 3.1749119223400415 -1.5389583501890853 0.9161422741677782
2275 -4.293386669362919 7.8432544140263705 -2.869465157932732
2235 0.2583738023325516 -1.5977091703711173 -1.6743182904978928
2560 -0.3313901306962843 -3.1360442629050462 -1.5071892771611763
2523 2.188004954937695 0.7098160433841137 1.6046579750211403
2848 3.600523939662191 0.6299141132333992 1.7571258204056786
1986 2.2145070152119586 -2.481390822176714 -0.7593456446114262
1696 1.5191546498339532 0.9214324997256086 -3.0519859275519035
1695 3.43795783759041 -0.03709856547703379 -4.067876400218787
2527 -0.47412559851606817 -3.6069178418558807 -0.699955381109974
1984 0.5059148179099597 -3.4676840591258724 -3.346830528297939
1983 -0.8827955986539039 -1.486329605014547 1.4221949402736942
2271 0.07240240368075873 1.3131255268442106 2.640541212892278
2563 -4.032649074586742 0.37805192235039625 -0.19826230479060408
1699 0.057796754673890165 -2.1871116153669794 0.2226998997258671
2559 0.539216520812494 2.9984636793291344 2.010285769420724
1698 1.5020506022392772 0.6244903842601504 1.9381348858601943
1590 1.1237202375045892 1.464975081129279 -1.8109092362447834
1592 -0.42369475063765805 -2.991843759213114 -0.9416372283085599
2849 0.9053677323427203 -1.8326183239947997 0.7526178798874863
1878 4.165039356671278 2.5301642341806265 -1.7878715761907231
1880 -1.1171813270131432 1.6226796002561754 -2.83966456981111
2168 -0.7890587799142273 -1.5881128763927148 0.45256573297669395
2166 1.6158418402929027 -0.9632526687266438 2.4869797829690916
2456 0.6174644274565709 -3.030729875098416 1.3728575161028576
2454 -3.7581395524141463 -1.7991288542944623 -0.40543499162015734
2744 -1.9307008336682063 3.056560199124837 -0.5508704132237379
1591 -0.006498372582013489 -1.1183916974671348 3.050649538540893
1625 1.987544443601732 2.2616859954391817 -0.2892118094523741
1879 0.6794256031510744 -0.23536817524475304 2.0777378325967817
1913 -0.29112689752162557 -1.109939587993426 -1.0001371119065874
1916 0.7662657819553957 -1.3345138606571114 2.5541145318901988
2201 1.6890562422407793 -0.4417540735072867 0.20587436605272724
2167 1.5441097404030109 -0.4236491176971584 -1.5358199917781514
2489 1.9892740665337199 -1.5023756025031691 0.7499060160227513
2492 -0.09466633860991294 0.012545133568254787 3.6850166420908006
2455 4.990268532686573 4.323408281682549 4.202053329641495
2777 -2.919413876956714 2.2195642768548205 3.387154675529146
2780 -2.131289205029674 3.865479196901455 0.11653091477989884
1628 -2.3386877273441757 -2.622493808517886 2.042597448823593
1626 -2.034546417214234 2.2284015492151727 -1.3164508494328115
1627 -1.595992940516841 1.776398326611869 -0.06826547297272142
1914 0.08114469119795167 4.0032363800570785 1.5041825223750378
1915 -2.2958585722435036 -0.15613596562247528 2.17215703102325
2204 -0.406550907333041 -0.7492220499795126 -2.1175272129337412
2202 0.8099366778647613 1.2323516284553604 -1.1119448129533958
2203 -3.385945956009835 -0.9286885914482457 -2.311543061709171
2525 0.8525840438275922 1.8859714426125003 3.176905632187639
2490 -2.914582270567579 2.7523077361662214 -1.4879269306055773
2491 -2.161707756985376 2.340666648444038 0.7567547374611803
2813 -3.4148843283769392 1.1976005877979727 1.0512064436762234
1661 0.3984416001213386 0.6593584193833015 0.5394329157296209
1662 -0.48604313693830764 0.3663745282527676 0.9729246283472152
1664 4.151105133411306 2.4215829899107364 2.3746930960448873
1949 -3.4924625042815465 -2.0821054422366414 -2.3455093750764657
1952 4.282654558282048 0.8224170704742839 0.5014015365080615
1950 -1.0481899328786 2.296721099520011 -3.020518405835084
2240 0.03947868265955695 -0.16315560827907732 -0.9200651942803937
2237 0.9609105520674638 -2.0862846878246355 -0.5589715474079008
2238 -1.8416296068380056 1.1751757352763255 -1.721184356462674
2528 0.3066583998951121 -1.961766444399974 -3.7866455272545347
2816 -1.0957778965673166 -0.7569985215273795 -3.4731922211685244
2526 -1.855939030237956 0.9230193962136126 2.8592707979035814
1700 0.059156310408936895 0.8751117449101606 1.8132361524519633
1697 -1.1811365881142926 1.4433087165057876 -1.862705130428446
1663 2.123634744393371 -2.294102852941889 2.233799583059062
1988 0.029683364856060143 0.8780850133707274 5.362672724130852
1985 -2.6850597742107425 0.5218300709747388 -3.254790074416138
2276 -0.4031124277137305 0.34603701201480025 0.347122720828223
1951 0.8965667045593898 -1.0958343786414453 1.9147081091690659
2273 1.10341511053746 -0.04276268269464233 -0.7926629629948333
2561 1.0115313219395465 1.2418386898498595 -1.0290396832874098
2239 -1.4857089940614083 -4.837627515775867 -1.1156488995543135
1622 -1.9983913742730925 2.497826159423235 -1.0019055004836046
1621 -1.5998207269184515 1.6305305537267396 -4.941446908386688
2269 2.238809662289952 2.6922564257553816 -2.3708627074369133
1946 0.6576452652354678 2.640378289543344 -1.1281451818298345
2270 -0.3967006994352569 -1.766901816267626 -1.9369062094094598
2522 -3.5870738311191523 -1.1282914257577155 -2.2504125390040466
2453 -2.506898150189849 0.9253874410158899 -0.2574895620231678
2233 2.274793256754666 -2.854446686933184 4.068822376654421
1585 -1.090205064047813 0.08554026665858606 -1.1872055468561502
2773 -0.19267883776618022 0.7529031495166669 3.2817220781485115
2737 -1.0217622247451688 -1.083544045072557 -1.3065397690027367
1657 2.0663245262431738 -2.768236687310556 3.5712703336162015
1982 -1.0071226100946624 -0.599474975606374 1.0067270064317253
1594 2.558270509782501 -0.22556560193986147 -1.709087154723001
1596 -1.1809711724058896 -1.491315840357316 0.2774790464807245
1882 -1.6782407829952313 0.25154380754411615 -1.6330202019017481
1884 0.00818299611439788 -0.6911199135855227 1.4979253172358886
2172 -0.17088893125152174 -2.642821455324942 -0.5248883165993692
2170 2.7309703918546906 4.7863589465927845 1.0723143912319912
2460 -0.09657464071841905 0.6063930413354942 4.448818008571845
2029 -1.2117015353189895 3.6724853730430653 4.3934034226134635
2458 -0.819569933624958 0.5300159872830252 2.023515768063313
2748 0.6844394721414206 -1.5649002228045072 1.1987059930375799
1595 1.417846628831755 0.9662324544619599 3.205313009247273
1629 2.259989354071038 0.7904955544774225 1.4960974740011583
1632 5.682959796280717 0.7376488657596408 -0.7330350775040404
1883 -2.2605644913221328 -3.0421451914498676 0.634933013754978
1917 1.0835462399439446 -0.3270155295704945 4.1220975332838306
1920 -1.8954857736304611 0.871062667771045 2.82018764126548
2205 -1.3107321557904206 -0.33382154246499357 -3.5929681099814177
2171 -4.278273251871291 3.4898950560874082 2.8535389871993466
2493 -1.4510010151282777 5.482488065859535 0.08699097643647775
2496 0.09133663109037617 2.12284330778509 -0.40671590893421217
2459 -2.7302210808306286 -1.0641204454851074 -0.10444625496334271
2781 -1.9782639253983239 -0.618692471346785 -1.467504724614631
1630 2.168264461046693 -2.6210700625249954 -1.0864448168814265
1631 -0.45163854165526146 -0.19145585945507282 4.301580868698491
1918 -2.4708151390705164 0.5655506277314288 0.3516236882403341
1919 0.6918221026278092 -0.6663505358820089 1.5958830182979693
2208 -0.3315413183181856 -0.4668242791682738 -3.0219056761672762
2206 0.7510128041674449 -0.6374290079370352 0.26423767220408645
2207 -4.335358167068659 2.6014490511441393 2.156258890946403
2784 2.086175215363834 0.9515725806768924 -0.19743588882415913
2494 0.32119805937781326 0.6233472559607649 2.3703538744123023
2495 1.204429532278562 -3.90107196498826 -5.673041145827366
1665 -1.0502015761737054 2.2822274512806153 0.5042816027649264
1666 0.454501104046455 1.6600835055624683 -1.3918989185045236
1668 1.7719637796400534 2.4384610211027895 -0.6384262807061296
1953 4.479399986005677 -0.7097721603878469 -2.196734589207575
2241 -3.979149284306796 0.16607181312812255 -1.3943691181630162
1954 0.9235826953986993 -1.1567515299393916 4.713332577609128
1956 1.5124560852204438 1.0777580523300323 -0.10377697063842338
2244 -1.1440167732822892 1.3666045582065802 0.057816394078757445
2529 0.10780837383139334 -1.048976422534051 1.88211864999203
2242 0.9866768852317449 -0.7352186715520741 -1.4428546680251355
2532 1.549447179990625 4.133996620493037 0.16128982781774137
2817 1.0951904358120683 -0.21800203312295302 0.558001762596975
2530 4.052822245796265 -2.7470797540445813 -1.4192484917579782
2820 -0.06982752560170855 0.7362583876869144 1.7094285880507758
1667 -0.3296444198297898 -0.7905700088382972 3.035468750789261
1701 3.5623749427249503 -0.2215455820784984 0.5942357540601183
1955 -2.4877650050264735 0.787572092110679 -1.3756583536645994
1989 0.7777967882638328 3.3315039742739527 1.9785401027864606
2277 -1.679706717311102 1.5325638817040432 3.0243811514926695
1992 2.1949378995558964 -0.8416598838550381 3.2795031610509495
2243 1.4785103383671232 -3.4872410554914794 2.9703163588614645
2565 -2.2354446426157404 0.36135000620292995 -3.915349376728354
2568 -1.4254369757665761 -2.359089285074883 5.714815361194701
2531 -0.30337747118064873 -1.7750380904552152 0.354811244719022
2853 -1.2786559666626944 -3.235560393276871 2.326901979389235
2856 0.9128206157453396 -2.2606012953340677 1.0881298793124645
1704 0.12336321880265703 -0.3707328035777333 0.5144869247207127
1702 1.8037754401770627 -0.9668648622853888 3.641829749767478
1703 -1.5788626623334465 1.6268962407069922 -2.8102037532039543
1990 0.8883060724483504 4.162806783638072 0.35020505493620063
1991 0.23704715526829662 -2.540747409946901 1.9106862677221585
2280 1.7793698085152525 0.9588960936007711 1.9508093946341294
2278 4.964984456220467 -0.9449883227217358 -0.25489812930212247
2279 -2.104304405132501 1.010394048495708 -1.7887807735391024
2282 -0.4826754158229401 1.5776479404241959 3.405379199876272
2570 3.4749148264976464 0.731678229375879 0.2960356709304248
2566 -1.5413796538954139 -0.12757597824676442 -2.3721318084695855
2567 1.0716412940197124 1.238065915126143 -1.0080337732045213
2572 1.04867400422617 2.8075662218919057 -0.9705042241079663
1598 -4.566623128305594 4.4347400977851885 -0.10711004893517553
1600 2.736331305221392 0.23847828492892506 2.42824419117369
1886 1.5335432043305908 1.1765692311032432 1.5053580668772155
1888 -0.23057359816679296 0.3065406122053504 4.083401120588398
2176 -3.1906969081544507 0.5567663472579152 -1.9631343413510052
2174 0.1592727112947362 0.3761608398049472 -0.20074013959912282
2464 6.6058808686093995 -2.308060376043778 3.2482941747281826
2571 0.3603607308331087 -6.42464964638094 1.0762282395832474
2462 1.2239965645987578 0.14496270437538195 -2.257974199771144
2752 1.2708392501773484 -1.3027374799602942 1.2830453885423387
2283 1.5326089281015236 -2.56948932215972 0.7096380071500632
1599 1.215116077287441 0.38731413317542523 -1.9680738009523782
1633 -1.2678709069772718 0.08302859749323126 -0.8039591530894767
1887 -3.624536519343826 4.414993857343062 -1.050932359279597
1921 4.7908912802234465 -0.5911219961656372 1.522204071039049
2209 -1.5524379431568252 4.467852676105415 1.4452796983078922
2175 -4.66618930671076 1.7133288052098317 1.4961421366921759
2497 2.1501868967464786 -0.441686059328156 1.3154773048232122
2463 -1.9059300637336953 0.562281420707364 -5.306600172419904
2785 -1.2235810739142643 1.8821697270138633 4.468432264171751
1636 -3.3603146223344154 2.4997175445777406 2.4730892517605905
1634 -1.8754702027219652 -2.7686044834036165 4.401849923423837
1635 2.383352062532732 -3.45893846901917 1.210340545357129
1924 -0.04486152002212324 2.937257996047414 -0.29101140952747856
2212 -0.5155281802488193 -0.40103350854732467 -2.228795930336431
1922 -0.6802638234135571 1.4811471414237174 3.8519076050991683
1923 -0.1392134818037978 -3.1309359153742777 0.4511203414993554
1957 -1.3378324467908724 -4.987521029373105 -2.438486354484465
2245 2.40398158333993 -2.797798182154753 -1.424820466607049
2500 0.4886396783243454 0.7213036684967215 -0.9324065027194046
2210 5.564115796543149 0.5194147872259393 -2.4734826719241307
2211 -2.2885598655322084 2.9747164592147146 -0.5659098825633588
2533 2.2701966209914675 -2.794269445642711 0.5967943722748814
2788 -2.978576085890177 0.5960161570313814 -0.1345789316661936
2498 -2.8963647389872755 3.0896748014780515 3.6774857503811593
2499 -0.5582378862710672 -1.699044447623774 -1.8120960319894142
1669 -2.159175553747382 -1.8571704292149505 1.212648137553016
1670 0.8520650443021942 4.489373192666793 -0.2333945959481814
1672 0.6901166863130803 -5.08545910882381 2.4821535581673704
1958 0.3018753503683307 -1.1135247566616764 0.260156015354475
1960 0.11439060928681903 -3.234477024650192 5.689845917327163
2248 -0.8963710816395728 -1.6406909245675037 -3.687334123867883
2246 0.41624661614336106 0.3527463547093772 1.207696362905952
2536 1.4671212745223488 1.8168973560710016 1.1343991000307334
2821 1.4015569051167214 -1.4783012616330058 -0.01243984868943369
2534 -1.8978836139378146 0.3320475505250655 0.8555559574955891
2824 -1.9737829740006312 3.1356491857340902 3.1263342549373507
1671 0.8880028418786104 3.1785819945982223 -1.9679649942993298
1705 -2.7138423854005937 -3.2703043505221934 0.033213137650449386
1708 -2.019601753832363 -2.230431788810221 0.6445407911572779
1959 -2.8440755034978427 1.3781300278299164 -0.6786325917212971
1993 -0.7569393879065655 2.5976346480977974 -1.6303913366319986
2247 2.046291681595624 -3.0557730656009285 1.1476556623384293
2281 -3.9069638304266587 3.988627001891616 -3.017908203760509
2569 -0.33380166330308675 0.22697363590701336 0.12195590266578603
2860 -1.608605082250172 0.2088091769343944 5.709267666217561
2857 0.32860056520158454 -0.5364753411183772 0.5191490077943115
2535 0.021628613924517637 1.011404110550656 0.4286652970380871
1706 3.6040908297237784 3.994674836185 2.378808519668755
1707 -1.1141142335160727 -1.9237448767808967 1.4000383968445929
1995 2.4537796733888935 3.584641216778477 -0.9345105801842212
1994 5.1547437018816415 -1.107663552558056 -1.9291172758266284
1996 1.4828589260759104 1.7421771281652163 2.8682731624628435
1593 -1.4588500981686647 0.057794335466617865 -0.24575153154432264
2284 1.8054476914093744 -2.1618556327689977 -0.15191370273918753
2749 -0.9647250212968785 0.19189321011735014 3.324474548908504
2025 0.6636646023952871 -0.07374827236532279 -2.4694099382420647
1453 4.0653331624328874 0.0658566330926773 5.332110935078071
1449 -3.5300089686344798 0.8473011363085398 -1.822175199121898
1885 -6.150910837163017 -0.27588174240623237 4.573841899526951
1602 4.3357444585452845 -1.148040137113321 0.011833914426080274
1604 -2.507739826556263 -1.565501054697131 1.5474487578832974
1889 0.7194666306902789 1.8479041270997525 -1.368337822469747
1890 0.05025023619389689 1.4361216675614867 2.3596063870137507
1714 1.8055370712168493 0.6983247123972119 -1.7305109420432718
2180 2.4865209664529937 5.225342329555032 -1.1318050799338495
2178 0.02220474013493754 2.240673440447541 -0.7041675762992171
2468 1.8760997323432675 -3.200519039989442 -4.955890788086042
1711 1.0934702152666786 4.758515550644983 2.114103601924124
1999 0.5282830966440266 -1.870583384965654 0.5621688052010573
2466 -0.5661330014035184 3.0665560547938155 -0.7030765320165313
1637 -2.163076721550779 -0.0802619972143196 -2.767809035489999
1603 -1.8402259642925638 -0.1947971764690017 -2.9512357419541657
1640 5.118120579782185 1.0890962566500189 0.2082596733437533
1925 -0.8366062918845562 -2.630305910921687 -2.0299387517429324
2213 -1.7355404672697246 -1.5025007004682247 1.088661389478766
2216 -2.040932654697268 -0.8237178532710462 3.842476844910345
1891 3.2619290748021306 -0.6095715413658437 -5.177556390115052
2501 -1.0870248320576528 -0.4501918362293643 -2.0252097040097476
2179 0.6817693433827341 -2.594127854854791 -3.8110750146643504
2789 -2.3924721521840944 -1.5282569570193067 2.859810144746579
2467 2.1436523675907337 -5.183850100402597 -2.186046220920327
1638 2.6073579214162774 -2.166119523531878 3.0862932782386805
1926 2.962463112810015 0.0514429688933619 -0.14781869185889276
2249 -1.9689254267041214 0.10817533272451361 -0.48837848556486374
1928 -1.8308050041534911 3.954964872747652 4.664847559063177
2214 0.2818945636411622 1.1788279263766044 5.536072994688992
2215 0.5336704685469158 -2.665764264179461 1.6423130137316995
2537 -2.169071551631018 -1.07245672860867 -2.2936780265651473
2504 1.5839643926529154 2.8190719252280467 3.180869041868578
2502 -2.150516262682966 -3.1463838066137684 -1.8490136197433888
2825 2.383495395350443 -0.9434656595070252 0.9812114350193033
2503 2.3710092667935707 -3.656796208973794 -4.842972339753826
1673 1.8465010064606266 -3.258897550341947 2.2160268878489355
1674 0.6423828403582794 0.9497139798429312 -0.372109385281158
1961 1.5045872585848146 1.4542736981162574 -1.044458640725606
1962 -3.0691702588809076 -4.206116765977423 1.0571817862489012
1964 1.043797599664043 3.7582588442632914 -1.5289452974971531
2252 -2.1619193784874486 1.371568333323782 1.2248839715595752
2250 -1.9996546163039928 1.6142747142134473 2.9768766464117236
2538 3.556468969868881 -0.35169606156833294 -0.3732001455652122
1709 1.0388225757219964 -2.4975466914645437 -1.738372027341673
1997 0.02748363102497326 4.331535390347981 0.6637849105464751
1963 4.314939168597191 0.9274171819126273 4.202931572646642
2285 2.087456589976355 -5.968558976982321 -2.338457452872695
2573 -0.9491871374120112 0.30530120809059846 2.714334472684764
2251 -1.3578776262808203 2.0344687603946747 -3.9009689780046344
2288 3.635634013954287 2.0574404213825077 -3.226459225292367
2861 0.8200344477548881 1.4145700937933712 3.23153637354178
1710 0.21450222882710848 -0.9631381571933725 2.447507792973746
1457 1.447591228274412 6.68385190615276 2.184607460915214
1998 1.6663191491115599 -2.558028502126526 0.6216396861812757
1605 -3.7306221013416865 -1.9804263489891885 3.1020347683827856
2286 -1.3582906101657022 -0.5286497746157527 2.714591973125927
2000 0.6838794772428894 3.71713184644966 -0.8271951755561384
2574 3.344044443713689 -1.9908138737183525 -1.4103598338389636
1606 1.9509588869951775 -1.5849179919631264 4.221747462888207
2287 3.9284354585548305 1.8773921294449105 4.65622461617801
1892 -0.6750496211494155 -0.5380729047230973 -0.1476348259230159
1894 -3.5765403497805806 -1.8709011195295693 3.438342595799983
2575 2.3812211370779743 -1.773381384449217 1.1114939282947867
2578 2.9628897834671357 -0.9509315554037299 0.5670169029796904
2182 -3.7443489824828804 -3.3975032395655242 -2.0680081257547407
2290 -0.4964636854159485 -0.5846607550796274 -1.5507865488251895
2756 1.2744151666234496 4.498103745360249 -0.3551064890341113
2470 0.3914239106226684 1.7338650758039793 0.9441904091059121
2002 -1.3371766906130809 -2.1800574147482568 2.289734023572955
1641 2.2835937001268594 0.19104865841015742 0.6898594613349199
1929 0.07219928486646973 0.4420965199310562 -0.7397936654864622
2217 3.6668261587963933 -0.8424389065091523 -0.2839579921507097
2505 -1.2534835281097267 -1.2386102939970671 4.439167605935058
2793 2.609335973238341 0.825352400602662 2.4645794281800106
1639 0.4122163782491696 1.3904231097619737 0.8480856259110856
1642 -0.15087299730359258 1.3316097036071952 4.382461785301472
1677 -1.275046272839827 1.2674518269536015 -1.3147990504671607
1927 1.6237559072420256 0.8980542150927646 -3.5562870922851544
1930 -3.2845071355381896 -2.0001959890501695 -0.366702952941009
1965 0.52357506879685 2.485430861893981 0.9253323976312927
2253 -2.437985478632196 2.061051902998252 4.191635377645062
2218 1.4231508619215814 2.183463012584803 -4.026750405392096
2541 1.0790929761536348 0.7570742537302814 -2.6477244040072647
2792 -0.788676663596081 4.2882866821000905 -0.686496392711428
2506 -0.4646098584129755 -4.634400225550653 -5.368917595709513
1676 -3.4428174478095057 2.0876556072275765 -0.11125541273461406
1678 2.6489904251344223 1.7307452345050793 -1.9102658054045294
1966 -0.9725756193189791 1.1331263022510007 -3.4370086837213663
2540 -2.669361016324925 0.7724302134542463 -3.7502499821306534
2254 -8.206787424228404 -2.2105740678993633 1.5232486847477424
2828 5.427446040239909 5.086110502604418 2.7462288763512923
2829 3.329148541852391 -2.5494805978565456 1.156641584267372
2542 -3.205903696056579 3.7656923199387524 -3.4667469259014143
1712 -0.9704341166889058 2.4590391637028572 0.878481975147698
1675 -1.4403852873315157 -1.3407589031980098 3.5175560752729322
1713 -1.5480084973743455 0.24415312306295117 0.603187924184098
2001 0.09119908133239256 -1.104643438935298 -2.917007067670267
2289 -1.3039252381906894 -2.648809617124553 -4.774477535938682
2576 -2.872087622575241 5.018873074638999 -0.6838155908382315
2577 1.7349852211933683 -1.2080139153165008 2.7460314991506567
2864 -2.2330949063584664 2.4739484444119952 3.059982472048474
2539 1.5131002595388232 2.663042155177221 0.010037007145156535
2865 -5.75447644725288 -2.4343519844499126 -1.7263259755090332
2321 -0.7177385272321966 0.8046198556456794 -1.4713958174031816
1601 -3.5642479266877527 0.7671421884247669 -2.731502514403617
2465 -0.4690211819075889 -4.578038082328903 3.872304004997309
2325 1.1791163626685026 3.2397849486826735 3.264028368822081
2033 1.739724379942414 1.2343942851150775 2.085708249080274
2613 -1.5417422297010912 0.3219742060738234 -1.5664990962288194
2177 -3.2383133030679363 3.0606283449496234 5.483814516693422
2753 0.29584471462867584 2.1804803578516903 0.728328789694919
2037 1.3040258508268978 -1.224023839608037 -0.44409019067544947
1745 5.928410129423201 -0.1552531605967419 3.4375673773121633
1608 0.15159658373250492 -1.6099556805178525 5.111546610986633
1610 -5.706365774386652 3.3736116874172506 -7.907279129066138
1896 -3.3316743214276796 -1.3828383554309849 1.1228109941083049
1898 1.3076715473147884 -4.414226263557266 5.493177074069601
2184 1.932108129838463 -1.2674233867940352 -2.378854586815117
2583 2.826677150712015 -0.4313583231373927 -1.7266462389120267
2186 0.5697190075202285 1.5920323917812957 -0.8030004723003749
2472 2.3544382214763893 -1.671931156123383 1.2668057176761516
2474 -3.208791114420021 0.10841027602044746 0.7331370485833295
2760 1.1376754520717833 1.8992554331682456 0.9536600724876074
1607 0.2763010564497829 -0.2121580080196038 0.8783055558225376
1645 -3.2259412135364864 -1.0589777321109328 4.427341772072194
1644 -0.9416002328223807 2.085107410790578 -1.5083754130596976
1895 3.903622661060843 1.612166882840217 2.844564105620066
1933 -1.0620979990421833 -1.073750709979295 1.6064407124739355
1932 -1.1012930787373902 2.574536390902382 -0.5002345520310859
2221 2.5244831438592596 2.7450354736828593 -3.706621063170698
2183 0.8554646899514059 -3.289765541948199 -1.0366444147860034
2509 -1.7234563010973616 -3.5504734547872197 -2.746939292035413
2508 1.0226390461034964 4.078597139904651 -1.7167695007562807
2471 0.03593090281317016 -3.102980101646811 -0.9416162861630958
2797 1.181282725229244 -2.21303779119614 3.842650939149536
2796 2.754456258143653 1.5676357576969473 -1.6866643301878845
1646 -2.518290209528455 0.5520664204848448 -0.08609899270343002
1643 -1.5314264063117746 -4.07724639071215 -0.24171119599850102
1681 8.344123648493989 0.32579737160866923 2.8843007664764517
1934 2.2876717900188783 1.9514640081215762 2.3555608034197575
1931 0.8515609245155917 2.5335728868566756 1.3175748942567582
2257 0.8148154619166735 -0.5880432803138825 0.6454025941103084
1969 1.2052462465310785 -3.2168108185409365 0.8229907113430004
2220 -0.2383044948333367 -0.08215884215775168 3.1971149152220497
2222 0.9095212611636436 5.148536411863027 0.10642064346751284
2219 -0.3577343172651648 -3.055868560632569 -3.41257189505466
2545 1.9702608097768162 3.921732821993199 0.45821212868345895
2510 0.1564298764559444 0.7747458172583662 1.6288874574102832
2507 -0.8698409624316568 1.1036127530196052 3.297032405215318
1680 -0.5873120577344041 2.3002127711492566 0.23275190467586968
1682 0.8949292870537628 -0.5507359260781333 2.029521112344587
1968 -7.38716584326013 3.2871060493870603 3.8819430015826786
1970 -0.4546319236155753 3.0106782921768267 1.439542304717019
2256 1.080393057826764 -2.033265523239758 1.9980667971298298
2258 -5.977159542323582 1.2347427069590058 -3.6655482543924807
2544 -1.0509139911455003 -1.1314528174116705 2.438759782774375
2833 1.8408214667120821 0.01408611841449971 3.8223250297233125
2546 -7.559548586286653 -3.3736834334055823 1.0158029356211649
2832 2.7274284073593082 3.643329357825381 -2.0160801834670137
1679 2.7367630134808913 -1.2294206899517148 -2.194588105023822
1717 0.7346679145334152 -3.6056208867919555 -1.7125995664025624
1967 -2.8612010336103553 0.798326022132241 -0.26348882112959005
2005 0.8948848565759733 -1.4934456452471734 1.199990792946451
2293 -1.6037011087401478 -0.14456472007242752 2.1465192565232973
2255 -4.627965751143747 5.579044041687926 3.48807919056538
2581 -1.9640468410714524 2.9525890446199057 2.111925664345395
2580 -1.1739027798616553 4.1291509837464035 0.8061378702370189
2292 0.396638238992618 -1.8989456023280793 1.4608533186787565
2543 -2.2549204909030705 0.19758099262572967 0.8296975919507098
2869 0.5242199199405665 -1.3571901997498481 1.0898593937603525
2868 0.09561893305365907 1.0712561405282592 -2.03957875225122
1716 1.6996995567764728 0.2537547764237482 -1.0409505847397138
1715 4.697564558475523 -1.5344917050794862 2.898876249731418
1718 -0.14074574052286717 2.860430294506777 1.1106155936679882
2004 3.4408282687054492 2.8483150138756628 2.445320638997768
2003 -0.05399654880421685 1.9925901230353336 -2.6635636959315736
2006 1.7959759428472013 -0.5078812089988981 -0.9750841379754223
2586 -2.156258520187031 -2.189149243772044 0.30840910605199856
2291 -0.6834670409718582 0.5581688834866538 1.1722513462253072
2294 -1.419863293197897 0.2915853923379332 -3.100902329973788
2579 1.3807092774170169 1.7733586385456035 1.390026811867158
2582 2.5905700198692254 3.313853449080638 2.8927560365378087
1612 2.344218757285847 -1.2759283385037354 0.6825971491013755
1614 -4.350690776457385 0.23459500459206 -0.8197027875460328
2477 -2.6084848233335842 -2.218690366120187 -2.39562964452887
2295 0.42870797876962913 2.71222582749852 -7.947587284196716
1900 0.41438282315512254 -0.7075048947225407 -0.7560521384432398
1902 1.3055710873860777 3.0855074086961185 -2.42192668878001
1609 -0.806200049483857 -1.697102309249818 2.278327626006864
2188 -0.4951584656406235 -0.2626560764087881 -0.8471991608757867
2190 1.2207747255332444 -3.9633123755950512 -2.5254296305765926
2476 -2.202138519940728 -1.0920176698803368 -4.5540784204675075
2478 -0.7160618425473388 3.029716685531192 -1.188936229948412
2764 -2.2676341410839096 -3.324794679399288 0.33609454080524803
1611 -5.142812525388188 -1.216140967161883 0.6838057483181694
1649 -1.357088452184252 1.6181493989208133 -3.404686679292245
1648 3.833459430998976 -0.6540220738037918 -1.7345839123880211
1899 -3.325483997212677 -1.8327712629538393 2.3584891990568186
1937 3.326943601129506 -0.3509255999392788 -0.5220047233935611
2224 -2.8765246315050637 -0.03954564622704482 0.015940466439876722
2225 1.5137753203286604 -2.196171843111041 0.9745291551663946
2187 -1.8818343894422591 -1.7364741333857598 0.5459248078765881
2513 -1.7775233801494916 -2.8671741867275506 -0.08537673579619154
2512 1.777465992257997 6.424021035056822 2.04657227478262
2475 0.8176733987376884 -0.620614185887522 -2.165617030644966
2801 1.7247968253667714 -1.1761260498267316 3.828023102008222
2800 -0.7025190019020747 -1.2622743042894642 0.4713035051389873
1650 0.3747505872970769 1.3530050590093288 -1.6261927878081317
1647 3.555956622229306 1.0361744734603249 0.35590297054710057
1936 -0.6867129049571465 -1.4195174832190143 3.0629249552094873
1938 3.265874234148646 2.8298798659902653 -1.206480708329538
1935 -3.06020632331617 1.996597229637622 -2.9535242256115124
2261 4.386657198271765 -4.846650106743326 0.2540049175541164
2226 3.3624523298821334 -3.0501186251158883 4.242722288974818
2223 -0.35821107885104786 -1.6157934757194687 -3.5032993767553564
2549 -1.7238706349286965 -0.5954970641696421 2.969237879087094
2514 2.401564252069401 1.2921146054029147 1.0557977212938656
2511 -0.5658346563230362 -1.1812450773187375 -0.8745510605062167
1685 -2.0993700443657333 -7.316950047268653 4.954772958404048
1684 -0.24990833626089445 -2.294066666106944 -1.9533837856001424
1686 0.22841347894587935 3.057456094792474 -4.441314585599729
1973 3.1096566355139417 -2.62918744993436 2.132649418527872
1972 -0.7820461144956511 -3.0940313390971648 -3.311746718578533
1974 0.5471564104789105 -0.023439393144139377 -1.7418747675345057
2260 -3.849571492580377 -1.2813450972421645 1.0213754172878295
2262 5.498082630434787 -0.07475572075447487 -1.9096553139157082
2548 -0.8275333022727602 -2.0837639900592984 -1.3189601262955224
2837 -0.4256933860548798 2.7049357791579838 -1.578094804488918
2836 0.6396005508167604 2.8063487960794133 -0.8853160057309588
2550 -1.9741737060583535 4.660762023744471 3.2142780348725717
1683 -2.4564208074157206 -1.220729965997297 0.5463519131151345
1721 1.777001740353014 0.9338607148070716 0.6726118184760247
1971 -1.9168254683120773 -1.8341043175023353 -0.15187515490304257
2009 3.2712010128922473 -1.5733512080551497 -3.1500833602189418
2296 -1.197238998693466 -3.313431988979816 1.4914298451086891
2297 1.1782276480972036 2.301193466036753 2.2361009060167425
2008 -1.3627936531698004 -2.9813890140933865 -1.720066229833912
2259 2.5002104003531835 -2.2298213956035817 1.637161548066638
2585 -2.0600391992255123 0.4094250353114873 2.6525879158043986
2584 2.0364253796056437 -1.9992070442299406 1.3319355338743755
2872 -0.4440532744999938 -2.867333583218986 -1.7246220119771574
2547 2.1321057103158445 0.5516377187827801 -1.9125926886921358
2873 -0.8844211415487077 0.9063814343021585 0.43015207658039434
1720 -0.09451992290041691 -2.800236950882083 -0.7146733061536145
1719 2.4812461865336175 2.263920650235345 5.057278567904906
1722 -0.25414939726673635 -0.7057652288591479 -0.5430648931437474
2007 -0.3958915780875537 -1.7713652515313036 -1.478134894870538
2010 -4.314533531949696 -0.23066541006496052 0.5463396305155552
2298 -1.5705874209135535 0.4209730643904577 -4.994067639625274
2189 0.32648257366099287 0.16305042073666273 2.9950792527549686
2765 -0.6703033180046961 1.1258103633277359 0.9918948579654219
1897 3.873466048414382 -2.984775504090236 -0.5487242861813882
2761 -1.994659171160102 -0.6203978366408712 0.5090601650654325
2329 0.025822912248966743 2.2558731770909066 -3.8240997408433888
2617 -0.12689842891557063 -0.03080803227808806 0.10245996974873833
2333 0.26710919910086833 0.4374186312618916 1.1014806776227275
1616 -1.2576141146194295 1.1825819776466362 3.9674636811904915
1618 -1.4156492815859207 -0.10088176059492196 0.3759157185684804
2591 0.8186205305220692 3.111211042781262 2.2337577359591223
1904 -0.1976787133320747 3.291669284958562 0.9896209355371581
1906 -3.4764831984058 3.1817895100620923 -0.4337262088768858
2192 4.548519605306093 0.08128098451152538 0.3943034583620154
2162 -0.7437225519103698 -0.9859402737684776 -0.025795899240594205
2194 2.0863124424223565 0.5694297176649771 -3.4439411081283575
2480 -0.11337093207108703 2.131767241640254 6.5450626288716105
1694 2.5815546273350862 -1.463926449500512 0.7780914914059927
2482 -0.376239481179515 -3.034980131391311 -0.7018859138820187
2768 2.039982571900014 -3.122250851084793 7.0533432428235185
2450 -0.06143071065586744 0.4688694223404658 3.2359852828904176
1615 1.258919272783348 -2.4602686756912386 -0.3283590841135125
1653 -1.4957112777286323 -0.07601012709633392 -1.832545135864199
1652 1.6267500499156824 1.5539645664944475 0.9171388417615022
1903 2.544065486634941 -1.7825990894810446 2.569942034765553
1941 -0.8016229140112195 2.5887908893128198 0.5353865910410408
1940 2.925904718832317 -1.0859800188648439 -0.531331430663608
2229 -1.6652879306546409 1.4932881003828218 -0.36329397031814553
2228 3.8151488106117997 3.4807843272029237 3.431746075371567
2191 -4.369676960363856 0.6072928998317261 2.213914141026906
2517 -2.679809578692456 0.33397303389103994 3.075005451620399
2479 5.011837157547843 -0.7806161877078049 4.827916831376234
2805 -0.31651012217690344 -0.08939164893719592 -0.9890672679277247
2804 -4.78751318911526 0.44173208639472633 0.8356017854029176
1654 5.550867145071456 1.2745176416905308 -0.8937278671565521
1651 1.6933029266545285 3.0231237504059987 2.4015935821663477
1689 -5.017022357907143 0.269970588726191 0.10153075596768886
1942 0.010539380395910342 2.157731717888963 -5.483230266987093
1939 -5.04736926792496 0.013965874117964234 -2.8880028637343385
2265 -0.1545864549502269 -4.117553289983826 3.9773386325719438
1977 -3.066338677445867 -1.7000475834780608 3.8787915498123637
2516 0.15190000494137493 0.10260252037897097 -1.0245460876720611
2230 1.815161507221957 -0.11744371115962117 1.931643102367287
2227 -2.546018346561449 -0.9873038540167516 1.7285798469909643
2553 1.5533763551408954 0.0862868883040352 -2.4774014765634247
2518 -1.3497210474938321 1.1677078884299437 0.09744434851183563
2515 -0.5015062080122947 0.21284867019271958 0.17980144233591627
1688 -0.7776040882376541 -2.2755103216156947 2.1870819273365676
1690 -1.442758968309809 -1.5651861465009047 2.2879447425241
1976 0.9291559383784125 1.7422484425942755 1.8386765043114288
1978 -0.458194794159729 0.8684043263254185 3.1092070489317014
2264 -0.662502761595776 -4.136004135044347 3.333692009725931
2266 0.7907040555447812 -3.5952242476609024 -1.8534964705991854
2552 -0.8533960152838276 -2.1549412392484415 -2.309139945583258
2841 0.2182530613131409 -4.794888582229747 -3.0581873656543404
2554 -1.690360084664902 -0.21759567736367483 1.62188363058526
2840 -2.6596550623148087 -2.2064893111455164 0.4104810725839933
1687 -2.7921513311935557 -2.897331021616791 2.711094761143894
1725 -0.450722447042428 -5.3975256869174775 -1.6185747836110427
1975 -1.157320862285077 -3.2599656317825834 2.053172171541511
2013 -2.28021961527665 -0.5067266703219243 -2.4591849305768694
2301 -1.139935191640267 2.2074958973548537 -0.028633457594543436
2012 2.5377952903140355 -1.0258275336565423 3.051879907049954
2263 1.6542410836389505 5.6605309471797645 -3.352390175096264
2589 1.8567548068862527 -1.1928844998253891 2.0441601573393617
2588 -1.353386398110335 -4.182409570810301 1.9079130424593294
2551 5.215658204999559 -0.43121312361582903 -1.648985233014656
2877 -1.218373114028988 -1.8501273511053782 -0.5364001052190455
2876 -5.385321856101592 -6.026973485046952 -0.48579968068917895
1724 2.9658663696766765 -2.843611497922505 -3.3848991219198377
1723 1.0509176030525698 1.3518209361662064 -3.5598596958741826
1726 -3.5342832999725657 4.792382213081171 0.17699773734947602
1658 1.484888257475715 -2.4133994025620447 6.887824261142255
2011 -4.147006258641496 -3.065601218399912 2.52215571770033
2014 -3.9012789508636088 -0.9717593116512843 5.6237360050329475
2300 1.5697547339579487 1.7417340353948376 1.8974704327391245
2299 -1.9905362787396486 1.172988029372903 1.1151850968494836
2302 1.2035119583144733 2.3230874136636888 -1.9940987861772885
1761 -3.017160690634478 -1.8321361190195713 -0.8412874944678255
2558 0.39745573096531134 -1.1053467796840684 0.9882873341393622
2587 1.0492040179039284 0.4681332393914357 -1.3478992808773573
2590 -1.7839355613062757 -1.4958454090531466 1.5091099685967748
2193 -3.595506728065918 -1.4145360254254966 1.3563353251694126
1620 2.1377093628883763 2.077514973899863 -2.4642290747521884
1908 2.8547586195512 -1.458423726598035 -1.1525841649201294
2196 -5.0001179348247655 -0.4482984875305316 -2.611837006118935
2303 -1.53236928280938 4.029404955992786 -0.15178822128799224
2484 0.37398353640935833 0.5618176922403432 -1.4628757255930656
2049 1.2958242037244867 1.8533281477467078 1.4246415528044287
2161 1.1236311160900703 0.2101129824799745 0.060915191543869346
2772 1.026833834195106 -1.7333018748100604 -0.3493485386867374
1619 -6.591650568228203 -0.848343789058787 1.7653376733938004
1656 0.41296266541357646 -1.2617040127467132 0.31908890728652806
1907 1.6720434672274995 1.4158649490371686 2.0515816182487363
2232 -1.4043278961242651 2.4227862484404517 -0.6593977047835309
2195 0.9517709634294879 2.1036730855791967 -0.6072688400644736
2015 3.413812552377363 -0.14071941941812074 1.967244310343676
2483 -0.45987967285089487 2.6686502857144867 -1.5284878172997831
1655 0.15836703434675353 -1.9711310747249697 1.8984132286288309
2016 1.8760636015082872 -1.1144606882694557 3.236269454540842
2304 -1.569671187080867 -1.5429553788182722 -3.1174027867291585
1944 -0.08855945099001564 -1.7114244125614528 2.0952665235766617
1943 -3.590572353314439 2.5214793562666213 -3.7091739483897785
1727 2.0430633864041265 -2.5509845989719557 0.40210949152038145
2520 -0.8958101379503353 2.264850193602755 5.534364939696339
2231 1.8746182028806937 -0.05104655929241075 0.5379275661523099
2808 6.813130892426616 -1.6336133875316605 -1.6244541374264097
2519 0.231168118556878 1.7205538969404173 2.6303395143835853
2198 4.837461954590481 1.8621387408668497 1.7814231254202086
1909 -3.318563800983381 2.1322383601517507 2.719401517742
1692 -0.6555630483568861 2.6328789619878643 0.9844406606501359
1980 -1.200927753993874 -0.0983736059179297 -2.3241426464608117
2267 -6.239135828424599 -4.005506226149719 -2.000165962788469
2556 -1.5580527309466674 1.4867113823115994 -0.4526064480789141
2268 -1.075110791604448 4.821614275839279 -2.8003368492079264
2844 2.1464704076493835 1.250027368723304 1.012668095997284
2880 -0.21270105135386472 -0.07821353435723394 1.687549850796769
1728 -0.041334639787808235 0.7917606438245028 0.002256359092453915
1691 1.787995520687578 1.5543771048769075 -3.3698097103247857
1979 -1.9195700090220567 -1.4577164281140491 1.3996364036424405
2555 -5.983203860439884 -0.005025094041064863 1.558910628861903
2592 -2.3313523954882704 0.8534737194224838 0.026245649831210086
2197 -0.2558456302865771 4.6663702698695335 -0.9211244634033896
1441 3.9207699591255794 -1.1598031312920525 -3.3253237655734926
2234 1.4898786394135097 0.6743692109123967 0.1667736136452019
2521 1.3811033371935533 -1.8113028121052341 -2.2404818798585957
2845 2.2724033236132017 -1.5176998715241086 -2.706832051848601
2557 -0.17711124695233302 2.7651412392640133 0.05920582849063183
1586 1.3859777205811665 -0.2874918690835502 2.2230003120346526
1981 3.017742585824667 0.01116860614299699 -2.7040790327959243
2485 -5.339568617755729 -3.494405592800738 -4.36940437520014
2809 0.39704790091717473 1.223193925643385 -3.090920904632868
2884 0.9834224543274124 0.6021427397420228 -0.8933666497401759
3172 2.379830534850067 2.8018688618928698 1.2099779051209048
3853 -2.378008339262231 0.8476118264913155 1.2858342867696433
3460 -0.7988507398106115 -0.9243107899503122 -3.716811321070451
3748 4.944531852974815 -1.1788034829238465 -2.576241624353961
3170 -1.526133310426049 -3.07910224006499 -0.14438715438764774
3605 -0.39524086284366705 0.8861392178808426 1.3268180799788911
2595 1.2155958610479618 -2.5670569742658635 -2.366264386707198
2883 -2.418980081445227 -2.742179100874937 -3.826310005569646
3171 -3.18884927851971 1.686856819318511 -2.460741418024292
3208 1.2909213349344073 2.96499695991033 -2.184153304075193
3459 -0.6157293255598401 -0.3169686149467511 -2.203697032990517
3496 0.4802585931683603 0.9198897468242504 -0.1386691362332747
3747 0.8909734021701678 1.2993712679814897 2.196470501308326
2920 1.1756526867352215 -0.7111125501710867 1.0309205230318268
2631 -3.941891387968314 2.7296376491022842 5.403045816203559
2919 1.2883186145067493 -0.8367564465319034 2.5695800762718504
3207 1.1725123313948551 -0.8581051980795703 0.56055563144967
3205 1.8893440704346218 -1.1696989230075263 -0.0027376364953909035
3495 -0.4121462161619881 -0.3888959451438042 -0.28957916819646196
3784 -1.6651226240522556 4.73132420414006 -0.25918724968479706
3783 1.1779223598786241 1.7098339499830724 -2.282002677525003
3242 2.4545057033989197 -4.079417556611794 -2.1323938431052847
3749 -2.6969864882164143 1.8025320873877413 0.5896939856349442
3859 1.9470445607402733 3.2419834409376835 0.34353847820580957
73 -1.8030096991855686 1.813423108915651 -0.6560016684095252
2956 -0.654202176905049 0.8438777289289221 -1.9027335469055953
3244 0.9828237339484314 -0.43120305810672266 0.33736252696704366
3571 -2.1276180838029632 -0.4731518870140213 -4.610451744946837
3570 1.8840170742249571 7.0366798725971105 -0.5324749925303635
3532 2.011325036299753 2.6207884049850936 -6.368244059441926
2954 -1.7381884954379263 3.9775501560108473 -0.8732499567860611
3820 0.7265173764082032 -0.8617098084052897 0.8513018358233652
2667 -3.4664325760867616 0.06975741417694503 1.3872251606741945
2955 3.4419132395181498 -0.5060999789298123 0.6648178651644587
2992 2.302347870216565 1.8274892390746533 0.11315149787743815
3818 2.453265436059412 -0.5725138259380764 -0.32811484548696884
3243 -4.629916148635022 -0.034934185493926295 -1.5778708567093012
3280 -5.072789201641349 1.9538382695305534 -2.7735973266662994
3531 0.5086005204478774 -1.0020869886279558 -3.3773774317827554
3568 4.108307707183785 -2.266545562018211 -1.37186988140509
3893 2.048646003897918 2.9472910575918436 -0.03382988995685436
3819 -1.0862893730114362 -0.6530441546591065 1.0779271037784859
3856 4.73172855197326 -2.908854907799198 -4.866098330814683
2995 -2.062713792390695 -0.457443505795675 1.3284180601716966
2703 -0.6606461516090776 1.9537003016808734 5.696214786275245
2991 2.0232935331574877 -0.7665435962090701 0.5542303743294886
3566 0.37217645223304063 -0.12698846072428288 0.4072233707308244
3279 -3.186502289939442 0.32567752076834783 -0.15162282171937908
3567 0.44946977418684997 1.360783296289933 -0.32957772281036135
3855 -0.533282370759955 1.914012215529533 3.008829219140683
2598 -0.29740402078524664 -3.150223894733429 -3.1482548181660133
2888 1.5310202390065701 -3.379436641521952 -1.8893549619189418
2886 -0.6351179185842982 -3.0761417347380404 -2.6612391136913183
3277 -0.2683785628809529 -0.23934601330922603 1.773639157677594
3174 -5.851523161678161 -2.4353529660186206 3.5188499982571795
3176 0.9571894810474405 -0.0051609596244631606 -0.03206047221278545
2990 -0.1944769763161803 -3.1007986898501447 1.0609032139604555
3462 -2.805584684472176 -1.5551609589350728 -0.3942948612950607
3464 1.364257575792447 0.6601057732899126 1.9121992257084357
44 2.3240530933591566 -0.7689567246238117 -0.620878603048527
3750 1.6903405287745885 1.7887940903548094 -1.9963495957160649
3752 2.3698557289921047 6.471877491204636 -1.5546463700414375
2599 -3.9106836042521578 3.6429830804819168 3.1700727439744836
2921 -1.1981877339348876 1.6179194604388514 3.561320264779156
2887 -1.3684262811581303 1.6665453888318902 5.471915782313476
3175 -0.9706911741169828 3.651782778050323 2.968309792084612
3209 -1.864243046174707 -3.410958405149737 2.0462977154583344
3212 -0.2842267767895865 0.4228249289379353 -3.003816710803326
3463 5.766404226883447 -3.7970793844809085 -6.5330764090808335
3497 -0.4286541733864493 2.2384002547644752 3.7949419692264716
3173 3.1544408743995818 1.6597918268136607 4.018556539601433
3860 0.347166704018582 4.044974600157263 -1.5818207767815922
3751 -0.43338784045160733 -1.1222084729976476 1.871480403648209
3785 0.68770064848201 2.991680010742325 1.650446352987872
2924 -4.5825166228826495 0.8091476801291284 1.7115998600008155
2634 -1.966476369463082 -3.046671263043416 -2.786240707940983
2635 0.9633206235808329 0.887876160540166 1.6078622231341824
2923 -2.40097337644391 2.1948944096390237 1.4143558009913657
2922 -1.6812761963986125 -5.559502982267149 -0.12807652347169393
2957 1.9854971512133541 -2.5180411922364487 1.6526027955009368
3210 -2.5107826035430456 -1.113198720489078 -2.6910012093834084
3211 -3.121862191311864 0.6067205607929299 2.681483061601639
3245 1.6919025473747873 3.6894890158117875 0.32897862460898186
3500 -1.089730011869568 1.8259190374686909 -0.6768753927984664
3498 2.2585688889441937 0.8690317302883992 -1.2724895482065857
3499 0.7684995401105894 -0.557865887399331 0.7986165637605528
3788 0.7122465892428334 -2.7444231424004775 0.7046949880141681
3786 -0.4869957968482414 -2.4533774310451326 5.200237432522992
3787 1.1807137751171894 -2.8580801825408 -1.8784652774733166
2670 3.444229679950895 -0.9345513741677733 0.0342442367880113
2960 1.896266988430569 -2.564992135292101 -2.1984300521152167
2958 -3.58818528375647 -2.3124289567099354 -3.2303554756596013
3246 -1.1061538750862763 1.9255653556900758 -0.20742021272446284
3248 2.1397638042259226 2.306594885906267 -2.8304035945237476
3533 -0.6054399377972657 1.5130186986708594 3.8310048582186274
3534 -3.296709414404321 -0.2100950835390088 1.3440614620638534
3536 -1.6745174882682188 1.7963988880931112 0.934010939006032
3858 -3.1744466134876888 5.156502089500432 -0.7283104910417635
3821 -0.9513672202909821 -1.3397149413357818 -3.1600089229883808
3822 -2.0886240635892133 3.094277356180646 -2.4664793413991237
3824 -3.187723291945174 5.7845601839072724 1.2974488035446747
2671 -1.7652195621485216 1.8398265026016536 -3.45282968284086
2993 1.1585883509454478 -2.584652946812664 -1.4976204089242329
3284 0.5983196082404054 0.3458007467793722 -2.096908822497404
2959 -0.1402299866596019 -1.5012661795854758 1.2848025907678093
3247 0.7220481215086713 -2.6807081671291497 -3.4319808250849038
3281 -2.450531629536295 -3.549071887220013 3.867734483851152
3572 -0.34790578121625465 2.3373191034563727 -2.8773943327419254
3569 -3.3082310691287184 -2.241220840431786 3.358986134858493
3535 1.1126946530202806 3.7084457165718434 2.870387513642214
3857 -1.0658571859248405 2.2419568129372607 -0.7042734271627521
3823 -3.1821752167170643 0.5551692266282693 0.27847356322259303
3283 -1.853965164654065 3.0665306759017303 -2.3581837949463984
2706 -3.290306315000544 8.35691848829783 -2.1024395159556524
2994 2.8233403077280417 0.535334244269694 -1.5695277023843814
2707 -1.608872552947841 -1.2398365505258024 -2.1074012953762296
2996 0.6418787926854087 0.16569510679303376 0.22158699395985867
2989 -0.03078192035123984 3.413894705065833 -1.827971423410166
3282 2.0467625679364594 2.941249543931627 0.014685041458000236
3565 4.588295598533138 1.0214435329422014 -2.388309738932519
3278 -1.8603443543400187 -1.2152771631687893 -0.23012411045901537
3461 -1.577462768473492 -1.8442624712821856 3.71668063782192
4 0.6279421500181014 -2.799528427658752 0.9901903166042708
109 -1.0203299337983596 0.04479076675519682 -2.873398389897111
3529 -2.2870888370863627 0.20085985794550856 0.38502668536001583
3025 -0.39944612251412404 0.5974338653476459 -2.002093678468591
2702 1.2079418337771286 3.974785387000545 -0.8579364666313003
3817 -0.35703860887836897 1.635105356974451 1.1125379905074246
3241 3.286029771859758 -8.582760659509397 -4.074285208167887
3854 0.12603705205250584 -0.17654811562008346 1.6025075799412154
3746 -0.46368723385887217 5.4933014729418765 1.008283584438953
2917 -1.7936180900885166 2.520340627524859 -1.2748871477422719
2882 -1.3431960907612963 -1.0980286293936639 5.663534311078104
3494 1.5405653778816863 -0.6541966395643052 6.158576551243941
2953 -1.5569349614505545 -1.0374052195213428 1.1681353561958285
2918 -1.5007565726442087 -0.5561934161277969 3.6460653763314625
2602 -0.40543551162727615 -5.535969599040687 -4.619474568425287
2892 1.5404325991929195 -1.958787353091942 -2.533736021156184
2890 0.21172225651640952 -1.4748086523025496 -1.3172853623117926
3867 5.030553334418737 -1.6085336864780524 -0.07189787144179004
3178 -0.9616212628824254 6.054983708266561 2.350183124542232
3180 -1.2014772459030176 1.6579160273451545 -2.0738832695083276
12 0.5205443965990333 -5.995633191004315 -0.6310140144164601
3466 2.471820532791782 1.098304929731962 1.8672956190604237
3468 3.0126753678214055 1.564802785791556 0.16166657149425842
49 1.2742437588908777 -2.4263869151998265 1.377240905821934
3754 -0.029020796343970576 -2.587764558702868 0.8732388357562513
3756 1.5124804811030863 0.041684421692386966 0.09028416835786936
3578 3.4474135668887156 -5.468171112761765 -1.7910596757900556
2603 -0.9487195268282245 -0.3430614636640586 -0.9155983541894375
2925 -0.22279702601681753 -1.087895349943351 -0.05256143675888571
2891 -1.280011888265327 6.460613158378764 1.3901028637197332
3179 1.3143378991196313 2.2743196413863407 1.3524779374443179
3213 2.1593847993686777 4.020982912667302 -1.9202423131071782
3467 3.622824928877056 3.0619411181417964 -0.06676358618593702
3501 1.7024118103901313 1.0751224038579659 -3.7483538435659125
3753 -2.864858878181885 0.20526855029337288 0.002381362008983841
3755 -2.8284527007028317 0.7530768486915546 0.09363629324207982
3789 3.402192029873398 -0.32145721076479644 5.319788329756533
3792 -1.0142825972028042 -0.5906791916279065 -0.9424472928633276
2928 0.5943348489381141 1.6797988531580332 3.1743400613084223
2638 -0.02780826375102502 1.667912075156441 0.08998755966264999
2639 -0.749138995453155 -1.8024170864730131 -2.7943960449798015
2927 -3.267953224852288 -1.2143384016173064 4.286733092128342
2926 0.5523740985750757 1.3917769554339878 -2.6425891773109194
3216 1.941697684265724 -1.6440250172813193 -3.8634915159306877
3214 -2.5162133888301232 0.4926188415462183 -2.9262224191783175
3215 -0.5780316979653173 -1.6516030209084525 -0.9228009998631461
3504 0.8227597826587858 1.556940167666086 -3.2765798757982223
3502 0.6278880388990591 -1.8957662356657892 -2.2215612373624194
3503 0.553604818841825 4.6096778768606965 3.0873504951587587
3537 2.802247892232348 -5.912793061563327 -0.43318204836603064
3790 -1.2957120148600632 -3.762497101662445 -2.284547113812753
3791 -1.9925010383794164 0.9396555175142987 -0.036786026880440886
2961 2.339732216921628 -2.106339213950128 1.4941395841188767
2674 3.2322084149110983 -1.3076301782969397 -0.7853592375530432
2964 -3.116856929521428 -2.9917457791195465 2.3123951474520834
2962 0.716445172366228 -3.9808634317909517 -3.156396966138031
3249 -1.2923701294348153 0.5888273484703311 1.144388131635443
3250 -3.2490528178599725 -1.1830452860809375 -2.619020880445048
3252 -0.2089078318639247 -0.5853900399323064 0.6558935631282967
3538 0.7985781341187036 1.2548329230967983 1.0873224522816856
3540 -3.3429093610786658 2.5635761597582274 0.45999103165967997
3825 1.5661314044963681 -2.7096511303695747 -3.2511871716042307
3826 -0.17265904199534834 -0.4562336093454036 -0.26231306718366537
3828 0.7178829085476853 1.0520164603594906 1.5022948469574915
2675 -0.009391724863009675 0.38810734907230815 2.91272942819663
2997 -0.7509055372726784 0.3398727970826626 -2.5547794358768843
3000 -2.7740877896136547 6.794405186931991 -0.23230048307438605
2963 5.901042962061961 0.22642558200301668 -0.5665651372501285
3251 2.0609136316917698 -0.22512111379544122 1.696447267294231
3285 0.17137107884373193 0.11897050032027787 3.007122307696257
3539 -2.4050323034188246 0.0840205650470822 2.3589433715227406
3573 -3.4740844493444367 2.2142764839729074 7.0132612315875225
3576 0.5487378201812813 -0.7112460132909209 2.617960841684386
3868 -3.486260063572508 2.0796585515712382 3.107283096033622
3827 -2.844484823068953 0.8571142213364537 -1.3216081718859152
3861 -3.601740062214618 1.4541370201165833 0.12936038264035613
3864 0.7701607698640065 4.1962657650656165 -0.7760999166206572
124 -0.13783116906332277 0.7348050768871818 0.26934058401964267
2710 1.8449261775426826 -2.008858619116914 -2.131900262075387
2711 -1.2770906837613718 0.4901782470565865 -1.6982915489786845
3288 -2.118778109001543 6.329776819209874 0.6316796189815428
2998 0.07871011865040879 1.4957834818551574 -3.721143708851121
2999 3.129184431054039 3.7843195515440247 -0.01841383663614407
3286 -0.30735982263089107 -0.43048439731355387 -2.1942385766726544
3287 -4.006015131644003 0.4893349297127816 0.9901794355969573
3579 -1.047558245225647 -0.01780711185005239 -0.8242416572551314
3574 -2.5395737402481426 -2.5305166659322955 0.7667957362309213
3575 3.0902324832377865 -0.32551157155011484 1.0634891866473377
3291 0.7422515080396079 2.037690702031235 5.335620903089043
3862 2.3370047828008635 0.23769216617531988 1.0660576015862713
3863 0.7569853510870947 0.005942716581042763 0.5284925241433988
52 0.9222124357075746 -4.338992593910699 0.24389174366757194
2606 2.0676373391664336 -2.033621472226624 -2.9373116069605363
2896 0.35111278540187846 1.5978966729028923 0.9306205137511211
2894 0.18353755110112532 -1.765799035217925 -0.7447324675119463
3182 -2.1617600293057744 -0.5478876567391097 3.1863395251393305
3184 -0.8443214190897887 -0.6665828804028565 -2.853015783040373
3470 1.2036855624609781 -0.050751680124536555 5.2365779343409065
3472 3.5404970941151928 -1.8579275661265646 -0.7221636480204745
84 4.024481322863888 1.858107602050181 -3.2076906707932973
3758 -2.6924563472205127 0.413514566716125 4.369189105997316
3760 -1.4489346553494855 -1.1111569795492866 -3.472159670456011
121 3.2693939383557047 2.582947228521636 1.512776664237426
2607 -2.006131174619036 -4.360689480006927 -2.5767274966534996
2929 1.153847489043843 1.3870176636031182 1.0528036343659606
2932 -1.8266417668824682 2.938230008022623 -2.0722333501951704
2895 1.9727524520184652 -0.09272333602982147 -0.31718006901563306
3183 1.93111407972753 5.258595259464603 1.81432224699548
3217 -0.41090431710532793 1.5303240891883925 -0.23532548943763423
3220 4.853500339505686 -0.9527450510436719 -2.4746022735006634
3471 -2.552710664124421 3.4716888748590065 -0.43801546561079063
3505 2.0461368492578975 2.8715239755464723 -0.3520662544825121
3759 2.208601964526553 -1.5790563211650381 1.0662135854537331
3793 -1.4163615007895491 0.2851053968160744 -0.23873845450596434
2642 -0.6028471385300123 -2.7874576728168514 -0.6384438133723598
2643 2.007774411227371 -2.7652219028967635 1.6026651057192494
2931 1.314860681075439 0.8870607313258071 1.387899597158364
2930 1.6276735208840847 -0.8939471799096753 2.525461058020809
3218 -0.9608714646065751 -2.483139030453184 -0.9009954216236757
3219 -0.25035019915575846 -0.15089717485842494 -2.7500602030780756
3508 2.3095944055855915 0.7110259019601142 0.2895918156291216
3506 2.76978223252594 1.3067796092270183 2.338235233338595
3507 -1.0599925024830303 -0.12197933156321034 0.4287493588604243
3541 -0.47371302394803566 2.6664961126309006 -1.8159347224498081
3796 2.549942634971516 3.2575469522611944 1.6242841205828125
3794 -1.5782145346178784 2.3907323116469112 -0.6180811058783293
3795 -1.0609399086545077 4.225157612015515 3.587326381240905
2965 -0.8914995348323878 1.5415423066933096 1.5026845903640402
2678 4.861508801675889 1.6343009152027355 -4.134220171916783
2968 0.6828746179790941 -1.5558260729582765 1.3257291990025502
3253 -2.135178888421951 5.294830741797715 -2.1154204036130655
2966 -4.383484090826774 3.335787701020396 -3.166089794650481
3254 0.04472973626124262 -0.0814358315358335 -1.2519595838194582
3256 -0.8891584323556179 -0.15659883697495522 0.1095475975643993
3542 4.7717552697163645 -1.030746078681384 1.552306521461539
3544 -0.7152374477445986 2.221361801605853 0.02160750780695946
3829 -0.1991192578047504 -2.2980677097948248 -0.6224719719604571
3830 -0.6462862163362424 -1.3980882821563914 0.9039305882884315
3832 0.16015444052505304 2.4538611053768435 -0.2444096429182522
2679 -1.8369017941844075 0.6013853998377056 -3.216034270522301
3001 -3.2554909054539847 4.764427455763482 -0.5213826248934199
3004 -0.2900712827146129 -1.5579511874999687 1.1761025416155595
2967 -0.7944942209445296 -1.2616453056832055 -2.4055391504849317
3255 -6.977866371387963 -0.10363876108698865 -3.7235917689987357
3289 2.284310593288746 3.781370103404331 -1.9140566576213252
3292 -1.9527885237827094 -1.0102929843792192 2.676231506359871
3543 -2.796409823203386 -3.8904484240472947 2.6862034485952986
3577 -0.7118596034475835 -1.7984329953423552 0.634010634729134
3580 3.867376536390968 4.9489133017991485 3.9563308284863083
3831 1.1328168686110782 -0.29510733892679586 2.24346178938522
3865 -0.14325010135411798 0.11244697612065513 -2.0800329625821923
3866 -0.41939500642876737 -2.3887792928729694 3.546905127829679
2714 0.6667175727872924 -3.930950488576378 -2.197758267255721
2715 -0.5217294160792036 -0.30735147816227015 -3.592756503549017
3003 0.12114716696892738 -0.6324127264516092 -0.6347684077383046
3290 -1.0558628109509876 1.708925105432039 -2.448931358826982
3002 -0.35030837809038806 0.02082838499918949 -0.9534493974257725
3757 -1.705496726153725 -0.29875350293487896 -3.459527820664635
2889 1.7392102772666145 0.12297013413508577 -4.022460942611632
45 -2.3805699111127696 1.6729575901547877 -3.5951902920528793
3465 0.4431617376382309 -3.0506481118861326 3.0837686912804894
16 -2.506314901040466 2.6122953189157707 2.014980306619986
48 0.043617046314806104 2.1483714148791764 -0.47708229042412204
153 -3.385534318730013 1.8290739087831518 3.4713788918883326
13 1.2559777415360585 1.4603699222084974 1.5477588489527327
2610 -1.2661227109649094 -1.2883465328979784 2.856600210153467
2900 1.2720804500194138 1.2789426891718698 -3.1336119037791943
3874 -0.01417321443296062 -1.8145051778005474 0.41843702920940545
2898 -0.7410118275282671 -7.295293491417728 0.06830492641409579
3186 -0.3542796729448961 -3.0057747333144467 0.12047553870006786
3474 2.0381395871204537 -2.0696515684036334 0.03382590348227245
3476 0.17966177716351422 -2.54280850026424 2.043093681320157
3762 -4.390883316092543 0.24040527073877596 -4.250708311033723
3583 0.13408828896620767 -1.0545507475358529 2.9294288822199386
3764 -0.403822392733081 -3.582550055062406 0.9280204357168103
2933 2.3290065738011094 -1.5785405258036254 -1.0697131610205912
2936 0.9021626775215078 1.364369578158807 -5.33705050053373
2899 5.000312012740195 1.043506329082631 -0.8076820439694921
3221 -0.4313503036162943 -0.10011284566949182 -3.6704353790943895
3187 -3.06322654480147 -1.5492495066345227 2.71841979932303
3224 1.7283105461285417 -3.417032132956315 -3.2265955245488303
3509 1.445752378722935 -1.606911878438545 -1.6692188048255183
3475 -4.910300602587535 -1.1620114153076226 -0.1539721513272623
3797 -1.2144296205938283 0.08186861418119051 -1.6583529005820385
3763 -0.5487894048070979 2.935543017718972 3.5982056163180314
2646 -1.8624957041112606 1.4829222638860744 -3.764583525636393
2934 -0.31571686285784295 -0.4479185756941061 -0.8174471651923482
2647 -1.455785520935468 0.52067358537915 -2.6373473399300873
3222 -1.2963916084084908 2.2655347039449105 0.831757990648224
3223 1.1250776857233422 2.191753807381107 0.5586763273762532
2935 -1.3916461296862268 0.18404691773524057 -1.584380857010746
3510 0.46881840026316507 -1.25363911088372 -1.4306364887109668
3545 -5.130051933285 2.1696932993202243 0.5357235968094605
3798 -3.4527683556426925 -3.3545688695491664 -2.0024385279137666
3799 1.5296068723406726 -0.3293608660014656 -0.3016568896913096
2969 -5.13259068616271 -0.9287165325674185 -0.7679292410422179
2682 1.3973136663751669 1.3184265569792757 -3.842822159724816
2972 0.8293145900010079 3.6165772284153497 0.005704363057484617
3257 -0.34524525243373144 -0.08765405109289322 -0.3956714445511094
2970 2.457526217618675 3.146366223833619 1.7359462445557023
3258 2.898331501681078 -0.0778691170146969 0.5673214352889429
3546 -1.832633903231037 -0.5931309308328357 -0.5142980098398952
3833 -1.5845847205201562 1.1070352498455671 -2.8671881099518632
3834 2.1377143102169422 0.551906412129023 -0.29852978056028184
3836 0.3990065148446191 -1.499483137129521 -2.329116357807068
3005 -3.715261964411238 -1.2468315638600715 -1.6826503002261386
2683 0.040957716481484406 -0.8048988931935458 3.3210578673586095
3293 1.9342572375211815 -0.6556046675847828 1.8344938560895279
3296 4.6690370092487425 -0.7171772434424386 0.8302332868318626
3259 -1.9699786205655732 -2.770618378236049 -1.9578300554428636
3581 -1.1275607109743293 4.464562949742928 -4.830499623335672
3547 -2.5093943103835854 2.2633599452923203 1.3161075304562577
3869 -0.8019756430030868 0.10489353662183755 -2.0411981022342576
3905 -1.6195098752392114 1.9772305255396294 -1.0396897125817313
3835 0.5991658485846626 -0.8676320800055228 -1.264497999794892
2718 0.23891726684622794 1.0347099563959132 1.8399345883420755
2719 -1.3088855506443082 -3.4550598658499156 1.8204260045504101
3006 -2.1486316318077607 -2.5488412099058078 -0.2302494468323
3294 -0.9793662185653706 -1.2991623341839282 -1.4168067570885672
3295 -2.9197760001799864 -2.2968727770125215 2.9319088582940087
3582 -1.0272197497971245 1.456609628113641 0.30520975987719196
3871 -6.567371450123226 -3.0636887238581965 -0.6183086394457248
3870 8.776585504909148 -1.54436483894686 -8.39143093414742
2614 5.159678912311369 0.583379735242231 -4.326472832559176
3188 4.070514062954012 -1.9308106955585616 -1.1538849845487593
2902 0.5915288008987214 -0.18928131263943326 -0.24322138102428206
3190 1.2227637091640946 0.04256647756285751 -1.9206974060934126
3478 0.5079277527591486 1.647562848651434 -1.8302450534477919
3766 -2.359201512378558 -0.8962581826627996 1.6630785569091275
3765 1.4142901403541281 -0.4701154867739618 -4.184870282899755
2611 3.899686169753038 1.8825176104943302 0.585944461915517
2937 -1.8223961192844271 2.060700143534938 -0.8656187337850288
3225 -2.256840757514095 -1.6163677688588862 -2.465375674532687
3512 -1.4449191449188343 -2.1044138166305673 -1.118162938544098
3513 -4.798644461749678 -1.7904506339390371 -0.6410123552795676
3801 1.0389597565927042 -0.9015654723842217 0.9568962982417922
2650 -3.3404452957059996 -1.2319217706315468 5.019764004055854
2938 -1.5603949790293572 -3.8033546962138596 -0.936756029583448
3226 0.1289177356395263 -3.7664836631211775 0.7255179101184667
3511 -0.9470423804043042 -1.4236630171034106 -4.75590048757622
3514 -1.1538497790424889 0.6331168891149216 -2.527718212076784
3549 -1.3363738293151524 -2.590370712958288 1.3701446129199466
3800 -2.4101580669977785 1.975752501827314 2.0342017657403932
3802 -3.726481937879193 -1.8881384045925642 4.2929657768762475
3837 -1.6483231117015595 0.5163782776417501 -1.4814745136874257
2973 -0.7621770073564955 0.4152499522311894 -1.7834200151549058
2686 2.9832011468759476 -3.4541353322727044 4.402905488038474
2974 0.47792790544811103 7.392484736767695 0.8226563810570309
3261 1.847510245868546 -2.179352340606039 2.36102893191605
3260 -3.102172116315852 1.6067416788402413 1.006392929501095
3262 0.11058116474058731 0.06313472916624538 -0.48519056376813285
3548 -2.453927485694906 -0.5329712434928493 -2.1354701254920667
3550 -0.3356678680870271 0.3288709714519524 2.8460372438396293
3838 -0.5928491424090301 -2.9832415988260057 -0.9610897212544532
3008 3.679618474820496 0.12429285655531551 0.5188297356369534
3009 0.6863209736656077 1.4403251595325606 -1.347234273562937
2971 0.8679609656045285 2.5585191339444235 -0.8706346658725335
3297 -2.1471390203544862 -0.053574189030874936 0.1553510008776562
3584 -0.2959541626495989 0.20347278490956164 -3.109743268710705
3585 -3.822809546351491 6.141355924712337 2.410492466998894
3872 3.45644229114799 -2.5849316343119386 -1.558073878854985
3586 -0.9738011580363497 -0.3236429757042027 -0.6981118316236932
3873 0.5459218736310513 -3.40338824849519 6.031013432594721
3298 -1.212337119543162 2.6848674909808694 -2.0473603794888118
2722 0.8843814100515832 1.1105817843601644 0.27740211036639395
3007 -2.816604058117427 0.23074879805088835 2.5813945723455562
3010 -5.273772102799926 1.1383585310297057 -2.2980659094382885
161 -1.9571137488840873 -0.16894928909071455 -0.1972461975965548
129 2.2460879057066507 1.2874347240859059 0.3254881200706468
56 0.5760805119003577 -2.2319480351680223 2.4485432988519813
125 4.567001353076353 5.299725815120833 -0.1547428127588269
53 -0.7869948392935228 0.7950473536876159 0.5847428989041359
3621 3.381879736346946 -3.4257214839041463 3.0428029507472707
2618 -4.74452435521395 1.2060089812337538 3.5999735311302272
2904 3.223609812811308 1.8090381583362056 2.0557121030724517
2906 1.4801928168606846 2.4972436742855595 1.012232489403387
3192 -1.8451958079854953 0.784741500869256 -3.6231811151318016
3194 3.0656166738171153 -1.6571297076192437 2.6675046844149155
3480 0.7118867522962641 -0.3790821458061652 0.8595095255197962
3482 -3.816707988498437 -1.240959447306464 0.6492035974356153
3768 0.04697677542707882 -1.5915566647885087 3.058695568787611
3770 -0.6660253592666668 -5.150055933006707 -3.2818695327380314
3049 -0.2707403327939678 1.3244143545703426 -0.2149819267490268
2615 0.5538841472012057 1.708720854430035 0.5384142050977678
2941 -2.5928567889263805 2.5619506769006026 4.629600350625126
2940 -2.251338933387904 -0.924024851059145 3.1427394341277126
2903 1.6035693141555136 -0.9886882717616524 -0.11295491739495571
3191 1.4213117514289983 -1.9592849423624465 -0.06725042884525557
3229 2.3195589046884013 2.2810224687308844 -2.7328756088770914
3479 1.1917540835755265 1.2509215899721533 2.235321351480076
3517 -1.0250337207802218 -0.311463175438796 1.6521316674431388
3516 -1.1375389490300976 -0.8744239333019876 3.4096714900177125
3767 2.48024128752172 2.9687102245845707 2.742975255531131
3805 -3.966198488351608 0.7978676830531033 -1.6800970754416662
64 4.246867617561688 -3.3735652504580966 1.339734576482309
2654 1.036547163815115 5.726703108360245 -0.652649422862013
2651 -1.851752277901512 1.7547692057178197 0.46929404693322974
2977 0.59863875201033 -0.7807979933238584 1.0118010572080465
3228 -1.9017489912357108 -1.315384704744864 -5.639322607139278
2942 -2.3330328177809574 -3.270680997841849 -1.674204424941898
3230 2.19244788834823 -1.4972672226863055 -1.1399877332986832
2939 -1.6154852812790463 -0.9520848556754848 0.34628922133473894
3227 1.0458928677732178 -3.282626530000578 2.6574676903648573
3518 1.839764717164855 3.5731506934751227 -1.439041321543593
3515 -6.899061006812395 0.5025411729100587 -1.5421713059290363
3804 0.7388998621048187 0.23895306667810493 0.7869962657685475
3806 -2.445923548432705 -0.6014525309879521 3.797593647352874
3803 -1.783812445383907 1.3084201579818224 -0.5744986807503388
96 -2.5998740822643693 -0.13780789256134252 0.9414030109960807
61 -0.1678612404370214 1.581544993450491 -4.971436271856716
2690 -1.2536349563808706 1.448322189159565 0.21344899410928564
2976 -1.0114249931385821 1.6565398587424616 0.9269432868436499
3265 -4.2371800589904325 0.8531639896837434 -7.444154273987884
2978 5.329297095757694 2.1707163379967342 -1.4881064045136503
3264 0.3033679956406785 -0.8493821983268639 0.24314432413048442
3266 -2.608076129154011 6.401466322549651 0.3436314014910445
3553 -3.6481951499270386 2.9522256560166156 0.8728169271715343
3552 -0.6495006956254612 -0.3177009916871273 -4.620302007605134
3554 -0.8317508426089524 -0.11891973611662034 2.1835074217560666
24 0.11316966950424638 1.8714864274298246 6.231483143755681
3841 -0.32553305364655777 -5.401191693514805 0.6558732325109806
3840 4.479588551626292 -0.2102125630105724 -1.87118276735119
3842 -1.0164519086030133 -3.6792556471908338 2.6427731595314508
2687 -0.7939645410996459 -0.7141286682495579 -2.35149961299415
3013 0.4509807412946553 -1.4916289697418978 3.3461139625102603
3012 2.261204374254605 3.55249113199432 1.4924506280536898
2975 3.3019808263283634 3.8901479830888364 -2.1791962373808484
3263 -0.6748527194874732 -2.470601273692439 -5.085553678095179
3301 2.3948853250538273 -0.9893456181311346 -0.17015679381934154
3300 -1.1648138303450848 2.3026177244452093 0.7056198989366683
3551 0.875407333833947 1.7597914610174712 -0.21376309212458883
3589 0.7359284926992111 0.7889140205329689 -1.3058303963235165
3588 5.024206155896314 -0.26047060630174423 0.6496470730248083
3839 2.3731372136407956 -3.6543272720767277 0.6943121291589683
3877 1.857491048140275 1.1792831264282235 2.1723051221043463
3625 2.445291138831114 -2.0053456360377857 -1.7905420331744077
133 0.22595649415173943 -1.274861977594265 0.5858488390100249
2723 1.1653958725918785 -1.2280650430813767 -3.2709344687212623
2726 4.417881205032246 -0.7543001254940238 -1.3277076377542116
3011 2.055199261636682 -3.10532328849027 0.5184707869642825
3014 -1.260489359498196 -0.02204024413607879 -1.0154901313310978
3880 -1.0293613333769298 2.51077047443977 1.0447498288695003
3299 -1.1185462706011766 1.2679737953738115 -0.37233331725711105
3302 -0.5835531481997133 2.8707994929669156 1.5136358179257707
3594 -1.0871945159009138 3.8157392052648884 2.9316260071258946
3587 -0.20407338415535076 3.4354511934117182 -2.2413486622912244
3590 -1.9954562810518672 0.7677892930812474 -2.5947735820666824
3876 -4.661907343464093 5.274899775975369 1.6658502788026026
3875 -2.0128718308230917 -4.497186139136123 2.0256122551934044
3878 -0.7074064699168623 -1.210486559086497 -3.750123952409241
2622 3.6315792141339673 -1.7378879832007064 0.11510433151205919
2908 -1.4002251861307318 3.4138763734503192 2.7095362116312267
2910 4.107466699770107 0.10201433875788157 -2.0168697292654834
3196 -0.8056171124978748 -0.11074141881342942 -0.024438529304124046
3198 2.960612667161329 1.9253439672136956 2.556413873399156
3484 -1.946570203569337 -0.32822001919423716 0.43310244539211695
3486 -0.2973955741542077 0.4308569472008779 1.0772454449492253
3772 5.280092184930041 -5.228671620579009 7.124222734785237
3774 -1.0022634929522591 1.2928727328031053 -3.1260027411640117
3917 3.028662086660122 0.6684892031172448 1.1353538398818068
3879 -1.6005442822053144 -2.911721743126805 2.5572496148835246
2619 3.837240235412343 -1.496845768586182 1.660318539556418
2945 0.6614085837268778 2.344039205319138 0.46322726833906935
2907 1.9489749786172106 0.8726408458066098 -0.41539835077731696
2944 -0.8955008879869197 1.1446150951140885 1.5578678879370624
3195 -0.5537347668425548 1.1421450636475259 -2.8632836603519407
3233 -0.6281995547560473 -2.185900454665689 3.0944998523785983
3232 -1.900541650917938 -2.0184194908620356 0.23723356586676825
3483 -3.1149428520763762 -0.3571778883751084 1.021869826253927
3521 -1.8557702241647704 0.28079676494318495 -3.5734146629873815
3520 -0.10353465077560149 3.1293419650100582 -0.05935780024935167
3882 -1.4469964401491597 0.173149487910985 -1.7792299067657518
3771 -0.12455986974391645 -0.6852390699618152 0.9729107295026311
3809 -1.9224185034802543 -4.711055252557791 -2.721380197859032
3808 -1.4267758079448793 -2.7973019277773283 0.549357701856044
3591 -0.7802445839921974 1.1253109178411973 -1.9114126588518228
2658 1.6424217957358846 -2.161395039545058 9.22226969535746
2655 0.412356139064781 -4.030315681569758 -1.3905746583154308
2946 -0.3409696736337027 3.1135422411703737 -2.9226279848981136
3234 0.45368068159183755 -6.684560204133555 0.7123085886787659
2943 0.6242090894176227 1.1671477143501046 -2.4776515813135833
3231 -0.7893399070784435 1.6024872648387258 -0.21609965923922367
3269 -0.6721118035785468 -2.805226542143173 -0.4547109505806334
3522 0.17766211604093385 1.6279022361443898 -1.780144960563661
3519 -3.031389855652905 -1.2472188259432886 -2.579602067333113
3810 2.4287930314422734 -1.5308184155715225 5.055643140986551
3807 -1.826246108365558 5.7189256629106895 -0.9947945625186371
2981 0.8826143869060086 3.3916752610675664 -1.0870963019663058
2694 0.1483909180473738 -4.031804851784749 1.5382023793275834
2980 -1.0020125674550158 -5.538239845446375 2.6773136682960708
2982 -2.1551753185462785 0.01358035167053106 -3.6078740403326863
3268 2.8917353185178576 -0.23283947430890334 -3.2386995296622136
3270 3.403926446062548 -4.6517108885966385 -2.554112021754365
3557 2.8524197787054324 -4.963278287146767 3.8613756103504766
3556 0.47214820329656504 4.240188782763915 -4.457041879168544
3558 0.24854813381108054 -1.9563951917389681 -1.763278027452561
3845 -3.3216442723696074 -0.43362621252232575 -5.044008870378882
3844 -2.321042012270611 2.750000569131013 -1.5976017912759457
3846 3.321408691616421 -0.9864724238825642 -1.947636528102964
3015 1.6401148366418414 -2.6889545735816767 2.699274973556505
2691 0.21975680878899445 2.809681663450246 -2.3018551080882212
3017 -0.0022693454582964068 -0.8473730742492693 6.590368055558591
2979 -2.207845472425736 0.21705282946739854 -1.8780599366059554
3016 0.8182845681681368 0.7263973101981944 0.775446092086388
3267 -3.21595904226782 -3.5620041039548003 2.109086994043855
3305 -0.07198099502819025 -0.8247313693968132 4.501961626989649
3304 -3.4057053199830185 -0.9432776636360057 -7.357201858822116
3592 -2.2780825029459657 0.26151427924526094 -1.0313798446819302
3555 5.770431008196879 -4.418344724884583 6.841451281333379
3593 -2.3883673148298277 -1.4248745044966846 -0.39346102885674844
3303 -0.780586878413712 5.1366939432914105 -0.9304974872781309
3843 1.6205227426185285 -0.7469000078009175 1.2265622286690097
3881 -2.0164297713115995 2.3706376961090734 2.2464795100698582
3306 0.6859133455828257 -1.9265509136006467 -0.9279214579061286
2730 -0.3599278978773894 0.8896151073903121 -0.31439284080299007
3018 -2.858414741438504 -2.261972795136245 -2.3785147707744847
2727 -1.7510926666461355 -0.5208436029338417 1.3190899596077905
65 -1.8433671812359531 -2.3869646938533355 -2.461442667431684
173 -2.263758956086226 -0.1958553394319279 0.8247617224671729
132 -2.6317981675762523 -1.1163851718958628 -2.29457206533094
28 -3.414137317301084 4.222052806717943 0.8634436178734082
60 -1.1126281731274337 1.0619728181164212 6.488988531291386
3337 2.1810944235362997 -3.510716449212371 -1.126234932432761
169 1.054196035116492 -2.470225834493428 -1.741661922733722
2626 -4.099099842545767 2.6841908320398757 1.3685990648446569
2912 0.3111570114612934 -2.3677343517527736 -0.2475426006186786
2914 -2.8643092575931512 -0.12756263974594387 3.2978276129781285
3200 -1.534625886717258 -3.5655646426903824 2.97923665129432
3202 1.840091392161451 0.8774368191977717 -2.810467955566653
3488 3.75434959499393 -4.6805232753837975 -1.7036954781727462
3490 -4.281438792901215 -2.9343966745697285 -0.6357506252784653
3633 0.3510947987950104 0.49129347843407917 -1.425277938064627
3776 2.8832676274879607 -1.6269932941540806 -0.4414708568044065
3778 -0.6836169948459586 0.19826156213846638 -0.1267926750090366
36 -2.339130734384639 -0.798255411863924 -2.706641104099615
2623 1.408894920254604 0.46066119800914573 -0.22220858970485644
2949 -4.652990313906251 0.12369810773339743 -1.0894094729208395
2948 -2.716866846277157 2.172657140051558 -2.104233869540788
2911 -4.485564876511037 2.5620313404612456 -0.016880016869572797
3199 -0.8828437456503387 -1.3388283016985922 -0.2855302520386732
3237 -1.6136808869384602 -3.5298385164096757 -1.7697081644092083
3236 3.1278447611240026 -0.5665426786809594 1.164170150350726
3487 -3.097770769929279 0.8646302989057192 -2.5275341877234934
3525 -2.7680172971481896 0.347950945521441 1.4631192723979092
3775 -2.3441343731631683 -3.79378739723635 -0.7855697271210834
3813 3.716518818601394 -0.535276568556295 -1.475685123769961
3812 -2.160113644479929 -2.8625490689336277 -1.7279726288992534
3493 -0.2708574894665614 -0.5460762841942088 5.001266097159709
2662 0.9398709088579138 -2.093167093758101 1.1661662423455699
2659 -0.7129776637537969 1.6802106584313172 1.4481570680909874
2950 0.895235612494309 2.022745332964118 -1.930187908972056
3238 -2.3350437837138287 0.6865092427206463 3.0714367946169343
2947 0.22516025005486884 -4.653655968810181 -4.764505010695305
3235 -0.5665048087796355 0.2853762782486799 -1.5163528250114426
3524 3.1155707977255673 -1.077908759417902 -1.3918644826057034
3526 0.2736453455900967 -6.09690014100815 -1.8760425971061783
3523 -0.2705919849184784 -2.3663973393671593 -0.1525446763627253
3814 1.5284281561609434 -1.2658946687411305 7.675033158630226
3811 -3.6933805278535057 2.9365251697984984 1.1793994799659255
2630 1.2612749409827124 -0.595439914710945 -0.29786519291540686
2985 0.24532169831182327 -1.548608559479449 -0.02321209560925472
2698 -1.4012715516080105 -0.3041303216408533 1.7454456093617683
2984 0.49737090657232125 -0.4126033905702544 -1.8108628122708024
3273 -0.807469567108453 -0.9587318539439366 2.4051293597030012
2986 2.665962082956026 -1.5463866134460083 -0.050842582567188876
3272 1.573329343375485 0.34142742341845245 -1.9224996707403936
3274 -3.422945093113364 3.311127019336082 0.4508367216821815
3561 0.8512493566183739 0.9890179341698989 3.8844621206303382
3560 -1.3229951784692267 1.551900726119371 6.291211773256468
3562 -0.2792511765381651 -5.81880238674198 -1.0647242221062194
3849 -4.307349725978208 -1.4408860919757376 0.12927043230057927
3848 0.551360593581166 -0.5709679405040282 -0.24506364835596586
3850 -1.360628089175342 -0.16817654220444145 4.290222846934048
3887 2.1692583451321625 -1.4591284349395415 -1.2957216780910712
2695 -1.3866537785559205 3.455234018592128 -2.1472733450235446
3021 2.400361775720871 1.352521497834997 -2.924787475086789
2983 1.8639010638816358 -1.857610976684429 0.21786748995494898
3020 0.043885094946445415 0.6893774281732128 0.4564488239118436
3271 -2.5431490002595716 -3.117199747946965 0.018076556557406205
3309 -1.7050394549830292 -2.026212185390517 -1.5613343751786672
3308 2.514130407477322 3.2523752408765 -1.6271624784809124
3559 -2.5048378759888865 -0.4037879375319961 -0.2892893275290818
3597 0.5698704574598933 1.4709355852740151 2.232659101143852
3847 4.313140039188303 1.006668128636121 4.3277792954518155
3885 -1.5306245241598293 -1.1477600824646734 -0.6590613307348037
3884 2.054013724840939 -0.7467369287855058 2.4424229992193114
2594 1.9934009635435443 0.6521021691608592 -0.9193523952224106
3530 3.0153520561641454 2.4237205141086466 4.458818537753367
2731 3.5149693446999235 -1.0485578440875005 2.104962468111355
2734 0.7266553490275716 -1.761803974676126 4.8592047952001645
3022 1.1856152297700011 0.6866941353570732 -0.44526248040829003
3019 -1.1217144826233458 -0.36725166035557244 2.2546086417973004
3307 4.129566970750896 4.202416003426458 2.1198275851839976
3310 -2.061786494946152 1.8507482519198144 -3.7747208667850702
3596 -2.798239314562872 1.436091173128924 1.2678855506905518
3595 -2.105661490664416 0.23366247469987997 0.21064707450601236
3598 1.6340420206637907 -0.9964722364595457 1.8436674254160412
3883 3.0729816227962004 -2.264854787854784 3.422180287356106
3886 1.3421677213372791 6.207652841707405 -0.9881612978592992
3201 0.5314500114770354 -1.567596357529961 0.7509145071275666
33 4.062947122009666 0.24085895465590107 0.6933256029342413
2916 -0.30785111601365867 0.5055529862891002 2.1954820333462735
140 0.12435433339884967 -3.927076077613572 1.9989345090195365
3563 -3.1071331656532357 -2.813795115569799 -1.025017900272269
3204 1.0848524694121264 -2.9185375041075337 1.7877451499982708
3492 2.951255887414048 0.02639519923428393 -1.7160593119399385
3888 2.1041094127518503 0.5241961491484689 -0.1580192758732378
3780 -0.058077089496550334 -3.6162027966489507 1.7094606659436986
108 2.743559303813432 -7.192726930181068 -1.8486086041781928
2627 2.457981858919817 -0.7158975484553592 0.16766362439804117
2952 1.4690227651234 1.2958062259923877 4.296418327588791
2915 -2.0594769016299748 -2.0425835027971133 5.613673619052275
3851 0.3221541597106604 1.2464700899829215 2.2701107553178264
3275 -0.9706492313061931 2.0526316704632452 0.3238093598054287
3203 -0.9187510660144608 -3.1175867566927016 5.064802911964992
3491 -3.3630738036949834 -0.8244796644875327 0.1553261028612111
3528 1.2879680822130803 2.3046802522566283 1.3603115432988127
3345 1.0757487544732631 -2.3734333605192353 3.004219110065607
3779 -4.025412679038362 -3.6265504333584815 1.999108500588584
3816 0.585206447303958 1.332116538336151 -2.177704831600645
3312 -6.465842245950365 -2.6385732796296946 2.3553463596535944
32 -1.8730640454200762 -3.9845830430062077 1.9268976785403118
2663 -0.0027557709425464995 0.08114175730662505 3.6373787696189486
2951 2.0862091949052233 0.14113427323157712 0.4652279390026894
3489 2.438055222404336 3.6922372110214017 -2.376258191351353
2987 -0.777346412122104 -0.08722672464830802 1.121290087240522
3240 0.006614304027709045 -1.495061860836191 1.7487199050910767
3239 0.656993861897817 0.08050543963720305 -2.2192738211283145
3600 -0.8978602733372129 -2.434521886373963 -0.5804386462314439
3527 3.846705798366118 0.5452632958178368 0.37631533128089484
2699 -2.143226157052482 1.0891287562735177 0.9881827074692264
3815 2.432453077599581 1.91088327280681 -1.8773222744150668
3777 1.5318856713004056 0.790290670608072 -1.865816222539665
2988 2.2767145175900816 0.3565281115922273 2.720524644803751
3023 -0.8417275171804244 -0.04016387015257609 2.274027964100603
3024 -1.20358528622144 3.7661503272035617 0.03868908610589119
3276 -1.3231298194755248 -0.7884492643920111 0.831432816705751
2735 6.034508814559636 1.112482009479099 4.44692804032754
3311 3.353435641624423 4.440409166582288 0.4437982837410704
3564 5.312764862038622 0.06244521756113461 -1.9765379693798022
3852 2.0589434117573355 0.7080138949724962 3.1683494771185137
3458 0.2909227590165471 -0.5620571813374451 4.5861578812643735
3599 2.050328161763536 -1.5777700293488592 0.7894906686637606
3313 2.937789223574096 0.683847281407644 -2.338214199082878
3889 -1.6561950951165532 -2.9832233245526263 0.42621071958650125
2666 0.614830412578114 1.2122087603698866 -0.38717457359503704
3782 -1.1006737857161575 0.2508597956486119 -2.133824121270809
3206 -1.3835138598469325 3.246884914071369 -0.7841903189491657
3781 -0.5337857326367136 -3.8905730874337716 -2.1346617482681007
3028 1.5524470373411023 -1.5015907467857668 4.168333127087592
3316 -2.25185573953515 -3.053653532813076 -2.414723920464423
3604 0.033160807813251876 0.7597606014650451 -2.933183490335033
188 -0.3851311781618501 -3.1828288421140076 0.5920831640875339
3673 -0.8443328731797872 1.671515605195848 -2.421696429870858
3892 0.1799520055384797 4.546468689792195 1.5425199103585912
185 4.023206950805502 0.9813263277818395 4.779559488187089
3314 -4.919198513866698 0.16176300799709245 0.18114377894554204
2739 0.31407417082273686 4.1277357829861785 3.8568689762244093
3064 -2.759849946171223 0.01603562290681552 3.59980206175906
3716 -3.0012305275941 1.6262141637049399 2.8133108942463285
3027 2.2396249344840777 -0.41110698591234035 1.5282287636800098
3315 1.703636085400113 -0.4082772299747409 3.1067767666212425
3352 0.7783248571677939 -5.237883634243208 -0.5359386798522742
3603 -0.24070384491257676 -4.870693739452489 5.206332632576652
3714 1.1408951536577474 -1.0170560997863836 3.44934430795672
3891 -2.579967789375437 -2.947389111510707 0.24793020952442585
2775 1.474576437217541 -2.11288258898477 -0.5189362138005541
3063 -3.298729089269808 0.5934196681799812 0.5755026878385784
3351 1.5748513904261323 1.6311772994553406 2.693734561951784
3715 -1.0252724364376002 3.0178670756038546 0.2530162365327619
3640 -0.6120030082169816 1.3106289542914655 -4.522727388859201
3639 -0.5131072214861255 -2.8749061306281236 3.2634197808293144
3928 0.9927546088607994 -2.129743127563851 0.6824869650963401
3927 3.7263682438698567 -0.6415568520911766 -1.6337047448734354
3426 0.06309389636553529 -0.7421650189511223 -0.5581076848882124
3100 3.7187704390214495 3.1963833819388414 -0.6248277822882731
3139 -2.5510520900374956 -1.3204347719275387 1.1572529666352234
3388 -2.7701403185865527 -0.5496331718243302 1.7252651068659406
3890 1.0858260037592495 -0.8741709084870039 -5.53486312200999
3676 -5.728296397194987 -4.788010449864635 -1.5044816779634
3317 0.8097895977359473 -1.495046190491057 -1.8902697863494256
2885 -3.0917756141585966 0.9879948851775174 -1.7575219775293596
3964 6.099885575290117 -1.152497794505581 -2.4066736672174827
4002 -1.4759218506020968 3.2790747520568564 -0.041379214222362536
3427 1.4206432271995812 3.2579859806802722 1.0850628603831138
2811 -2.3073398685155335 -0.7120602935593466 4.029825760706554
3136 -1.8485170540859328 -3.949119994661734 1.4253140924373369
3387 0.1442509087956983 0.7652016650002447 4.7494742856167065
3099 0.8510103365325775 -1.676540233540835 -0.3720167903139468
3424 -2.466096161090862 -1.2036648789152502 4.725939210718703
3140 -0.41937029596600306 -0.3858642112896543 1.4144516723536202
3675 2.8202342114234864 -1.6182414261008387 1.6127509284099577
3712 -2.249402899621382 3.704761111503213 2.9409231990689055
3963 -0.45970595991047847 -3.395963453094037 -5.7447387834767225
3029 1.823999522367425 1.0400671995724258 2.67326304885264
2847 -1.8017142485145792 -1.226098663076484 -0.7572196495631338
221 -4.489716549920971 0.9343906699372864 -1.0421369039141588
3135 2.934566601284465 -0.2327902759693305 -3.0944259065624955
3423 -1.6006724849834755 0.4507244308798174 -1.3302757527523188
2851 -2.2796957696193676 4.045742862744703 -3.302275851338072
3138 -1.3141653408877838 -0.5308549336268131 -1.9261961130246799
3711 0.8508023503271215 -2.664313342323986 -0.1528388092099303
3967 -0.560999995532211 1.2881033397600121 1.6861157292251934
2850 -0.12041663430199062 2.987240615051995 0.26329031760707433
4000 5.168797768654121 -1.4737596220211913 2.4106759368930635
3999 -2.1382699025984495 1.546445375107885 0.08822067587891046
2742 0.22660371825609008 -1.9183995991134313 -0.728543402654522
3032 1.3443225420426577 7.579974993290188 -0.12749084481380973
3030 1.7884906723075873 0.07370998997859991 -0.32771630583388817
3318 1.1293689787018768 -0.2743230986130764 0.7410053330593626
3320 1.3862685964680985 1.1138766811339835 2.4181267751475373
3606 -2.9366303434189036 -1.159151157582258 -2.3110827208080966
3608 -0.976948318817441 0.8423043884799257 -1.6568851485682832
3602 0.5541425577820493 0.42850748788358106 1.3172513266431072
3894 -0.7429589480625834 -1.3394137537095694 -0.9544285794680166
3896 -0.6095952152911785 3.100358961155977 -3.1996240590627973
2743 -0.2718754713070722 0.3333864231442739 -3.209500587117632
3065 -2.3496444210839313 2.3747023726214467 -0.06074193401251387
3068 1.380219840309166 0.7677122182285964 -4.699876717201903
3031 0.6423221817646287 0.19549832360419053 -2.4309198138274786
3319 2.2631461374838477 1.2916724897938099 4.415038276656932
3353 -0.10584207940183084 -1.6100746401205772 1.1102300753544867
3607 -5.27819007634882 2.4258483959572468 -1.9073264327098565
3641 1.3328216055781528 -1.2277963497261626 -2.4604696494130858
3644 -1.8730054443054016 3.2239202752803586 -0.7717747689765887
3895 0.7688631166432937 0.17688170151879623 -2.031662027121383
3929 3.6545061566060024 -3.2532476563833668 -1.2835348187306959
3932 -2.7438101868603697 -0.15370904139318964 -1.2635005698179198
2778 5.12961780347416 -1.9515043213640004 -1.4443509416987965
2779 0.8213943086751084 0.5205995043156529 -1.9231545176759854
3067 3.437890416931098 -0.663642893810746 1.6307737376734341
3356 -1.6020992647320504 0.5176702031303899 0.9795803498798196
3066 -0.5164138733290283 2.733271490124264 7.500569600462553
3354 0.8594758390852434 2.97278619148416 -2.6583743799480914
3355 -0.8086051620525931 -2.788579541424193 -2.231309231274091
3642 -4.628363180182469 3.3005963766960966 -1.9670974894614348
3643 -0.12891430139002769 -0.3147642524534728 3.166332429246206
3677 -0.3154508913154836 0.9975645170269455 3.055919651470495
3930 0.7727382800780184 -4.203279796250676 1.2790462188733176
3931 -2.883626501929538 -1.2266517661091743 0.03362657240476071
3101 -3.118870927734252 2.7984375191589788 3.0102095479480266
2814 3.3600215511537135 -1.0478329387625245 -3.0153128721066187
3104 -3.040166668091305 2.0124031843789325 -1.2998329713171846
3389 1.8708513121606734 -0.5540202413746165 0.9101099601904235
3102 -0.6418690709869533 0.025213601206670884 2.3814963409427716
3392 1.4941095739342687 -0.09762625222600389 -1.5431263097896113
3390 -2.289801099490662 -1.6133361414867462 -0.1624113907577179
3680 -4.129165404220947 2.278161561636595 -0.508632083091977
3678 0.5131648116282096 0.5038376303090166 2.1531807805972303
4003 2.8599934511086635 -0.7946501450561947 -0.8554094243486539
3965 -0.15821982661972211 -0.20978868717884333 -3.3291401373525615
3968 -3.7784144861931286 -0.5948020290063011 -3.7292768761871007
3966 0.6307666922523815 -3.4353543575208794 4.862967072474199
2815 3.9076132084196127 4.532373056147372 1.0194582074619927
3137 -1.9303213880690286 -2.328856921254738 3.7255191355653814
3103 -1.0899727215837434 -3.9763446637376814 3.282453862291725
3428 0.8616633317785704 1.9559614748616472 -1.017855999419894
3391 5.719112526312846 -1.2650896659117548 -2.6962901427332993
3425 2.047446761338084 -2.59664139180327 -4.6003676238244084
3679 -1.815843938058607 0.526875852606898 4.1574017532882355
3713 -1.84522074687918 -1.5613635521519922 -0.3552189402068526
4004 -0.31279017117481406 2.9083221759934625 -4.2594230166029465
4001 1.4465697579287105 -0.8953151845174615 -0.11260373378668709
3962 -2.299425320029273 -0.9023573147038172 -2.153382509049614
3061 2.4889231541365957 -2.591180263191281 -2.5955221176044834
3674 -0.9943118046882371 -2.9358628331599137 -1.6836680197756475
148 -1.366680448193182 4.420349016455766 1.5682325871961733
2881 0.4045340863588979 3.0840256697534656 1.0217891401746948
3169 -1.2852521312236815 -2.7928784794051644 0.7701841228765177
3745 0.23929940446459327 -2.537418393203001 0.9495993380347103
3926 -0.05484299350594387 1.9514121550518853 2.3857529464570653
3134 -2.4074125496117196 -0.09404652502414713 1.8463476741787404
145 2.798692321603956 4.317387411675552 2.337693050408899
3709 -0.522992943758563 2.3563213472396396 5.336258431140041
3710 0.5243082667343961 4.764704984160675 3.7014459774336155
3350 4.071836607317012 -1.7785419881769673 -1.1212444756664761
3601 -4.287585004851348 -0.03110851018273162 1.453471928181801
2846 -0.8910945421201134 0.7020296813531853 -0.3704022757389726
3062 -1.1825934488390093 0.162750149456177 2.5229436699085563
3961 3.7279379686522005 -3.313970082920977 -2.4051989950706045
3638 0.6082469721780781 -1.2648124511345906 1.9300232634138645
2738 3.3176953917307688 -2.4792580821442747 0.6946036138627408
2774 -2.611247241034954 -0.9014224605110963 1.7636312886390408
2746 -1.3768262896134142 1.3287564347497562 -0.8788291646112828
3036 2.738687064022139 -0.7173959724611034 -4.252371441536051
3325 6.306457268432061 -6.565154181098439 -2.515343098247506
3034 2.085046489540964 -0.6562900103819855 -0.17209288455986732
3322 -0.003102573339689279 0.72111777033662 -0.9975037707683274
3324 -1.7854994200252348 3.417388757592252 2.3992703426105897
3610 -0.19149879121428692 1.0005314722837084 -1.7944017761750952
3612 1.6234178841091025 -1.8930057264914515 -0.14341141678048472
3898 -3.1449770705035487 -2.701009459410041 -0.47682687051681816
3900 0.0375448980915811 -2.7667865128029594 -6.536434044446528
4012 1.099875640057825 -1.7417160185983038 -1.7949969733826945
2747 1.6495496544061492 1.6886641184413305 -0.7243642872706652
3069 -2.7301922356291497 3.070956765311071 -2.704842270117084
3035 1.4001708659253491 0.8025436107296476 -2.967215316675778
3323 -3.859307337687409 -2.703783046869784 -1.4854830714412515
3357 -1.3522111441525686 -2.4261740559403346 -1.3377965050320644
3360 -2.8799890129169308 3.6056561884706646 2.6095059102967824
3611 2.1817538194377577 -3.4878975657402314 -0.10019426947975131
3645 0.438507104135627 -0.5245399283514736 -2.977982662919105
3648 -2.5752841769853494 1.4467733176294584 -1.2486177667827478
3899 -4.744497564329222 -1.1290566332988332 -0.7634239223016647
3933 -3.000205180914743 -0.37295433600803796 0.2563795258438589
3936 2.0907982505207285 0.39841582338792925 -2.403695290993498
4010 4.3765275668492825 -2.371016452314009 3.666617407687842
3072 -1.4021367707395826 0.43184468943323717 1.4185019824666858
2782 -1.0956098490336281 -0.6295603182293751 -1.2583160112305416
2783 3.8171503727261595 5.092966912540755 0.33278834203793883
3070 3.4130629237369163 -0.9503046252285501 0.2121531256992908
3105 -3.445863126585332 5.523799477905446 -2.552937468392424
3358 -0.17169438703481185 1.2824968183759258 1.9092999158601518
3071 2.2608418475029133 -5.031693110000956 -3.1183506992577357
3359 2.5699516855172235 -2.876742614012313 3.3456394077659777
3393 -0.7271227944438784 -0.3321157365391866 -2.643689806444295
3646 -0.6099328021986273 -4.235066630043374 -0.5450132774593506
3647 1.7270907984285757 1.8084060114789053 0.9162951463914268
3934 -1.4710037098459103 1.9791645609358763 -1.948896210603671
3935 3.2485974777843576 -2.647037919643313 -2.6474973416570973
2818 -5.421822807296247 0.7687767467740306 -0.7314488468441823
3108 3.2627610859712712 -0.4211066324835525 -1.4176995433413668
3106 0.6400047017740372 2.7140659613754208 2.8507714604038474
3394 1.0104532799916957 -0.5045925988069022 1.4055774117937052
3396 -1.126246533845898 1.5022720621296466 3.025276668334715
3681 0.8544568654803127 -2.4881830719560494 -0.7493888074589447
3682 -2.884646196140304 3.6832661952732333 -1.6277136406232282
3684 -4.317999808535551 1.6513551094354275 1.55520159120153
232 1.6263576742051558 -1.4045866254966586 -1.3712960487504418
3969 1.3912500386713729 -0.3641357864255624 -2.7627946829135053
3970 1.0639234172073975 -2.467149862258012 -1.1140976652065768
3972 1.1447235937857152 1.6175101814481874 1.7225309428413542
3177 3.2709706324368613 2.2268615331064128 0.054657958551226335
2819 -2.22525307278765 -2.86990659563402 -4.693100909717184
3141 1.373260793858412 1.2775040578709018 -0.3679181033050871
3144 -0.2132164128043607 -0.42478185964231574 -1.2669624744160837
3107 1.257842459924116 -3.0201569332224367 -0.8598741458403306
3395 2.502720573902999 3.260502842873327 0.7949410724582825
3429 -0.5601089539766464 2.8417218829831663 -1.2149975587114688
3683 1.5033767969273748 -2.4965864124965202 0.4355679411551539
3717 -5.7362191534670925 -1.6309739408574329 1.7481930348157646
3971 1.1968047869595315 1.0998824162006924 0.8711483717019632
4005 1.7769017806904355 -0.04268857328061949 -0.8517909313778029
4008 -3.240939260623083 3.9759143578241027 4.4050694942195445
2854 -3.869461786900155 -1.3171253145095783 -0.5079055085129388
2855 -3.083789747927082 -0.6816417823654699 -1.5540708916965789
3142 0.9605740071088041 -1.3253115284583399 -3.4423820380612327
3143 -0.6067433742448312 -0.044953433058120225 4.407310176118844
3432 3.2476729307716283 1.1497155913387935 2.876937630522743
3430 -0.33781860077684056 1.7453882818087223 0.8232830044955968
3431 -3.055951143409074 1.2777933367189023 1.3682908312706226
3720 1.4607528926436344 -0.24573461214176154 0.2727041063487219
3718 0.40794261903149087 0.4617529024399432 0.15593609952293458
3719 0.44642118222114635 3.2956537232186984 1.1034671780616472
4006 -1.806799409471699 -2.9059742893191176 -0.6776537221086334
4007 1.1660687386767026 -3.384589859299425 3.299124493262448
2750 3.656847361858495 2.7704519463977837 0.15228093788988362
3040 -2.1018551739307187 -0.9416289981602377 -0.9981963363555448
3038 -4.048802208011733 -2.2515836470463073 -1.485788835613842
3326 -1.763418472783107 -0.5572871595875771 -2.3216463066502584
3328 -2.0395505024830043 3.8280816935337953 -0.3233692270929137
3614 -2.0940603935969744 0.6117525736230172 -5.5344936069152
3616 2.1977932907355315 2.3426100331362596 -5.093078789338815
3613 -4.405159848378963 2.1543746397403325 -0.515521337674594
3902 1.5841704938473402 1.6847186933263598 0.2175677704489491
3904 8.684720483193342 0.5025396178845061 5.717730625555962
268 0.8158792197377045 0.27819366492541725 -3.0478550307357235
160 -0.5094719917885437 -1.7452689085184903 0.3899546424775736
2751 -4.783040158314099 3.3396012829690758 -0.49894002241899277
3073 0.9183841822631449 -1.891676964954285 -2.6709151349671507
3076 -2.1308241809077426 -2.592587188593587 1.147589641138114
3039 -4.677177463451001 -0.3042934921876483 -0.2836567068387506
3327 -0.6575499010008324 -3.802595008899624 -0.32955224285095175
3361 -2.048753299266394 1.4538760353235698 -1.7013174449211608
3364 -3.0657323083383083 -0.6820626141151935 0.23855204334962893
3615 -2.342073917082644 0.6027052152049813 -2.3633620236531363
3649 1.618585967559378 -0.5803565264135219 1.1926947602201463
3903 2.528379672400605 -0.41259328570841053 -1.031622902437789
3937 0.49158598732303715 -0.7938098540116636 0.9139562128628508
3940 -2.3526216191462503 1.279913697504296 2.026371417882233
2786 2.4618109503194 3.06065249224797 1.6059762299304707
2787 -2.661055809932782 -0.12572213480432332 -1.7894028442167418
3075 1.521261528688117 -0.6443790707089636 -2.3555994648731895
3074 2.8483699412376255 1.8964755383786829 -1.8949709330144093
3362 -2.7338964955280622 2.6258205882195313 0.3432639843559401
3363 2.8573085441716453 3.287967939398441 -0.7750990817033988
3652 -3.009129442175455 -3.019594059289376 -3.448185623770521
3650 -2.860718424194119 -2.8276112410526064 -0.30388781789225716
3651 -2.9684028026732516 -1.9119175266066455 -2.014175437856584
3938 -1.2874030616346916 -1.9502584833544163 3.508459278468352
3939 2.1092161446185376 -1.0563013042561296 -0.42019970574405013
4011 -1.1042012575176048 0.93621326078874 0.7263466067250355
3109 0.8440672987497586 -4.080844868002745 -2.849213597911915
2822 -0.37355809870877626 -1.1584899828584 -1.5606033736528857
3112 -2.2395625436918993 -0.4537881424591213 1.8650637364025424
3110 6.000330141688456 -5.515629157554477 -2.4162522756402276
3397 -3.4614933146220745 -0.7802699031595987 3.063093618840836
3398 0.3814116919761416 -2.2002128836689097 -3.6194160930493453
3400 2.2266048242407024 1.3645186453721385 -1.822292989712204
3685 -1.254276166789348 3.6106380144891803 4.308582059121819
3686 2.8929254117025485 -1.3535274477783967 2.5724521787118144
3688 7.169835422361956 3.9183926678441225 -5.270500045045337
3722 0.41739546522907134 -1.403444265095294 -0.1741659626454177
3973 2.62418190887741 0.0013608116925001093 2.318596299928646
3974 -0.0721686142305503 1.675361043528248 2.294469408749623
3976 3.5187455549710913 2.8085915217165476 0.19546275313678096
2823 -2.123702004119454 0.4204619625215442 -1.280781282951631
3145 -4.3495336375267035 5.496759072249991 -2.062894900856077
3148 0.14088151231679197 2.722562131737318 3.7721575544403634
3111 1.1146875334360091 2.089414184132119 2.106059410610077
3399 -1.1058554620517886 -0.14474255277976772 -4.275712895197355
3433 -3.920002865055148 -4.09016057861475 -0.08470159790957542
3687 1.6912949270800588 -1.4242835529503068 4.662836299091754
3721 3.1635121520891762 1.2939706046260386 0.6187094410145036
229 -1.2604643626289491 2.0878884027684093 -2.845771513146179
3975 -0.17427061400454932 -3.6558917986886508 -1.2281008757437408
4009 -2.5646455059749567 0.5794976557065895 -0.2134633978363862
3724 -0.561848405297171 -2.9068787848404978 -1.7647678586558977
3146 0.7585621867700135 -1.494866191290987 1.0045603851314129
3147 -3.2352775284674786 -2.7037249234465737 -0.26067006062076753
2859 0.5580685340503975 3.4118937956011965 0.5469072673471933
2858 -0.16240662575310488 -0.6889150611077886 -0.7668230167234898
3435 -6.6292237163249546 -1.0416714329421384 4.957392502114076
3609 2.0367787682342757 1.2755209047865208 -3.19467413508346
3436 -3.1221685993937496 2.0761211536145887 0.4850073848230609
3434 -0.26894497091747444 -3.4761105195832624 -5.472558554547895
3723 -4.413904672762945 1.4757667098330003 1.664670394654749
3037 3.217026495814193 -0.8276953267387475 -0.13762537738826436
196 1.2049102568349392 -0.26819013003464764 -1.9191960165304678
228 0.74843832562423 -5.52024435757388 -1.9186555144407331
261 2.832580009530448 -0.21141011810656252 0.8733156830547562
3181 0.08491369242843777 -1.236654781534964 1.6355591089987438
3033 -1.2497649843958605 -0.36976316651517127 3.7841292299615272
3897 -0.0014873124830588184 -0.2270732432892054 3.2108993767813363
3321 -0.3881554407799158 -1.2378068219340617 1.2775830768407082
3469 -1.6539413381127357 -0.5882481487394018 1.7896658943398027
2893 -1.9221960122278885 0.017162194257219012 -2.006609496943639
3901 -0.3564256901116439 0.6927569492256936 0.5482194046649959
2754 1.123258680435338 -0.9272030544129545 -0.6024074534117692
269 -0.9092482430788418 1.784886538412554 -0.36353960689952786
3042 -1.2428507143547112 -0.9419257837473753 1.6290751197336535
3330 -0.052246552458383624 -4.360476037322504 5.6123844904527935
273 0.8680398792898395 -3.0435706540126835 0.2873511418077531
3618 2.8140765426627787 0.41940071431076076 1.8053152709461864
3909 -2.7697844530054883 -3.1743209627615596 2.587313771674057
3906 1.5304406152609484 -2.2386498833608472 0.009679560159923349
272 0.823004696337981 0.3141817691627569 -5.598224770057013
3077 1.073388938140526 0.1662663949814585 0.6852737095048929
3365 0.9767510697497188 -0.21108817884437903 -2.160985106763829
3331 -5.2938245295979 -2.966432347802348 -3.26615053929123
3653 0.05904425282229768 -0.47893507587732026 2.2395234482691833
3941 -1.6382354031665922 0.25104017121572586 0.9803277132894592
3907 2.51977873317531 -3.489000637204664 0.9340836257657785
4018 0.9483110779301503 -1.730704424569205 -2.430422272534952
2790 1.226421382181183 4.629649142981818 -1.1327911044855599
3078 -2.304998906636518 -1.5823698477221801 0.7187734128197218
2791 1.8448631201213308 -0.09531664944011393 -1.783313975200875
3113 3.163820873290835 -1.7478127000911696 -1.8637612186935628
3079 -1.4292964388930303 -2.95614748215126 -2.1707489307614467
3366 0.022577467483031462 -3.1818494158586423 -0.376507621495799
3367 1.7660839506097696 2.307747382448787 -7.254344571332918
3654 -1.5593261145919004 4.1195539111887935 1.8805546288630013
3689 1.1033922338271023 0.40851557322056614 -3.413591252383947
3942 -0.6640786705732633 1.7915005810442037 -0.885353490614035
3977 1.2007616343331398 -0.4493598138798087 1.9109362074443013
3329 -3.900305477140962 0.0011540992137137566 -1.8563609426552286
2826 -2.0782454642273542 0.9744812654928866 0.584772265347026
3116 2.576223112525668 -3.095846733601917 -4.656094151782088
3114 -1.1422220040738238 -2.1739163017543057 0.7506443463842901
3401 2.447836465008562 0.5810907557960691 2.2535565173786165
3402 3.220296418257553 -2.1087339329610844 0.09299231751716419
3404 -2.8399729671459903 -0.9117405436529411 -4.02101613399207
3690 -0.5028425766713199 -2.468076651755926 -2.590723830068652
3978 -0.90247546417692 0.9112550834196206 -5.412623943281281
4016 0.006897970860773176 -0.49795170069585604 -3.154902433071649
3149 0.07756477235273401 1.5932986968503065 -0.25061612360871693
3152 -0.5783495132254526 -0.4263207756736109 -1.061024058044342
2827 -1.1601078603007091 1.235812780062709 -1.081967575883344
3437 0.7250638396272923 2.0146224285723378 0.24408733789671974
3725 -3.3701277002016403 0.9851504973982662 0.7901051218149423
3691 -2.3970940712287536 -2.452557033130485 -1.863902677265254
4013 3.9371625124775496 -5.200180713288827 0.17096878087704365
2862 4.930306582056155 -2.7446588614780563 -0.029878061746629353
3151 1.8862790475039386 0.7675411804582128 -0.7166596002709963
2863 -0.17505933334477583 2.5460490900927772 -4.075267541240434
3150 -0.438937764352837 0.819516168421175 -1.7240318350246604
3438 3.9879186123145276 7.2765210968546175 0.19631589389429804
3439 -2.055818605389132 -0.12403652271879773 0.03524680224917308
233 2.766000316893714 1.5835499937016195 1.7998784122669913
3185 -2.371446229267065 4.45119476456151 -0.09413873087471852
3726 -1.6081754755131037 0.8456795811552795 3.687192086549801
4014 1.491192345611741 -0.6638250235940465 3.6912832837882315
4015 1.5376465935156298 -1.816294755976834 1.0825847564551385
3044 -0.8336909361895167 2.890443063654111 -0.3208621345130153
2758 1.0092676454255034 4.124240046105866 -5.058779188483097
3046 -2.593907999053143 0.4003861168732941 0.5606219172791425
2866 2.297354451619174 2.101070127703823 -0.08281160089941085
3332 -0.7563350240118919 -2.592942868005332 -2.0280679554643046
3334 2.31073690527567 -0.604944603925064 3.8849963540489965
3620 -2.2116771905052848 -2.973633490188644 -1.8535459812565453
3622 0.6647165656920396 2.714263713511552 0.6811246991444879
3728 2.6697458337124287 1.0696409504339541 5.620366281557039
3908 2.917132267946275 1.4014012372476634 5.512416673068139
3910 1.232247301671514 -0.330758113474146 0.7298593806706223
3440 -1.2268201497974212 -0.5533292814344068 -3.1104832924499237
3080 2.2284635633920833 1.1825177559321622 -0.7686329020977266
2755 2.6724334307778697 1.8119169681534502 0.39894830865801895
3081 -2.4033868011566955 -1.158493190235364 -0.2556844262923192
3043 5.542653279143044 4.397132847157469 0.09190042433056175
3369 -1.0348928808901054 -1.0679220060499912 0.733622770343251
3619 -3.1383575238373207 3.614093127866114 3.550279190569747
3657 -0.13873323692825254 1.8395881151883016 -1.9825706608122815
3730 0.08833421966792472 1.5846855732973073 2.7368424588857083
3945 -1.7492356844261907 0.7594082461908314 1.2795377332898747
2794 3.816412194331349 -2.1593299132960415 -2.8502904136630725
3082 -0.5760494610150181 -4.439160322002051 -0.7792302336199933
3117 -2.737448401599077 2.167994026426555 0.5373500296511221
3368 0.5307787062800401 3.1518448389845206 1.0047671721163611
3370 1.2247966556636116 -0.05967560424133758 2.284894097644659
3405 -0.8030442331143424 -2.6485407971917816 0.17733372995497096
3656 -0.9277864395797999 4.318338739021966 -0.9937005539668724
3655 1.2807931156990684 -2.5315835567774805 0.21476348635287093
3658 -4.757717199676377 -1.136059118263767 1.8759124156159819
3693 -1.7110063654646246 -3.600023820655579 1.8450363819630664
3943 4.148254192020493 -2.4337860419340185 -9.552464801932668
3944 -2.488955449565135 -0.8158750632523251 -1.116583356188972
3946 -1.1627314044416612 -3.761273071304951 -1.3767786556805568
3981 -4.083950482191937 0.4862167414887571 0.7233232887450506
2830 -1.4459398389832256 -1.9661781279078 -0.45324048820507634
3118 0.09572707408721437 0.3350247928580282 -1.2449769636726635
3406 -1.7053796399962293 -0.13665329846314092 1.5580353377297769
3692 0.5483639597040609 0.5529385450378025 0.6319352813426704
3694 -3.4854342236965703 2.85679702442145 -0.8821744025538648
3980 -3.9782512878145817 1.4732924208008347 -3.2189538064645493
3982 -2.1849183145352296 -1.1551680823120356 1.2459891485109473
3115 2.233215643313534 -0.45748735214430436 -4.5013287567582045
3153 -3.040722661867602 1.4559471331084304 0.9444104324874011
3403 -5.111879268633085 -0.631249921792305 -0.4329109480268438
3441 -0.15984765159657546 0.4308923191396701 0.4880002330466853
3729 2.2071010075932875 -1.0869664665216445 -1.172584977798286
3979 6.909969749122334 0.7835256409384546 1.2819741422008497
4017 -2.7182179657351258 1.1880234417151105 -2.4612786368651505
3727 4.513228039237976 2.1421188804952127 0.9397399846046036
3442 2.863780223450587 -1.5845927473444859 -0.7564634060744535
3154 3.7986727012953745 -0.5056420615693394 -3.1039524294366965
3477 -1.6532078158760832 -2.8667838935117165 2.0691505426462915
3333 -1.4008165276398195 3.1267205917277168 2.3021086310263295
237 3.273722221665942 3.455781503921481 -1.0964734698352383
2901 2.4477594783842362 -0.12488564884561772 -0.21599407436856982
236 0.02679168795788174 -0.7864466351533979 -2.6974564660641525
200 1.4244639518243274 -1.5499545600396238 0.762219102025524
3473 0.9859656520705959 -0.6673156023040493 -1.3641509542476966
3041 6.299784379911364 -2.4741433450083936 -4.34583993495421
3189 -1.7590465325995286 -0.7790649146094756 -1.1550296447708115
17 -1.254925486384104 -1.9170132623717324 -3.9001935782563004
3761 1.8502898009500326 -0.4152989101637327 0.13052977389353304
3045 -0.4429020815629681 0.9725578288574297 3.719780893485468
2897 -0.9257877827650359 -0.7095639940946578 3.6795495710487676
3617 -1.5235310585408954 2.180778210072924 -1.6180791760622966
2762 0.04053010684441544 -1.1575269970302875 -1.6019176757129645
3048 0.8842407076518648 0.005067594001961754 0.5301383336845702
3050 -2.0871169455465863 3.3961732793687567 -1.2614015383334327
3336 0.4548852460227027 -0.7473880844292217 -0.4700797834397203
3338 -4.513260282259919 -1.2903046877510111 -1.5525239550070722
3624 -2.1474017125707605 -0.10377452519736617 -2.736060351245519
3626 -1.5873929494941472 -1.4236605125490644 -2.9138239090368785
3481 1.063660080903199 -1.0113706356758232 -0.17834251002297238
3912 -0.037839177658646854 -1.502532392596222 -4.397544311324778
3914 2.19347016631414 -2.540719294040375 2.6607180478107884
208 0.06455382706522812 -1.3228999606691614 3.3503405785713034
4026 -0.6926702628424631 -1.0074031208810612 -0.674064756776237
3159 -0.9827064577679047 1.1590670462967654 -5.034925240270345
2759 2.0492329461106276 2.2137281036668672 1.3500830903705876
3085 0.6008332118813394 -0.81428549318435 0.061252291862237254
3047 1.151148948547843 0.8943731501618313 0.1978270538017745
3084 -0.8480179582912718 -1.5021987445136828 -3.4223769870771097
3335 -4.030502351096324 0.21890706931095105 1.7280964132837149
3373 3.0407183832909417 -0.3282400248527859 2.753367843406111
3623 0.6792200377571618 2.0825499880686125 0.6376815749419261
3661 1.6951803713099285 2.2620020462363746 2.5122304894408405
3911 0.7370494232967427 0.9197476331329484 -2.454233993021376
3949 -0.5758779122030511 2.106950092865407 0.5383973705113053
240 -0.965682689296839 0.5093313674535443 -0.8991151753650284
2798 -2.2445641378862438 1.1027008532259315 2.4377266834943847
2795 4.091021451478154 0.575078597148249 -1.6008914440777817
3121 -1.2749599757478036 1.7384930476952465 -1.0069784300757298
3086 1.5084529729013538 -3.955244980395998 2.0476588858610056
3083 -2.577411568274409 1.0552048688432156 1.8371027363441923
3372 -2.7747098089322066 -1.4710240665444048 1.6971368633724542
3374 -1.229213467165529 -1.7509427455413793 -0.7553973067503532
3371 0.2880700038861921 -2.193993736650652 -3.0234361399274086
3409 4.770739096630292 3.547191994606857 -3.293229140284933
3660 2.1733586266847094 -0.7712741516142185 -2.7449774105466007
3662 1.150370603664322 -2.4557875273138237 2.519373207098718
3659 -2.6214228865606657 -0.5212273038620073 -0.8100708438713239
3697 0.9914356450292314 -3.3861421219864454 7.895480592377531
3948 2.9557035629052417 1.9482273386222142 -0.8502979896713
3950 1.585111258295554 -2.579927702123589 0.5365904073833948
3947 2.1332732217287926 -0.2769817988039817 2.278301780683086
4023 -1.7638698809703242 -1.8286044098951117 -2.408159674000691
2834 -1.2376844143702321 2.0004938716544656 -4.1063811877164955
3120 4.2900253394906045 2.049492981335999 3.386457247091552
3122 4.45002836467387 -1.1653352135569983 -4.120782435020153
3408 -0.13119002147292105 2.680691735055877 -0.7623634971153684
3410 -2.389381718404231 -1.5015217999228585 -1.918187889422878
3696 -1.9776279063338946 1.150308302316765 5.376519581543186
3698 -1.4112851405551248 0.09025042169509385 3.6818931134626647
3985 2.5385672931528886 -3.6198427717019386 0.7841728475347655
3984 -1.095942321979902 -0.8804824151230086 2.079601800848106
3986 -0.77790261075523 0.914763935765917 -2.8166644043182782
2831 -0.5188009454882158 2.168802993876162 -2.272547496680002
3157 -2.6787365344334324 -1.157471056948794 1.9163754462548517
3156 -1.9029984729185303 -2.3944172981547287 -0.17887942646377766
3119 1.2347730010046158 0.29220918167043003 0.9560749651779592
3407 -2.1110468137938794 1.9979700399939326 -1.2201978529359296
3445 -0.6110326555440598 -3.6830725061065848 0.05034370384900539
3444 2.824702262036477 -3.844547334873308 -1.520676320717206
3695 4.47009818178727 -2.9047760787167163 0.48121849335777145
3733 -0.26879579673287884 -3.223044479112896 -1.0875245920593108
3732 -3.339285878074115 0.7461538130160252 -2.9987085661068966
3735 -2.195782708398073 1.2699428681725116 -2.266614947030307
3983 -0.9885556876125603 0.4084565085116005 1.6656902275811065
4021 0.43674182864119665 3.3293213474375936 -0.8880528839161244
2867 1.4368086665145055 -2.2297641798377486 4.105861163530699
2870 -0.5745921153069241 0.41051211318447045 0.25299523381997624
3158 -1.397557637463572 3.1401124277080674 1.5723438556802445
3155 1.8314503321636484 0.2677031644429108 0.43694790491349395
205 0.7161897718715646 -1.5346257133279377 2.9791157422432826
3443 3.2232495101636798 -0.3957283057493887 -5.422866912158715
3446 3.3324230647077844 -0.1793121477200444 -0.22188820005673515
3450 -4.106740408780683 0.6081739688876413 -0.19605770806882955
3731 0.1449131817987111 -4.341371848657768 -0.1087926184518811
3734 0.29611394836761906 -0.16616867167265792 -0.775482031999358
276 -0.8241965954857755 -0.6131601187485051 1.665819427868229
4020 -0.14447526139148884 -0.401962615688079 1.2033146034623265
4019 2.874983058682059 -2.5481705033181776 -2.8872920204647037
4022 3.0059096109812042 0.22726966858908318 -2.324132285997466
3736 0.22711528567771827 0.09510081668032606 0.21082312618032806
244 -0.8525433705041267 -2.87919411151876 0.38996786632706176
2766 6.1309349774069535 1.8477135395534654 2.3685117966459894
3052 0.3929678964812636 -1.8274413430518364 -1.901954815197032
3054 -3.035684613502419 -2.7495191032281685 -3.30722368899474
3340 -2.775469874438491 -0.4795331656416765 2.2476140802950124
3342 2.557001279774965 -1.8444663252845508 -0.6031118933131272
3628 1.5181630203431011 -0.2895147709070093 -1.0466749763075758
3630 -1.14995759121163 3.1734143642326504 -3.667863383518657
3162 2.242825279127774 0.1989946316017144 2.281481632425433
3916 -1.0811716573733101 -1.641569609509774 0.3414854014161966
3918 -1.0071022281507962 -1.7730099376438544 2.991745731315393
2763 6.055428639502921 -2.3576058319490354 -3.1469467036981738
3089 -1.3535994922454802 1.8863565264502118 0.9502468919118822
3088 -1.3954719693830826 -0.08990700028014738 -1.7711331586710135
3051 4.770900331852323 -2.329427448241854 3.3198677831545744
3339 -5.808347954147107 -4.43739625307256 -1.5160767426569999
3377 -0.9280875759240574 -3.451024688131313 0.6139387349253865
3376 -0.7430916085319523 -0.0035372085848717548 0.8918122976373005
3627 1.3871943669578581 1.7153897588445393 1.774309124936798
3665 0.3907835211044113 -4.287643907310867 2.0174727301989797
3664 -1.3273916135761725 -0.2799190114851256 3.6865825918459207
3915 -0.14601542848352378 -2.8539264947322223 3.8478711157726164
3953 -0.1812496788732292 -2.1068043697329633 0.3500612908761545
2871 3.068331436045765 -1.3090367889357877 -1.1722475905729952
3447 -0.43882894865256666 -1.4512960125856718 0.6049705261151725
2802 -1.613426871848007 -0.11284633082105275 0.2910884110279348
2799 -0.4401590552740064 0.6334155612285629 0.2853007723264375
3087 1.473950689276059 2.264167004095029 -0.018019399093132497
3125 0.688611208660963 -0.579314666867486 -1.0453883892413494
3090 0.581759435798662 -3.6827034771406937 -1.8000461433190762
3378 -0.6446667771355933 -0.9001732537235456 1.9399926462350747
3375 -0.8143432735084943 -3.0563346273933463 0.08553844365228258
3413 0.10402517709237698 0.9613423367957132 1.4406464016957117
3666 -4.224474673256734 3.678452952285416 2.0035782832548357
3663 -0.577173823024785 3.2461557993511327 -2.047839102093386
3701 4.705769090625264 -2.7627627456301562 -0.10383786767738862
3952 1.4441587410291428 1.514910006720385 -1.1501175863157522
3954 -2.4208915535126856 0.0524706939614255 0.5075463677190666
3951 2.185920840327508 -0.35247503904815747 -0.2316655483369798
3989 1.1654032762950657 -0.7612840674787742 -1.1721894121697245
2838 0.9391956605730029 3.4739195626259014 -3.800953588061671
3124 2.2254066343661734 -0.4070928721593506 -1.0758430630267457
3126 -0.4264236063240547 1.0932859638145238 -0.686048093825574
3412 0.29751782161596935 -4.085328014869173 -0.2238041431732671
3414 -0.7971882968337791 2.7389961279214785 -2.460950870803482
3700 3.3108865268151315 5.286944293442531 2.0222312870182653
3702 1.8071873749205398 1.4865988832052945 -5.57004381824507
3988 1.8921834698209234 1.869601754137796 1.8550825208641324
3990 0.22265209594733126 -4.368356799100393 0.9357635117051083
3738 -3.6755120171125526 -2.048322154538257 0.367222167830733
2835 -1.4478617234556515 -1.3421610844595957 -2.5493043939342024
3161 5.245647913858702 1.1062668158813458 -1.961487667173487
3123 -0.021929098379252266 5.06480936509345 -4.347630536838298
3160 7.973550550637553 -0.812342313863118 -1.9040022598348734
3411 2.2444314930772746 -0.057140610550223646 -1.5308444987112138
3449 2.8345580429049058 2.5003674817508714 -2.0280092316193454
3448 1.564551707994143 -0.694735886382229 -2.0011022938711913
3699 -0.5096540276011683 0.8777710460435997 -1.8358170113214334
3737 1.7210507159701796 -2.250320283416355 0.4898890928053705
4024 -1.4325967369966643 -1.2340735516242138 1.7537837062969752
3987 -3.0490428281248554 1.6126422790199686 -1.7290504871683292
4025 2.739334382315403 0.5253392260094564 2.927934047652704
209 -5.081246627752353 1.806846808160333 3.216062214591525
2874 7.391391984833748 -2.530905478550425 -1.6303915130684858
3197 -1.4497214976498891 -1.4704662720934087 -1.1160396669023944
241 -1.4559525625928047 1.501949536197222 -1.9765586816831455
2905 -3.083739916676004 -2.2110386553734203 -0.10629449380909194
3053 1.8840324438636458 -3.001827401986651 1.280526318808488
3193 -2.8654676032879958 0.9587531688281896 3.1229445881866837
3913 -0.2044315230945614 -1.4086686950381895 -1.0626374277092816
3773 -3.995007069428282 2.0011966131105607 1.7653235812163282
2909 0.7736470879437024 0.5207649861163443 -0.9322128975778388
3485 -0.08006920615563334 1.5254344361734211 -3.4516936949850403
168 -2.0328367290619687 1.2327024440135579 -1.8761139211668787
172 -1.1446437689791158 -0.14369349846239296 -1.1431280958947818
280 0.8619177865938761 1.0878322412496786 -1.1417411776617863
3629 1.1538996389029175 1.0789622750604528 -4.213785124033027
3769 5.809228199424906 -0.3843562584103219 2.8712918538505963
3341 -1.2477423116201003 4.395422249600341 -1.8362499874784286
2770 -2.5983804951168956 1.0309622776445788 3.936690884552088
3056 -1.430123351858813 -0.3857811206616571 0.26403969535435884
3058 -1.5301385087749004 0.0590408930022259 0.8670803115503256
3344 2.0602440271965494 3.922295119953367 -3.761004934757987
3346 2.6212608068577525 0.8823134028176953 -2.028446034722984
3921 6.731914698838119 9.691597625536074 -5.640944228118283
3632 0.8777822632374369 -2.1213850033715116 -4.061558713843969
3634 -1.6953005732605928 -1.1112745268833017 2.3660281228977356
249 -2.259344194956953 0.9231785924623406 3.5916362390718115
213 1.0117698513867739 4.698413043408903 3.0673815447198054
3920 1.8333738613766275 2.2794232820779627 4.353741042485665
3922 -0.7700252246753353 0.39722864625805343 0.3427550183720059
4031 0.7370913815887874 2.905659970295601 1.4282275719821025
2767 -0.9922380742952879 -1.7134944856229002 -2.6917972112780073
3093 0.22187911990413883 1.1310841776065386 -1.5517924835033807
3055 -1.8654672995873387 -1.1747106631602948 -4.639765627237172
3343 -1.1856014357666622 1.1665108279299858 2.1043180858535333
3381 -1.7991703291026533 1.4925731074050843 -0.7138778031515449
3380 1.2793521400438173 -0.6905493766994814 1.9477675883272314
3631 0.9398356218189892 0.1895840286671206 -7.952462005961348
3669 3.3025880198490163 0.847268627881704 -2.2398368961429145
3668 6.127120438069441 -3.4865851254106053 -2.560545772232364
3919 1.5750239209207106 -0.7158815579774384 0.9328990984121065
3957 -2.043347371025296 -0.4734233443145676 3.1821174090880393
3956 0.6828448779801819 1.369894014973831 -2.559033132980223
3092 1.9817534665141354 -1.085800368737966 0.1305179439470965
2806 1.7598494817839423 3.051247431036778 -3.5371760460956234
2803 0.0223639037610835 1.1151702446133378 2.146354894595405
3129 4.44589839592679 1.7622457824616362 1.8822157815124845
3091 -4.209179418712606 4.3711961302515 1.6081015133907608
3094 2.3601227673418594 3.97825122487672 0.42730426507678726
3382 -1.8677326208743377 3.512169417648744 -0.4897874711302995
3379 -5.688127806723627 -1.4699928879472088 0.0022789487913459556
3670 4.0998846552443835 1.3352744149370763 4.026126687452606
3667 -0.5167677637451279 5.059021678009468 -1.1432096850598237
3958 0.24208133989581815 1.4944928991331157 0.07751764761686147
3955 -0.5638139735153876 4.719370710412698 1.877931775921244
3993 1.319791118422307 1.5081923092721266 0.9658691657054637
4032 3.126972432406297 -0.37571764352197184 0.1669747273184994
248 0.7930584392555843 -0.7698605137540991 2.7306979955312856
2842 2.7015401149861584 3.2774935704691415 2.1021759271244065
3128 1.6626103538239299 -1.3537116012120802 -2.8618778417876807
3130 2.5720363747261823 -8.137454037474832 2.481957012135744
3417 -2.599201088132982 -2.5006732894676302 -1.0787879774628837
3416 0.5750218783912748 1.4613034961495779 3.921718046516544
3418 -3.0443354567678322 2.1638326331304336 0.19614044788808163
3705 0.05043693066589933 -1.4424598064321534 -1.3265054999691144
3704 -3.1983805084148207 -1.9174261747827361 -2.52421977716636
3706 0.18372257368625927 1.048822429451141 -3.160205638329342
3992 2.2495283633320686 -2.1947815242424777 -1.0826668969440083
3994 -0.2956631081819245 1.2963530115791353 2.540317196413347
2839 1.2866064672232242 -0.7183250474336063 -3.101835142967555
3165 1.4279750523534398 -0.6003719010152317 0.6296796807759377
3127 -0.5466875186115149 -1.3108871782958067 -1.8598532112583244
3164 -1.6941354242318771 0.30142747475487636 2.385638882387779
3415 -2.4998283018640435 -0.868724296064013 -4.920983622782995
3453 4.285155689791909 -3.7124228051544517 -2.8177430586170384
3452 1.4892791788212867 -3.3536341306096755 -2.1392566232540866
3703 2.529436434513308 1.7760061678657648 3.349083553900626
3741 3.7947126899066985 2.284281684752328 0.014371325088066081
3740 -6.860562860085071 1.102026600145744 5.098702493669328
3991 -1.67633713095083 -3.1720904375895653 -0.8063666824209342
4029 -2.0200970391172044 -4.03544341708515 2.7512072944168473
4028 -1.6149311795486898 2.8152829443905683 3.1461955592885897
212 1.3416019155714214 2.769130990160761 -1.2003837906250447
2913 0.611522930619043 1.5218757338796842 -0.39633479190404386
2875 0.3810087186778413 -5.574001700237301 2.899575897994328
2878 2.458054298886417 0.5405792583950066 1.903706706437207
3166 3.6707642856878815 1.8165011345814879 -1.3575890526241368
3163 4.605334216922511 -3.392979981693134 1.517476716033282
3451 -1.954361262279137 -1.9854390044213448 3.1401234702292604
3454 -3.067129271511791 -2.528026792418302 0.02049827361322048
3057 -0.8916161473632138 3.267133502221553 3.9045442331377616
3739 0.02892125507263224 2.4972001061844833 -1.282449430496052
3742 7.101856592630245 -1.607116679565445 -3.1503080395891176
3026 -2.0080928446597848 -2.895110028888457 3.1297940949826866
4027 1.422745902781086 0.3462872771750032 -0.8144080534369795
4030 -0.4397867858288872 2.2043655131313953 2.5189161619572342
216 1.2661632991451615 -2.0679680132882665 -1.7399688483507008
3060 -1.1125602722371757 0.6400484779427125 3.2549602601250114
3457 -0.9851254722315348 -1.417558599853922 1.3671555959491142
2879 -0.0742897297871523 -3.0234233017321417 2.214353388965142
3348 4.999880478803469 -4.857930400462337 -0.24680342891230123
3995 0.25164314563706647 1.8068523502660063 -0.44255247158122
3636 1.971807782741538 -1.2409721377908276 1.7991334164533872
3924 -0.10394951546533654 2.0284137432468388 -0.1810811743437153
2771 1.9555603972009414 -0.899839418525383 0.8596760408683748
3059 1.4477907830096346 1.7251808336433456 0.3031082174470364
3096 -0.11193186542391391 -0.8831599525398925 0.16870200488282155
3456 -0.38470479821303377 -2.0242740981648106 0.7348816804520365
3347 0.05926126207384152 7.595422315783094 -1.524268795224627
3384 -4.5609604765814105 0.11896935096878974 -2.362204642324732
3635 1.6461183018509629 1.3118526968999475 -1.9304149681427762
3672 -0.1840319759999514 -0.6212123292489139 -0.4674874602450499
3923 2.106196384563273 1.603833569075982 -1.8407509883439452
285 0.362954262175693 2.9044973555117535 -3.5928242669960846
2807 7.32926337783517 -4.31046989594987 3.1862873640178413
3095 0.3452674388052039 -1.1285985290968241 -3.5788581114574987
3422 -2.566303023391637 0.025550650531842148 -0.48551073778572246
3998 -0.27297570629570433 -3.8550681638388666 1.9574123419560607
3383 1.5538663557110108 2.1990375047148922 -0.8309508661205369
3131 4.29321541017378 -8.471541728159773 3.347144259287487
3707 4.06617384160541 -1.4535933322512633 1.4230114549536086
3671 -0.7395865887113607 -3.2610961046473372 3.600454628422259
3960 3.471019082182469 -1.0545633049901864 -0.2147771735774695
3959 -1.891552478180431 -0.060019072365454965 0.2871869652003202
3419 1.5618824818931436 -0.18799541492587518 -0.6822692555168084
3743 -3.6329573727839084 0.6590132942410347 3.7344309146099963
3132 0.04542125914750506 0.6345836268180032 3.647049411012009
3455 1.2590560217354303 -5.751943906277257 2.217292689477897
3167 1.507422886554977 0.06506335126045208 2.2104684660208553
3420 -1.9792122397508167 -1.7532772111210528 -2.6340601340596135
3708 -0.029574926457888152 3.1866102722309906 -2.137234257553515
3996 -0.6041449994659277 -2.963373039200019 -2.832815266129635
3421 2.5816429503131904 -2.6233689818395063 -0.2898550430954967
3744 2.021555787294901 -0.44321670979675143 1.4587796204643368
3168 3.2857341351690357 -3.444639659336158 1.8596478439422397
2843 0.23707930706172162 2.375081182393178 -2.750378181143842
3386 -2.7425426961706467 2.4515673920766203 0.21481538435732114
3349 -2.2819585889308716 0.24375794522749156 3.258782446734562
3925 3.5349244951283145 2.7587057477476318 2.4113791799097934
253 0.08887565714002829 2.661876536900232 1.0504196149055063
3098 0.048498007054641426 -1.9326872564345945 -1.5449227401644043
3133 2.910737942243335 1.3502018635573854 -1.6820509842787228
3385 0.10915577921324117 1.5614193725294025 2.387171381420245
3637 -1.5643731149383862 2.5257428334856415 0.4862529324994301
3097 -2.321734635139823 -1.8042860739560576 -0.5661857932977206
2810 0.7860535942447885 -4.147684386213601 -1.1076267351908473
3997 1.9964413645879158 -0.7876785306048254 -2.1059833526279013
