LAMMPS data file via write_data, version 22 Jul 2025, timestep = 50000, units = metal

4032 atoms
2 atom types

0.035997495690672565 41.01200250430986 xlo xhi
0.0018710803798001052 40.62511291961839 ylo yhi
-0.034520651475290265 42.190520651476234 zlo zhi

Masses

1 47.88
2 26.982

Atoms # atomic

292 1 2.886591486258957 1.6656134009367891 2.2453535631899295 0 0 0
8 1 0.1530339215399696 1.71191850719165 7.000286713205775 0 0 0
580 2 5.851959689696534 1.697576513274204 2.3483918965506567 0 0 0
581 1 5.923869556491916 0.07840200150682007 4.741702245676712 0 0 0
866 1 10.209663929413606 2.5676069426665964 0.0474926038935292 0 0 0
868 1 8.836974109681787 1.7608101093854034 2.1715859695207755 0 0 0
77 1 0.11029423292847783 10.09313549562201 4.607210858886559 0 0 0
1153 1 11.726954425699683 0.05986040395334098 0.06790088805651243 0 0 0
1156 1 11.820609001878818 1.8426796518844495 2.355530094615391 0 0 0
978 1 10.215477119176922 17.664540905430776 4.643703950746333 0 0 0
3 1 1.4435515902793574 4.28077128606747 2.2941306646772253 0 0 0
1266 1 13.135792649816146 17.72379809962516 4.618172997906503 0 0 0
328 1 3.0180087657286947 6.702546448410149 2.121459441866181 0 0 0
291 1 4.481457227442193 4.1161543886527925 2.2574828687343187 0 0 0
76 1 0.12438707008907209 11.73225322846543 2.2707297496399903 0 0 0
579 1 7.46435990995266 4.301298651473028 2.2647989500463575 0 0 0
904 1 8.775696875537657 6.7478365638314575 2.285302917312543 0 0 0
869 1 8.716375108352004 0.09465728617201473 4.772993791659707 0 0 0
867 2 10.309869659479267 4.317501869572126 2.3037801224506653 0 0 0
1155 1 13.265405715365072 4.229193745307326 2.305438889089166 0 0 0
1192 1 11.622141584568011 6.7255325009652855 2.2161418735765332 0 0 0
112 2 0.205113489172947 16.902844266600727 2.27100228556926 0 0 0
1013 2 8.80106611092277 20.22176555594573 4.520332898515094 0 0 0
39 1 1.5944414489430372 9.210763258911774 2.220881169574511 0 0 0
116 1 0.04039634569654488 16.93097455711539 7.004195846179302 0 0 0
616 2 5.796582566488363 6.73974231557646 2.164121340656367 0 0 0
327 1 4.549320614312134 9.24793992620774 2.2643937062725517 0 0 0
293 1 2.7933730457138957 0.0744908836181998 4.588242744776929 0 0 0
615 1 7.31920545549083 9.331977781873888 2.371659630081045 0 0 0
40 1 0.06976475846408031 6.715995970948506 2.2713724526256693 0 0 0
903 1 10.282122901013754 9.257490386000237 2.3243752466578633 0 0 0
1191 1 13.167040338960096 9.317178970878906 2.364334093311977 0 0 0
364 2 2.885175895881281 11.902549256693034 2.1955852097636392 0 0 0
403 2 4.493512025512069 19.436338641685904 6.920253170090718 0 0 0
577 1 5.855090554924202 0.13993506938006167 0.11647796763065496 0 0 0
402 1 4.49935385106751 17.862593384101284 4.462836156839891 0 0 0
652 1 5.8892204826933385 11.753199650382198 2.255996529755769 0 0 0
940 1 8.783276349055093 11.694390315322353 2.202363662172399 0 0 0
1228 2 11.687597429739816 11.740632559117033 2.2050885292024907 0 0 0
865 2 8.71699537931125 0.18089027499961233 -0.028849958432709807 0 0 0
75 1 1.5115375173629424 14.267575225150457 2.1798378413196238 0 0 0
363 1 4.369636319278691 14.281452990992275 2.3025991738205276 0 0 0
651 1 7.5729774132577825 14.3282153034549 2.2509504178848783 0 0 0
976 1 8.899565521390752 16.60774090143589 2.301132219149617 0 0 0
939 1 10.334814807530861 14.188125869045136 2.281224448692349 0 0 0
1227 1 13.172615598611014 14.359612723663368 2.3070692540935496 0 0 0
1264 1 11.990426153284043 16.965857856249723 2.2857337912738993 0 0 0
690 1 7.354295008083995 17.942102889773693 4.598911088157868 0 0 0
400 1 3.0112261855569216 16.880868698077638 2.104336983500526 0 0 0
111 1 1.5878911498727575 19.63507776936198 2.371089626746836 0 0 0
692 1 5.97426455371928 17.008167848879886 6.928728351064015 0 0 0
688 2 6.0256900122217525 16.857306486638777 2.2596101739478716 0 0 0
399 1 4.4666060351843075 19.66335147324802 2.38824040530485 0 0 0
115 1 1.5309442815639553 19.4342534652676 7.139418631127402 0 0 0
114 1 1.514617222694178 17.78669750453103 4.649289603479099 0 0 0
687 1 7.3215091152396 19.398670151399532 2.1413295991146692 0 0 0
975 1 10.322777074128066 19.338416294448447 2.346341749442385 0 0 0
1263 1 13.235020736691727 19.480007888761257 2.2614360953891266 0 0 0
6 1 1.5380078169205196 2.50397053131793 4.540083515579848 0 0 0
296 1 3.0762845454507484 1.737911243369147 7.105407362066541 0 0 0
979 1 10.2411375467745 19.48031187278623 6.816799849652991 0 0 0
294 1 4.550394585206614 2.536241850961621 4.716937757423574 0 0 0
584 1 5.897713419973978 1.7775368836865844 7.1311678873536115 0 0 0
582 1 7.469628149406634 2.5381732104250054 4.536437306202415 0 0 0
872 1 8.730550033873143 1.8344769163519627 7.046407904738316 0 0 0
691 1 7.355562915741725 19.36863643013182 6.969881792550417 0 0 0
870 1 10.188993687069837 2.6064591093041565 4.564109522053114 0 0 0
1158 1 13.24691185797247 2.4642104658411017 4.65988695155852 0 0 0
1160 1 11.808105496651574 1.6220868015846226 7.172337598800829 0 0 0
149 1 0.12013932173522104 20.26807973597948 4.676259195373267 0 0 0
1154 1 13.38162862964036 2.3820127360870735 0.010407565216214915 0 0 0
7 1 1.5388821755347046 4.2553823703777605 6.943636249860658 0 0 0
329 1 3.005903368634811 5.059197902167844 4.589256329206696 0 0 0
295 2 4.373155920816113 4.262344941632877 6.973439935717673 0 0 0
617 1 5.79859257496168 5.08101710363365 4.505450922906848 0 0 0
583 1 7.194634985462161 4.184182489283072 6.937920946101863 0 0 0
905 1 8.893608202123147 5.158945490008494 4.590687506002182 0 0 0
871 1 10.329998005077345 4.156275951315927 6.893030022420854 0 0 0
1159 1 13.416519878343026 4.1091817984777075 6.985117152286299 0 0 0
1193 1 11.761652061669484 5.1912287911679815 4.437452314929395 0 0 0
1267 1 13.211658233176145 19.541524888116196 6.850816664611102 0 0 0
332 1 3.0464074639184235 6.745915498298942 6.914549105910199 0 0 0
42 1 1.4866744200571402 7.532760047127171 4.652372969018697 0 0 0
43 1 1.5464625277070536 9.36138575722775 6.874330572728241 0 0 0
620 2 5.846248245913604 6.72852122605139 6.871954761654236 0 0 0
330 1 4.3517915515635694 7.535448466146825 4.554597390320688 0 0 0
331 1 4.4629432146006245 9.318367158184682 6.936676802634485 0 0 0
908 1 8.774010257130914 6.744684657040769 6.98031297405701 0 0 0
618 1 7.1328895944557615 7.640396366278729 4.565589716010872 0 0 0
619 1 7.303427387338678 9.239191277172647 7.096018830269598 0 0 0
907 1 10.211935248407451 9.307017230482455 6.889151058679576 0 0 0
906 1 10.293739641127194 7.642524168858673 4.6540316470694885 0 0 0
1196 1 11.931310461658443 6.790614617293841 6.91782240797945 0 0 0
1194 1 13.259459390032452 7.604939396715743 4.580210604443626 0 0 0
1195 1 13.289878461693391 9.268615927702326 7.037872176748274 0 0 0
1229 1 11.829916710297985 10.215029486781946 4.639738366718663 0 0 0
365 1 3.060198941515282 10.217658390473423 4.536323648858169 0 0 0
78 1 1.5831596653708737 12.756927078254373 4.491587154043398 0 0 0
368 1 3.045807293814977 11.849954806897296 7.005308289482004 0 0 0
653 2 5.843735437465635 10.033456632880085 4.6701742206001935 0 0 0
366 1 4.5310540160534325 12.650348309889019 4.524273606526747 0 0 0
656 1 6.011441627187222 11.648042269219138 6.982295722879736 0 0 0
941 1 8.824361209791142 10.155300561612698 4.681873728309808 0 0 0
944 1 8.840241463740039 11.911354671551884 7.092779113718792 0 0 0
654 1 7.307469480199692 12.58614176794094 4.651501811691835 0 0 0
942 1 10.341867496171101 12.509536629172018 4.5234762245696425 0 0 0
1230 1 13.268797147421123 12.635345136913742 4.623513486535074 0 0 0
1232 1 11.8352822516582 11.868014264324467 7.1272654965680635 0 0 0
79 1 1.4375520319975676 14.519843732180622 6.799721907721173 0 0 0
401 1 3.2215529873506523 15.382987715754899 4.485916506288042 0 0 0
404 1 3.021868582281449 16.990339101678188 6.988312647786371 0 0 0
689 1 6.054145609089962 15.375809970436979 4.604440357547214 0 0 0
367 1 4.553257007154841 14.443573686481985 6.923298099963349 0 0 0
977 2 8.834945291025845 15.096352854428691 4.614491226294246 0 0 0
980 1 8.805998426383184 16.79479885189997 6.866265793223287 0 0 0
655 1 7.367276624809623 14.329883868874338 7.022157921795992 0 0 0
1265 1 11.691562925010116 15.06360385966333 4.4972056684909525 0 0 0
943 1 10.406534356802487 14.469209530947142 6.992249050637801 0 0 0
1268 1 11.74462205729205 17.047800000433707 7.00186762262955 0 0 0
1231 1 13.279763841528363 14.332913698599516 7.0980877740150055 0 0 0
4 1 0.08920733775842096 1.5767556886311318 2.2779212305491883 0 0 0
685 1 6.005595749258572 15.134631706699158 -0.000790374421309914 0 0 0
614 1 7.318246161225229 7.505399807167735 0.0008538575798613945 0 0 0
1009 2 8.959999036635873 20.147473533059543 0.007076689550493669 0 0 0
145 1 0.08949080372568104 20.139213921750628 0.0734760087980293 0 0 0
1190 1 13.317205677108038 7.536510576043863 0.03207335021129887 0 0 0
686 1 7.442039939744661 17.608884440538954 0.04176323229017957 0 0 0
110 1 1.45437551533703 17.842064293876785 -0.015562583428146516 0 0 0
1225 1 11.657879981313911 9.931390726054275 -0.015193437224773731 0 0 0
10 1 1.5287322891667732 2.545041308336476 9.299439914074593 0 0 0
300 1 3.051159809627271 1.7432437078232017 11.768995763394738 0 0 0
733 1 5.934378597026377 20.263811898547303 13.952791698000844 0 0 0
298 1 4.580049096694343 2.61970296588068 9.397656601064009 0 0 0
588 1 6.065776265549152 1.7229086360561223 11.832751072255453 0 0 0
16 1 0.0790841177174846 1.785764327936455 16.33124862784922 0 0 0
586 2 7.481343991741165 2.556334385712943 9.328774565904128 0 0 0
876 1 8.81547043131636 1.6064273591750176 11.641191065849926 0 0 0
45 1 0.05096569040736271 5.03663616461521 9.322059365840998 0 0 0
874 1 10.30826825996252 2.3505355608292793 9.35113636783433 0 0 0
1162 1 13.22339730509265 2.424162624054649 9.370788582733558 0 0 0
1164 1 11.767852618232816 1.6948648135096254 11.69299214269402 0 0 0
11 2 1.4291195373233265 4.238105642119059 11.751408016050345 0 0 0
333 1 2.9121921760790306 5.0415839667514595 9.310091981307329 0 0 0
336 1 2.9338317684947994 6.727311018821201 11.724567943881706 0 0 0
1276 1 11.86707995957809 17.09360070520565 16.418899899145664 0 0 0
299 1 4.392487686963814 4.169872608609463 11.701762420751349 0 0 0
621 1 5.880441166881384 5.1726286292368036 9.265002350450255 0 0 0
587 1 7.318895951632834 4.183891722738396 11.760512768795033 0 0 0
909 1 8.856533780340998 4.933756010144442 9.410798617003685 0 0 0
912 2 8.870470036016888 6.747938544313808 11.636157880722822 0 0 0
875 1 10.274576280732923 4.180794171923612 11.788719084421578 0 0 0
1163 1 13.22279491389646 4.135191279087409 11.628082204715177 0 0 0
1197 1 11.858174290419974 5.053356383169442 9.240079835471779 0 0 0
1200 1 11.753870518088442 6.617565789297538 11.672492645907655 0 0 0
46 1 1.5797095551303377 7.6221004085261 9.19285373219298 0 0 0
47 1 1.4219896114904413 9.252416075728963 11.446635884630979 0 0 0
369 2 3.028369984369972 10.12289257776598 9.253680669317712 0 0 0
624 2 5.8669351346273375 6.734269137173374 11.76419887073199 0 0 0
334 1 4.4803521650145095 7.594275837786883 9.168916477151251 0 0 0
335 1 4.436506188291888 9.263431790460306 11.633235343163097 0 0 0
622 1 7.301495833161719 7.60546500655677 9.408006381097694 0 0 0
910 1 10.314376357694343 7.61239511972795 9.290078717760696 0 0 0
623 1 7.395269362388585 9.380291161731218 11.597624905281567 0 0 0
911 1 10.35519460403384 9.384791608607854 11.64127847101602 0 0 0
1198 2 13.168611712679041 7.5367878839683105 9.280375159755213 0 0 0
1199 1 13.272290476310793 9.194381742437614 11.760284278354272 0 0 0
1233 1 11.839125797318765 10.126264046503634 9.387463957146885 0 0 0
372 1 3.032823646604713 11.801500381805951 11.614457167801739 0 0 0
82 1 1.427083868393052 12.795265876999494 9.310216608696967 0 0 0
657 1 5.882240408852511 10.108886146288757 9.212964955858233 0 0 0
370 1 4.475545119533593 12.775203069049994 9.392054392178434 0 0 0
660 2 5.927282137435713 11.738877667095188 11.649584701151847 0 0 0
945 1 8.980973079895946 10.245780265189007 9.200073523432746 0 0 0
658 1 7.282756376488072 12.694076494524714 9.461660085203315 0 0 0
948 1 8.811724003128687 11.855164062469655 11.664312930157173 0 0 0
946 1 10.364946654646412 12.733042782572912 9.4466411903807 0 0 0
1234 2 13.276920070601841 12.732162665146094 9.341309613563743 0 0 0
1236 1 11.918033428867673 11.955798317662103 11.742971899479477 0 0 0
585 1 5.934420625973113 0.006498522091956229 9.326543097748628 0 0 0
83 1 1.508776163622472 14.387348216038706 11.679818175103973 0 0 0
405 1 2.92906603404967 15.359792848358225 9.324065923095112 0 0 0
1274 1 13.339117768298074 17.738848056635074 14.225315813174934 0 0 0
371 1 4.297887564962551 14.346137161227839 11.716961235730164 0 0 0
693 1 6.00185335701392 15.297182717842162 9.29720633083953 0 0 0
659 1 7.379333495803545 14.436701932379398 11.795104648109668 0 0 0
947 2 10.161555933709618 14.255391839846782 11.770411390268283 0 0 0
981 1 8.838997914852168 15.189379533285186 9.416385666142812 0 0 0
1235 1 13.182226735085086 14.28316367030851 11.716153188648516 0 0 0
1269 1 11.856507486935255 15.176073493255055 9.450977540816327 0 0 0
1272 1 11.817739890080132 16.851297984088625 11.761184318687352 0 0 0
408 1 2.965695222763174 16.9177299339465 11.716067699009084 0 0 0
12 1 0.1247251166040576 1.920651725519868 11.754616608952725 0 0 0
118 2 1.4968151656924662 17.79124264833914 9.459575513827758 0 0 0
119 1 1.6110883504217732 19.423386688125763 11.717523076710808 0 0 0
696 1 5.918451607930317 16.9942284933524 11.578619027877513 0 0 0
406 1 4.473552178705056 17.720026595333074 9.232928354076032 0 0 0
407 2 4.553776121872511 19.37637870117838 11.70352392984007 0 0 0
984 1 8.99483657222887 16.913510229716316 11.73641809209573 0 0 0
694 1 7.334013559187064 17.773140141721953 9.230960173861996 0 0 0
695 1 7.416237201013462 19.50186279141354 11.636382333244287 0 0 0
983 1 10.48127822108964 19.332839099117695 11.79341459859607 0 0 0
982 1 10.337256100772182 17.843316188049926 9.254919464781713 0 0 0
1270 2 13.202049967058915 17.749414545391303 9.303037080045472 0 0 0
1271 1 13.233275586033326 19.414297450693 11.534931879537208 0 0 0
1165 1 11.863323511998637 0.06416967786102776 14.011625623393478 0 0 0
700 1 5.954544565321336 16.961621687459832 16.473535338280467 0 0 0
14 1 1.615195132104346 2.656813589474679 14.035141387394502 0 0 0
304 1 3.062852816669092 1.789622903905145 16.559616523025372 0 0 0
117 1 0.12789919458067828 15.319730996051362 9.37970768629618 0 0 0
699 1 7.4731542327954665 19.36158971565758 16.248883319929025 0 0 0
302 1 4.502096170289956 2.5280413025531048 14.16049630739922 0 0 0
592 2 6.068667198917404 1.7002650703694244 16.302677056875766 0 0 0
590 1 7.5939158089831285 2.467121314818884 14.031610718852868 0 0 0
880 1 8.951678255719505 1.5716369564120911 16.341549796757846 0 0 0
410 1 4.311005330545695 17.691573365426578 13.996838038054198 0 0 0
878 2 10.483747637186987 2.6258720565686238 14.127309716670593 0 0 0
1166 1 13.141908082315146 2.495683565866455 14.136821378172357 0 0 0
1168 1 11.675671133003657 1.7464138981944886 16.443121007948353 0 0 0
987 1 10.400806352896014 19.471279384005264 16.388907479535046 0 0 0
15 1 1.4521784958407933 4.56885065840277 16.433870916076515 0 0 0
337 1 2.9050055209666383 5.139012323732685 14.09359044090874 0 0 0
1275 1 13.268291209933814 19.462359033755575 16.537799264916888 0 0 0
303 1 4.4645231259949 4.265605607566017 16.392293619246278 0 0 0
625 1 5.8188275093242705 5.158554058477693 14.009688625563768 0 0 0
628 1 5.961479773827355 6.814444411567382 16.36848320678076 0 0 0
591 1 7.137484939669636 4.200430812968283 16.436067551164037 0 0 0
913 1 8.75175433134485 5.133869311910584 14.07546796685708 0 0 0
879 1 10.219420362962273 4.325908212013022 16.429659198293447 0 0 0
916 1 8.882585910120328 6.702808316769055 16.29905517827311 0 0 0
1167 1 13.214812798703367 4.352948885548488 16.533797085285475 0 0 0
1201 1 11.817595294407496 5.085607465963513 14.132351584263652 0 0 0
698 1 7.343744028721945 17.765373096216393 14.050299539632903 0 0 0
340 2 3.077599139062196 6.902726970961161 16.36910573262577 0 0 0
50 1 1.5122346553827233 7.520783665149158 14.099783736604964 0 0 0
51 1 1.3886091238385854 9.265026305810114 16.35721730776567 0 0 0
986 1 10.32656589747522 17.82426864382374 14.101513422408516 0 0 0
338 1 4.458060559838238 7.486800673914179 13.991771150395959 0 0 0
339 1 4.38241614199121 9.256334416452546 16.325107701211287 0 0 0
661 1 5.789971925276411 10.12671239143091 14.039536092061589 0 0 0
626 1 7.397460708615887 7.546002161723281 14.01207290752177 0 0 0
914 1 10.413270258017272 7.6307959863931005 13.937021412882551 0 0 0
627 1 7.439326345306149 9.338386800229811 16.446712056066993 0 0 0
1204 2 11.586134607943487 6.872300700793376 16.44550127849848 0 0 0
1202 1 13.186754477287689 7.6417496140432055 13.999079184985568 0 0 0
915 1 10.316104655417567 9.321128921602018 16.461196946859033 0 0 0
1203 1 13.129380083199797 9.29200207202598 16.39251017574852 0 0 0
373 1 2.9462443145824166 10.160623328655202 14.084771193260572 0 0 0
86 1 1.4084457872082163 12.744032184760108 14.009809077491916 0 0 0
376 1 3.0448209142015923 11.82445282232918 16.260489169852804 0 0 0
988 2 8.792774451322831 17.01585761400075 16.391906125795423 0 0 0
374 1 4.419485726841006 12.660074154186265 13.899781808730324 0 0 0
664 1 5.965900832165024 11.751724498704863 16.54049011929416 0 0 0
949 1 8.767418634544507 10.123575036977288 13.967202135297129 0 0 0
662 1 7.364975898119773 12.67506864669064 13.891311843014732 0 0 0
952 1 8.896333545957015 11.841527223264373 16.347498839654005 0 0 0
1237 1 11.683961688661249 10.178409312450043 14.100335429109718 0 0 0
950 1 10.41090242569431 12.79465065529254 14.001349237029418 0 0 0
1238 2 13.171192991938023 12.583221855253553 14.062692961470992 0 0 0
1240 1 11.679194445998593 11.906734255406807 16.430516642505484 0 0 0
87 1 1.4468582163930916 14.245906197708903 16.41566372336103 0 0 0
409 1 2.925661889165098 15.138047072362621 14.09348847670617 0 0 0
375 1 4.394207153876688 14.270054235861593 16.397665189345524 0 0 0
697 1 5.704363956112056 15.127866795936121 14.135023492570639 0 0 0
663 1 7.262177944001836 14.538927912667077 16.269300557830537 0 0 0
985 1 8.879244099681735 15.243105848244994 13.91108214031938 0 0 0
951 1 10.148704600370191 14.58841443372574 16.330490017476343 0 0 0
1239 1 13.24897687891731 14.282989473116599 16.344383043233552 0 0 0
1273 1 11.75962251369781 15.159269780442523 14.103713565690715 0 0 0
412 1 2.876044639990223 16.854230533837203 16.51599546013815 0 0 0
123 1 1.360532384372409 19.32369634732485 16.27922079767788 0 0 0
122 1 1.4397170027458364 17.647745916286897 14.159439564798237 0 0 0
411 1 4.388365338178808 19.38462720688811 16.267152967160165 0 0 0
153 1 0.05062221495070139 20.236155402834036 9.511096563599025 0 0 0
88 1 0.0410038252273051 11.840990914853414 16.412706322035344 0 0 0
13 1 0.21702779317819415 0.005735073813748493 14.148534005437021 0 0 0
120 1 0.10684415520481351 17.031979858815156 11.757131551610776 0 0 0
297 2 3.1402031786362334 0.06872791888452609 9.386988295612557 0 0 0
1309 1 11.798321887148445 20.236345776894424 14.07284365958113 0 0 0
873 1 8.715259780109129 0.03261251905796314 9.347725652084122 0 0 0
301 1 3.0411751293266116 0.011130540797772426 14.375854634937024 0 0 0
18 2 1.487843156501231 2.446468959538239 18.84915744827181 0 0 0
53 1 0.09814601993506412 5.1327808403036865 18.739232763996505 0 0 0
308 1 2.9017153103980946 1.5566528444926615 21.185251379235435 0 0 0
1282 1 13.236304108299038 17.696687900680324 23.519545327632258 0 0 0
125 2 0.11313140115955114 15.260185791812859 18.7444618115115 0 0 0
306 1 4.389144821738809 2.4907340603023242 18.93254242894316 0 0 0
596 1 5.966862389869414 1.7525968511563743 21.10766976096144 0 0 0
594 1 7.42166309383479 2.5644823020846155 18.66758676613907 0 0 0
882 2 10.213555219895254 2.4921033358441753 18.762932906719247 0 0 0
1170 1 13.150268560683429 2.6110713825027925 18.80468926818093 0 0 0
1172 1 11.623213630697709 1.7106897012795284 21.202080374520847 0 0 0
57 1 0.12667825621541592 5.120596388354203 23.47869968287534 0 0 0
341 1 3.059980044015266 5.103271747685875 18.716453670355975 0 0 0
19 1 1.559042048125797 4.2725591256126805 21.139163132391758 0 0 0
994 1 10.33526887570574 17.675272120478247 23.4649089862198 0 0 0
703 1 7.344384390456542 19.54844012287364 20.98395360723936 0 0 0
629 2 5.943070715610169 5.070632235534689 18.828517694560972 0 0 0
917 1 8.728071531319486 5.148737818901774 18.704539715156827 0 0 0
920 2 8.771069461085641 6.828717950881968 21.151929862879793 0 0 0
1205 1 11.70517024904166 5.045347087005641 18.719763158200085 0 0 0
1171 1 13.142010792566989 4.404730723162045 21.094040367148114 0 0 0
344 1 3.058028355136772 6.898217905042297 21.079564486570217 0 0 0
54 1 1.5732992667515695 7.646131631643056 18.759282690123406 0 0 0
55 1 1.5394134399064925 9.433146213547925 21.10040965661296 0 0 0
342 1 4.461732331982223 7.642499967544131 18.78782577251547 0 0 0
632 1 5.899906888331225 6.695418669883493 21.047040043647876 0 0 0
343 1 4.376405086070665 9.399845106070353 21.206021978259404 0 0 0
630 1 7.440844362974584 7.622821840920836 18.8308662975472 0 0 0
918 1 10.178662453254578 7.6110336578820394 18.625687067138458 0 0 0
919 1 10.193155794600553 9.302335909587365 21.083536227314955 0 0 0
1206 1 13.165400078790025 7.78782272310599 18.718969222005082 0 0 0
1208 1 11.700732998877948 6.685560903648893 21.003308012169615 0 0 0
1207 1 13.162260627345056 9.253205778189523 21.161488314658396 0 0 0
377 1 2.968044614247424 10.324847069447735 18.71460222305278 0 0 0
90 1 1.4036881253778475 12.671204449082625 18.817776676441074 0 0 0
380 2 2.9596020928823292 11.821627378739691 21.009133809614447 0 0 0
706 1 7.446453943161944 17.877768130276017 23.562540767888557 0 0 0
665 1 5.842621380594544 10.220144849018856 18.84400327093821 0 0 0
378 1 4.337020960938074 12.716619715266853 18.703848246925418 0 0 0
668 1 5.8443662904122 11.798925222185035 21.138876041395154 0 0 0
953 2 8.688902887601767 10.235609864695663 18.75314225905192 0 0 0
666 1 7.321839294288894 12.82738119412997 18.634521918763067 0 0 0
956 1 8.789508200862361 11.914088956513275 21.042358386568715 0 0 0
1241 1 11.791109146052367 10.221464518762312 18.855176592946442 0 0 0
954 1 10.276775208648079 12.682980258011867 18.807366045343727 0 0 0
1242 2 13.173532926679822 12.758123180932836 18.712550248061145 0 0 0
413 1 3.018180545610901 15.2158596622402 18.723166214304225 0 0 0
415 1 4.391772337861245 19.276166561140762 21.06099146945184 0 0 0
701 1 5.874020087607991 15.20423934058483 18.824919192646384 0 0 0
989 1 8.80147115878244 15.175277145790702 18.71658510397329 0 0 0
992 1 8.780834098590825 16.84577931608607 21.130047723418222 0 0 0
1277 1 11.75784837997083 15.268281836969384 18.639350928324856 0 0 0
126 1 1.5411533861511704 17.622959340733313 18.836122487125884 0 0 0
704 1 5.917941647310118 16.902304297660443 21.042071358456006 0 0 0
414 2 4.413716475387601 17.774651740544975 18.76506348407294 0 0 0
418 1 4.364203030409469 17.55078454680548 23.471577942744055 0 0 0
991 1 10.177445826570423 19.43697068706888 21.17800032414942 0 0 0
702 1 7.374095117913685 17.75691027076248 18.706038610079748 0 0 0
130 1 1.3104595988534695 17.84983444137294 23.407512278954336 0 0 0
1243 1 13.198814957676047 14.364623115526754 20.95602184637166 0 0 0
990 1 10.3661953274066 17.654178815227773 18.788406816110033 0 0 0
1279 1 13.056353705920454 19.431272264702955 21.16840134936194 0 0 0
1278 2 13.29461609261387 17.695552076385102 18.813085408107174 0 0 0
22 1 1.6122013075872441 2.4679982575907062 23.419094156943018 0 0 0
1281 1 11.898643316097164 15.098524346870311 23.328547434400203 0 0 0
310 1 4.325246910307839 2.5229345021779346 23.449386477325227 0 0 0
884 1 8.857088092959321 1.5309268915948753 21.189900838021497 0 0 0
598 1 7.330445821521868 2.5565649737360903 23.40839287937779 0 0 0
886 1 10.198458861751124 2.582850588302055 23.540756642684475 0 0 0
1174 1 13.112855185201148 2.5083574062302887 23.544262460913362 0 0 0
345 1 2.9733072481297462 5.096358106468766 23.472402936306977 0 0 0
307 1 4.433659285763233 4.224356261786532 21.10470820147133 0 0 0
633 1 5.8495643726724404 5.116581213041625 23.504213906765322 0 0 0
883 1 10.18737051865604 4.235171182117548 21.01880460157698 0 0 0
595 1 7.287418561415396 4.35593138086661 21.124986205955924 0 0 0
921 1 8.806548323135601 5.101879129715218 23.38755812193454 0 0 0
1209 1 11.794439829296978 5.159122700229588 23.536153963440697 0 0 0
58 1 1.6451568705292325 7.796574656839468 23.32665830693754 0 0 0
129 2 0.07248115251987183 15.268619473654647 23.31492387210774 0 0 0
346 1 4.511877111343875 7.698992030420836 23.546716283317256 0 0 0
634 1 7.404761721266304 7.684420847362451 23.479156322617833 0 0 0
922 1 10.246289870815856 7.499799376055908 23.450239196264338 0 0 0
631 1 7.41353748084656 9.17322149067187 21.090216886315613 0 0 0
1210 1 13.13867399428698 7.693714608574765 23.480819800962216 0 0 0
416 1 2.856694117188285 16.855250346697733 21.054542929979547 0 0 0
381 1 3.0142577847314826 10.293001564425763 23.464853328041308 0 0 0
94 1 1.458951156054814 12.720784922429505 23.15868029761735 0 0 0
669 1 5.942644647824959 10.191621421592663 23.464141499179025 0 0 0
382 1 4.422917065103941 12.85983180877502 23.451787019062184 0 0 0
957 1 8.743177493178326 10.191134723848833 23.482640854963808 0 0 0
670 1 7.384974549349629 12.764995189034256 23.503444352017606 0 0 0
1245 1 11.689403860486225 10.143594974606582 23.553055346210616 0 0 0
1244 1 11.743082707184966 11.823161521171153 21.115638706373332 0 0 0
958 1 10.266370473865452 12.605255933248213 23.52609783215995 0 0 0
1246 1 13.174014867647974 12.729551383335776 23.407156786989578 0 0 0
91 1 1.4460703123191228 14.228072235057805 21.067053598283266 0 0 0
127 1 1.4286710779939455 19.41475018493689 21.150954010384744 0 0 0
417 2 2.7644528480248645 15.355724469323803 23.41335347897556 0 0 0
379 1 4.344799265911736 14.358681770197338 20.979101094080093 0 0 0
705 1 5.858310303300813 15.29108943024866 23.42776844629741 0 0 0
667 2 7.263506969674427 14.248795249381862 21.1939921007718 0 0 0
993 1 8.80013234700509 15.258083887709079 23.48056068826627 0 0 0
1280 1 11.704016803544732 16.85323416564228 21.10847658425108 0 0 0
955 1 10.217770850095167 14.326204449581157 21.136481763441914 0 0 0
1313 1 11.761140929117838 20.26690948812039 18.78585984331895 0 0 0
17 1 0.12778125431515358 0.04824756430060847 18.68591493676785 0 0 0
161 1 0.1178124874877221 20.23123135661072 18.67738684932467 0 0 0
449 1 2.967436001927903 20.27597876438922 18.57063537153639 0 0 0
93 2 0.08341610918123812 10.218873516810522 23.41357947137167 0 0 0
1029 2 8.778841255452196 20.263233635954638 23.390436638235453 0 0 0
1169 1 11.85051468807644 0.07575205836876504 18.689670930628473 0 0 0
741 1 5.86911641979387 20.199253820123634 23.397017209236584 0 0 0
593 1 5.93483143229736 0.029194533411820368 18.91539540764886 0 0 0
56 1 0.05451960213002138 6.817327463847146 21.088851025778133 0 0 0
21 1 0.0990457973310875 0.006495827165693413 23.308215844691386 0 0 0
737 1 5.830229386434692 20.31307135294855 18.676840902360997 0 0 0
26 2 1.493362480237152 2.548153163962428 28.13785138980682 0 0 0
312 1 2.870536569082179 1.6081877379850098 25.755865026512843 0 0 0
133 2 0.0644822423586047 15.232156208640749 28.06776943098462 0 0 0
745 1 6.026550359990089 20.27365511489985 27.97634972250249 0 0 0
314 1 4.371998336125881 2.4991919213265112 28.06000274369035 0 0 0
600 1 5.773194235707594 1.5408042258137007 25.78185901445153 0 0 0
712 1 5.965836884937214 16.851177010188827 30.38445764505595 0 0 0
602 1 7.301896002663848 2.530762268302922 28.100609918401215 0 0 0
888 2 8.658031720702771 1.7492942710140167 25.791895964436154 0 0 0
890 1 10.171419306582008 2.354710270392667 28.324197865106473 0 0 0
1176 1 11.691965055930863 1.625361662016874 25.74093419316414 0 0 0
1178 1 13.111321899017097 2.2799913418553217 28.107251358970885 0 0 0
423 1 4.4223583083739255 19.36916416087726 30.36676319330905 0 0 0
23 1 1.4018235108702999 4.090610826813307 25.871228706991058 0 0 0
349 1 2.8781261577995605 5.160719255659261 28.18313232125494 0 0 0
348 1 2.9805711700467654 6.752578929690866 25.90553635488453 0 0 0
714 1 7.437682995280741 17.83639324623928 32.71151725108841 0 0 0
311 1 4.455677210380494 4.141728583804383 25.81664888831679 0 0 0
637 2 5.816018592633723 5.010947302078705 28.129557843761372 0 0 0
636 1 5.951680125544687 6.837113155038074 25.865942392511435 0 0 0
599 1 7.374365395608567 4.341705679956315 25.796998503936138 0 0 0
925 1 8.696485462583546 5.18695696250289 28.31558331845796 0 0 0
887 1 10.261897953505988 4.1211396897183965 25.86106855720071 0 0 0
924 1 8.89004312050766 6.827592682063237 25.74780149482513 0 0 0
1175 2 13.123951903158355 4.094796686312599 25.78364550792199 0 0 0
1213 1 11.838565993761224 5.041175292397882 28.143021214680644 0 0 0
1287 1 13.340340958034664 19.4571279628643 30.373364865990084 0 0 0
62 2 1.4966736128493225 7.621571743477533 28.09190591614929 0 0 0
59 1 1.5658811764583986 9.30969565534423 25.736389210741546 0 0 0
385 1 2.986712317660673 10.181412117333688 28.15224373956429 0 0 0
350 1 4.5269790268003085 7.575343485620461 28.17851066005202 0 0 0
347 1 4.48189299055758 9.525325272343627 25.793306282760113 0 0 0
673 2 5.895011220327484 10.171804289186365 28.20432960994542 0 0 0
638 1 7.297271797195361 7.64158389842012 28.06691510834438 0 0 0
926 1 10.355269937624485 7.734133896647263 28.221786195888466 0 0 0
635 1 7.367882393689685 9.312410245239741 25.881965731472064 0 0 0
1212 1 11.751971315293964 6.804073604353077 25.936236397971324 0 0 0
1214 1 13.237568127361243 7.548065241864069 28.339632591706525 0 0 0
923 1 10.195727748734368 9.207239008984676 25.720012173837812 0 0 0
1211 1 13.148867343890542 9.235445346818825 25.991061074596445 0 0 0
1249 1 11.635620203536734 10.22673688586067 28.197000072668335 0 0 0
98 1 1.3031875700417568 12.706456933808962 28.114141442339047 0 0 0
384 1 2.713515984547546 11.987558005109621 25.76434902110849 0 0 0
386 1 4.401610346713171 12.685134058637743 28.058019829376178 0 0 0
672 1 5.8781734088175766 11.785575121258574 25.858304561884232 0 0 0
961 1 8.740011747942363 10.243906742811722 28.249228941431994 0 0 0
674 1 7.190289194217985 12.723138968063472 28.25246745063049 0 0 0
960 1 8.83048844778733 11.781558748667615 25.780392137647507 0 0 0
962 1 10.340853306799646 12.717808478076298 28.220087325674797 0 0 0
1248 1 11.8956431399607 11.868208496928093 25.78122202610853 0 0 0
1250 1 13.296113035008599 12.719600529161116 28.026680152524044 0 0 0
95 1 1.4076342619459707 14.369218393188989 25.569024231542684 0 0 0
421 1 2.83734556980001 15.115871397786472 28.19899426559865 0 0 0
383 1 4.321885253632042 14.52319618695324 25.680492630080813 0 0 0
709 1 5.916458088391234 15.138504189032881 28.13543731233427 0 0 0
671 1 7.244806636388877 14.358837082045127 25.843887902795103 0 0 0
997 1 8.857559172331781 15.27692377521295 28.201938252613726 0 0 0
996 1 8.944295694341776 16.766842345253238 25.818676908691156 0 0 0
1247 1 13.303558703435227 14.307865237666913 25.761325034226196 0 0 0
959 1 10.299509206006148 14.39196133073615 25.856280059688984 0 0 0
1285 1 11.887740724384486 15.214424108003366 28.041273431299825 0 0 0
1284 2 11.825251852128615 16.815837767452667 25.751175777909236 0 0 0
420 1 2.9107914105353916 16.960503385890068 25.771765240470963 0 0 0
131 1 1.4390510745124174 19.498900529893707 25.791922754912978 0 0 0
134 1 1.3821681617671884 17.734500884854988 28.16047306638868 0 0 0
711 1 7.425670591383664 19.471557991702923 30.409835042142976 0 0 0
708 1 5.850350161831048 16.949212068761458 25.878669998180523 0 0 0
419 1 4.356864654615656 19.639495437821346 25.613127406500077 0 0 0
422 1 4.4281317341491135 17.791657663257492 27.996999000647197 0 0 0
1002 2 10.34672516413855 17.810877887523034 32.755578615152544 0 0 0
707 1 7.3849256240924275 19.442008295435496 25.81724637072697 0 0 0
710 1 7.428158404641024 17.892966848561926 28.116442543426263 0 0 0
426 1 4.61007855838037 17.826646994920235 32.66574048960927 0 0 0
995 1 10.35181001993145 19.501315249123866 25.711211112399354 0 0 0
998 1 10.339894834693162 17.75197106034069 28.146014925315797 0 0 0
1283 1 13.227402453589326 19.488397624277898 25.782501249236667 0 0 0
1286 1 13.02240973087755 17.921209814204428 28.168676913418544 0 0 0
30 1 1.5226594984718351 2.5061962415030123 32.8645446838466 0 0 0
316 1 2.9454938937200987 1.5097648767775507 30.4851395014595 0 0 0
318 1 4.344995671204781 2.5125557229507933 32.68100788683235 0 0 0
604 1 5.805791144480066 1.4920165599493915 30.559899705093912 0 0 0
606 2 7.365517260105063 2.5753148611656167 32.805266860188496 0 0 0
892 1 8.61783871570456 1.6989562370504234 30.597602314955335 0 0 0
894 1 10.32421959777453 2.604829075998488 32.82897124583152 0 0 0
1180 1 11.623662508670503 1.6977151590630895 30.507447456060284 0 0 0
1182 1 13.15882277451652 2.503260044523225 32.828491523239364 0 0 0
27 1 1.37591867565644 4.1358394147719135 30.383298468825384 0 0 0
353 1 2.8857346401443897 5.064711937595327 32.74255707824031 0 0 0
352 1 2.972976325561805 6.810582413197317 30.511337781073227 0 0 0
1290 1 13.230163506035401 17.769742786831003 32.76539499525665 0 0 0
315 1 4.2450677297675945 4.11050303820042 30.340650808385625 0 0 0
641 1 5.932185703056877 4.95852041002306 32.764456648390016 0 0 0
640 1 5.914852293984211 6.793150470284954 30.613968422037473 0 0 0
603 1 7.313796471152146 4.106773656958863 30.52507103547617 0 0 0
929 1 8.714784235505164 5.109460638111352 32.87431748757166 0 0 0
928 1 8.923732573740441 6.816187142793401 30.508902960124548 0 0 0
891 1 10.24782553504628 4.367302597502218 30.451804177832358 0 0 0
1179 1 13.218613292233732 4.077028082466119 30.34868817596855 0 0 0
1217 1 11.733237085246978 5.164093324519619 32.77064996054081 0 0 0
1216 2 11.800497154471232 6.740551078214676 30.453909285347613 0 0 0
66 1 1.381430511532819 7.50217036297516 32.7791182177576 0 0 0
63 1 1.5573464439803868 9.230615620574728 30.36319221582278 0 0 0
354 1 4.430858073713228 7.557989426390794 32.85625249021216 0 0 0
351 1 4.3585222513182895 9.285263037508733 30.53124862804927 0 0 0
642 1 7.383945724072887 7.665319827218683 32.90151597528351 0 0 0
639 1 7.3536075521192625 9.373959295497052 30.635981062442188 0 0 0
930 1 10.394395049738334 7.712681016506283 32.75117545853665 0 0 0
1218 1 13.265739225914938 7.622611952932004 32.8147152931335 0 0 0
927 1 10.317424020293563 9.418978922015889 30.492469592300417 0 0 0
1215 1 13.16724655170988 9.349356268994164 30.542746723951897 0 0 0
389 1 2.8314704045087544 10.170965093889821 32.8219686966558 0 0 0
102 1 1.303247704158157 12.759144783320624 32.78049418626757 0 0 0
388 1 2.8632617715717017 11.79098542304092 30.49799897357408 0 0 0
677 1 5.782212589179837 10.155561227780915 32.83881897881649 0 0 0
390 1 4.251358955555233 12.749572029121268 32.77443207336158 0 0 0
676 1 5.759628270159774 11.835303821226503 30.541532132978826 0 0 0
965 1 8.969304306785206 10.183446039669256 32.77261302261913 0 0 0
678 1 7.140733725476697 12.77872708060929 32.83589104257393 0 0 0
964 1 8.719906595956099 12.063113689236717 30.610974655119605 0 0 0
1253 1 11.83221656142244 10.22667573806877 32.98449332899287 0 0 0
966 1 10.396433773104036 12.668956399563534 32.90485359787141 0 0 0
1252 1 11.76562323077714 11.838958810386496 30.54113944553984 0 0 0
1254 1 13.165214684853582 12.766297164759983 32.70037672005491 0 0 0
99 1 1.4914384912649237 14.421616418418369 30.432171967608735 0 0 0
425 1 2.8633176200863146 15.155830507396317 32.699129912604384 0 0 0
424 1 2.9570030938671388 16.891849245085936 30.349580133101327 0 0 0
387 1 4.4668765226632505 14.283845852680118 30.459398828117497 0 0 0
713 1 5.791819005089439 15.199900365691382 32.89637054551976 0 0 0
675 2 7.284204013962686 14.364304346549073 30.549429234698025 0 0 0
1001 1 8.690423735814447 15.211367399166214 32.786590605078715 0 0 0
1000 1 8.860384167204833 16.892140706623564 30.47851940523022 0 0 0
963 1 10.318500219805054 14.359259784385655 30.567058769628822 0 0 0
1251 1 13.253811799984954 14.419488964229137 30.419120177887063 0 0 0
1288 1 11.783498860804134 16.8865188760828 30.417341762767666 0 0 0
1289 1 11.615079043096424 15.237995146165085 32.893586419735236 0 0 0
999 1 10.428423826991741 19.400871324148167 30.354919855998006 0 0 0
138 1 1.6253494139216444 17.76625151263432 32.74359012786491 0 0 0
135 1 1.5646028966699574 19.54978273064676 30.398085533250836 0 0 0
101 2 0.08060502900172689 9.988235719173371 32.688614297910945 0 0 0
64 1 0.08392919799085212 6.758663610249284 30.347551546544793 0 0 0
60 1 0.07808094961857823 6.855135994866878 25.863376294242425 0 0 0
25 1 0.21166877626734001 0.12646522808973595 28.13778708886451 0 0 0
457 1 3.0457813825050626 20.241113723740305 27.99329143320105 0 0 0
461 2 3.026793578161734 20.279319639532417 32.8657655403948 0 0 0
1037 1 8.90233859531674 20.220293662833118 32.67191414045087 0 0 0
1033 1 8.804138104427885 20.26919766610628 28.011580128431234 0 0 0
34 1 1.43017557552507 2.6629856270416874 37.35814793526736 0 0 0
320 1 3.035840212577674 1.568045938626427 35.064696490011755 0 0 0
1189 1 11.743689887840116 4.958286181295052 42.07699532826825 0 0 -1
322 1 4.511582332130871 2.5524947438620886 37.38196116324005 0 0 0
608 1 5.946306940147486 1.675369816623635 35.09642055676763 0 0 0
610 1 7.308230859149019 2.5733906211837803 37.458097433687904 0 0 0
896 1 8.720382770102013 1.8131087231909613 35.132571758331885 0 0 0
898 1 10.285745425004151 2.6399739618616356 37.62247270694695 0 0 0
1184 1 11.666294396319572 1.6801112070231705 35.18619730423306 0 0 0
1186 1 13.173900607016913 2.597682154822693 37.40326245630379 0 0 0
1261 1 11.801850792533774 15.091070969582686 42.149917450837236 0 0 -1
31 1 1.5691019496374672 4.181403119935808 35.07726883401679 0 0 0
357 1 3.1255828277004696 5.253917111964023 37.624022736936745 0 0 0
356 1 3.048340880300403 6.772411135961828 35.05926155163863 0 0 0
140 1 0.07476499738546305 16.864024853785555 34.94711752171856 0 0 0
319 1 4.370779062394541 4.214872568248099 35.270880468871184 0 0 0
645 2 6.046149310612181 5.064631758076246 37.43713294046554 0 0 0
644 1 5.979293776062127 6.698121438254278 35.15179069297292 0 0 0
607 1 7.246024635450741 4.221865074301691 35.21278609343533 0 0 0
933 1 8.87457056893608 5.119261011805583 37.48919019013071 0 0 0
895 1 10.382820880462997 4.414888828097416 35.11617052036557 0 0 0
1183 1 13.150789090864528 4.189095954502658 35.0345787298878 0 0 0
1221 1 11.798148018718939 5.185026701965045 37.58384468891557 0 0 0
70 1 1.53714909891623 7.662217525611715 37.4539005987926 0 0 0
67 1 1.3927564379000443 9.189962280645096 35.11146429086975 0 0 0
393 2 2.91052837316536 10.150425823978066 37.41867890738984 0 0 0
358 1 4.309193112426148 7.75858831184107 37.583866593891436 0 0 0
355 1 4.4031506192355945 9.369620826746281 35.05454609323819 0 0 0
681 1 5.803128706222493 10.219644694295503 37.39263665165562 0 0 0
932 2 8.778354928166802 7.098055147168016 35.110146114479974 0 0 0
646 1 7.316115936022475 7.665679685832213 37.522271923283206 0 0 0
643 1 7.296338049609695 9.446790542845255 35.07432473801115 0 0 0
931 2 10.178578473535305 9.345697275707344 35.1451852230427 0 0 0
934 1 10.379437112314232 7.57084462640936 37.320642421898306 0 0 0
1220 1 11.696701271190232 6.844983112749428 35.03430625182032 0 0 0
1222 1 13.182013694820686 7.6605872175603364 37.635903675406176 0 0 0
1219 1 13.084268119649762 9.170882825029846 35.224906420605265 0 0 0
1257 1 11.6566804700074 10.11620902213938 37.4535785126514 0 0 0
106 1 1.3811030516011804 12.863188696878584 37.32350199753132 0 0 0
392 1 2.841512479229531 11.802788373630541 35.09063848622336 0 0 0
901 1 8.773424380821465 4.855933107899511 42.07958631471409 0 0 -1
609 1 5.841559908113496 0.03608027718890486 37.5234668927517 0 0 0
394 1 4.3828729923947485 12.756359967972683 37.34641461831712 0 0 0
680 2 5.944770742048098 11.85931785077597 35.19362553212438 0 0 0
969 1 8.816408854524758 10.16034184647414 37.39890563530693 0 0 0
682 1 7.246509456708591 12.807173236038306 37.48766562645805 0 0 0
968 1 8.809892021176589 11.992977259404405 35.054758614444026 0 0 0
970 1 10.118783266191935 12.65006188907897 37.462928458165074 0 0 0
1256 1 11.704696634346906 11.871187274586067 35.212717267641295 0 0 0
1258 2 13.153572432344665 12.600963651418587 37.37555116954598 0 0 0
1296 2 11.668626328392655 16.777197155064528 39.66430778959919 0 0 0
103 1 1.5557257797383717 14.30193440227449 35.07596980338872 0 0 0
429 1 2.9845085718515176 15.42973797739572 37.426951971757404 0 0 0
428 1 2.9860744846282805 16.966793147117514 35.05531443236315 0 0 0
391 1 4.5432454428052065 14.224902928405301 35.092044777935904 0 0 0
717 1 5.8307262651645635 15.351602747141248 37.344886284211945 0 0 0
716 2 5.963898055277479 16.97800106149726 34.978704138230384 0 0 0
679 1 7.4358361555314385 14.47868880928368 35.26776535530137 0 0 0
1005 1 9.006799889920593 15.346563886010355 37.48353043845181 0 0 0
1004 1 8.78583783600822 17.055111854343462 35.0339310543064 0 0 0
967 2 10.308126096147932 14.331674567564232 35.10212685584676 0 0 0
1255 1 13.185015522724377 14.421493483844854 35.038476816313484 0 0 0
1293 1 11.778637852906623 15.044307672715057 37.45601085130641 0 0 0
144 1 0.04859512650018213 16.973902189592135 39.6139419954117 0 0 0
139 1 1.5812609557195205 19.509554603926404 35.03934133860117 0 0 0
142 2 1.5682806992915277 17.82210077498381 37.37791436265018 0 0 0
72 1 0.13740115441810977 6.875000419045283 39.80125664073588 0 0 0
650 1 7.291187534874297 12.371763296343177 41.93623414815644 0 0 -1
427 1 4.479768750280221 19.489293961939005 35.08649092770829 0 0 0
430 1 4.501001521923879 17.84617538730284 37.42651630594676 0 0 0
715 1 7.3100377023792396 19.63613476765906 35.0094027932899 0 0 0
718 1 7.336785517615318 17.87492469472136 37.433028296653504 0 0 0
1292 1 11.608501325366698 16.884551400559907 35.117858588950156 0 0 0
1006 1 10.248216805950241 17.926018187047358 37.544284149776296 0 0 0
1003 1 10.231891862848304 19.50470623214501 34.97948693140505 0 0 0
1291 1 13.17364147459191 19.528093426377303 35.15808596725116 0 0 0
1294 1 13.151900210699123 17.526907192176125 37.44725034119371 0 0 0
324 1 2.9662917682956516 1.6575654505177764 39.606436928865975 0 0 0
465 1 3.04541505367477 20.226738997004787 37.4725375742232 0 0 0
938 1 10.28421509577456 12.44956981790539 42.128136940611526 0 0 -1
612 2 5.732823409548688 1.6695438222966636 39.774282762165804 0 0 0
900 1 8.65963673423743 1.7738958294776972 39.9183974041589 0 0 0
1188 1 11.817405385133958 1.8450237860362497 39.82829196211489 0 0 0
720 1 6.065784942265606 16.913704781697902 39.949677729883405 0 0 0
1185 2 11.830533196734537 0.12159564284794507 37.584111066301084 0 0 0
35 1 1.5420989929449602 4.262357865540044 39.787706978216605 0 0 0
719 1 7.36856754382477 19.4584451602555 39.7870486773616 0 0 0
323 1 4.332470734708472 4.104596647176338 39.71558932987196 0 0 0
648 1 5.806562847971631 6.704363661354859 39.69152325056005 0 0 0
611 1 7.404667347515543 4.1522529541940125 39.719948141551576 0 0 0
899 2 10.253737977072765 4.4009176552146725 39.8719464170655 0 0 0
936 1 8.767677897405926 6.844636809579934 39.88090046877457 0 0 0
1187 1 13.311108295300322 4.180822790255863 39.75545120078117 0 0 0
971 1 10.306716091225256 14.336231882340796 39.84811941662254 0 0 0
37 1 0.09479742181419287 5.13193220646113 42.17914121792444 0 0 -1
360 1 2.887459224615106 6.818864858810672 39.99918274106599 0 0 0
71 1 1.6115529668169468 9.41122023958265 39.74715133426161 0 0 0
359 1 4.458973133062994 9.229572365051101 39.787942162478195 0 0 0
647 1 7.321411546733675 9.370802175025034 39.72461793281866 0 0 0
683 1 7.42331493101004 14.291363220808414 39.833187867160895 0 0 0
1224 1 11.73482040653381 6.800448938528983 39.922217319879174 0 0 0
935 1 10.286789292071095 9.281536572170388 39.72234684478233 0 0 0
1223 2 12.993640501620927 9.296733384478275 39.82137389547821 0 0 0
1259 1 13.203524956749249 14.348730727700051 39.78377124959115 0 0 0
395 1 4.386161475338263 14.396612530060569 39.66016710366339 0 0 0
396 1 3.0561895996043313 11.85391904478154 39.59863319167105 0 0 0
38 2 1.4960926914094248 7.593173339151113 42.17098547250998 0 0 -1
684 2 5.920832711246867 11.74778937334792 39.685712801617214 0 0 0
649 1 5.961787312533388 10.136398839234355 42.05496446530303 0 0 -1
972 1 8.71221520935501 11.76661610323442 39.640869308234976 0 0 0
431 1 4.602131681312501 19.50980880227888 39.790593046603185 0 0 0
1260 1 11.644543892286853 11.849621976366087 39.708840448533216 0 0 0
143 1 1.5661975321406247 19.419496941769548 39.71976795294977 0 0 0
1008 1 8.69504770525514 16.90803372813693 39.751441348872355 0 0 0
1007 1 10.227596939670539 19.43116197646372 39.85516158643081 0 0 0
107 1 1.5707950596444915 14.398637718619609 39.70405631356124 0 0 0
432 1 2.984271340676825 16.993966961988445 39.79063850919973 0 0 0
1295 1 13.036635857448964 19.272955749282094 39.77639721528963 0 0 0
109 1 0.14371440625331905 15.164349635534242 42.10352071029287 0 0 -1
937 1 8.89433940056045 10.053120733943318 42.14999072850319 0 0 -1
897 1 9.0102594373631 0.1572848373201088 37.484106413495844 0 0 0
974 1 10.330269681631354 17.714726137446043 42.09159291747815 0 0 -1
973 1 8.897946758789008 15.138152578939554 42.06703841061514 0 0 -1
33 1 0.037146998805098974 0.03657257848128983 37.45529230028919 0 0 0
36 1 0.23942699028890682 1.6377052783669084 39.82996620830323 0 0 0
397 1 2.9464251725243735 15.239760144786768 41.97339742350266 0 0 -1
32 1 0.2472798239166896 1.5728362136164975 35.0459451701501 0 0 0
105 1 0.0775678339695143 10.193088584311155 37.50134213767267 0 0 0
2 1 1.5083201060231486 2.5504747566638346 42.175498804854655 0 0 -1
362 1 4.375034183910274 12.738304765212098 42.01781277489919 0 0 -1
290 1 4.37166494471745 2.424551437479155 42.09514367788941 0 0 -1
141 2 0.06250723457844903 15.290019970626771 37.38634770296976 0 0 0
613 1 5.973823787785067 5.082505721506673 42.15425095502593 0 0 -1
74 1 1.4083866211657183 12.53165003641981 42.01096799729536 0 0 -1
326 1 4.473092426647537 7.650539676746323 42.07492970765413 0 0 -1
398 1 4.613682140094698 17.790505481698897 42.12153569359187 0 0 -1
361 1 2.9376449761960415 10.115117555711716 42.14363404700699 0 0 -1
325 1 3.0760809992606983 5.120006506991153 42.14826781423422 0 0 -1
1262 1 13.224095437344596 17.711001807616977 42.04815393939585 0 0 -1
1226 1 13.197540641264876 12.57403393239583 42.168339223264105 0 0 -1
902 1 10.34563104337752 7.471797282339321 42.112940608458956 0 0 -1
289 1 2.99751136163256 0.010473078438981247 42.179808441154485 0 0 -1
108 2 0.03795336234672675 11.9257035493658 39.67696086873718 0 0 0
177 1 0.041132556624468464 20.243080320818013 37.58112815060095 0 0 0
578 1 7.216247026868551 2.5532277005987813 42.18985499317507 0 0 -1
436 2 3.0268439585039877 22.134377254266038 2.2203397875732533 0 0 0
1333 1 11.778264500043223 25.339315583550132 -0.03143040011277862 0 0 0
437 1 2.8855123840701182 20.369458468300706 4.688614453114109 0 0 0
724 1 5.84248709628013 22.11982366465436 2.365246317235365 0 0 0
220 1 0.10244903352266725 32.212059058313535 2.313853006736794 0 0 0
1012 1 8.876733044393694 21.805900330278984 2.2339369142002727 0 0 0
1300 1 11.729434088489029 21.86424873477711 2.1531001944134416 0 0 0
147 1 1.6436717862397887 24.63259076970997 2.43880481887508 0 0 0
435 1 4.554769164834755 24.63157105421953 2.3056232451706435 0 0 0
1157 1 11.736314519691573 40.5832757076454 4.669898073317401 0 -1 0
723 1 7.401179352008489 24.494239246148872 2.2880553638073113 0 0 0
1011 1 10.273513447069844 24.417975215176916 2.1782319144963367 0 0 0
1299 1 13.245181909925497 24.529512696855722 2.3791872402716328 0 0 0
258 1 1.3614231531561247 38.09543465537661 4.771042080481737 0 0 0
472 1 3.182050451558017 27.038175789223747 2.3691602756999455 0 0 0
183 1 1.7222228236567223 29.660552105473553 2.4201940370468167 0 0 0
548 2 2.9823726440865532 37.18555426838945 6.930336160406993 0 0 0
760 2 5.881570316149346 27.11187849289767 2.2822428507119255 0 0 0
146 1 1.524594955508249 22.882310331574836 0.030594897540902055 0 0 0
471 1 4.586942589717164 29.686545023091043 2.4058317390597863 0 0 0
1048 1 8.767913306663893 27.006477924704324 2.366658324788662 0 0 0
759 1 7.390334097576759 29.485664845706335 2.2819418024099907 0 0 0
1047 1 10.268991223521985 29.592777315206416 2.2137105401872472 0 0 0
1336 1 11.836866878564747 27.17468655442839 2.3627111651876613 0 0 0
1335 1 13.046838224977748 29.686684127808608 2.367532518338164 0 0 0
433 1 3.047049116870178 20.497050050771758 0.11444490069942215 0 0 0
470 1 4.491131587483766 28.033781848363564 0.005268098253767235 0 0 0
508 1 2.95678807749737 32.279756090693716 2.398076205628222 0 0 0
1411 1 13.16630376786737 39.662624567018305 7.110082427443168 0 0 0
1409 1 11.657403845017964 35.57287059813259 4.578507825870086 0 0 0
796 1 5.892809433447946 32.29339592363504 2.256044869095748 0 0 0
1084 1 8.890774835758732 32.1522356423977 2.352417010939579 0 0 0
1375 1 13.212304142271703 34.65988470142164 6.92041806400996 0 0 0
1372 1 11.760284538144466 32.26933213328817 2.115796761577966 0 0 0
1121 1 8.783953457564497 35.65645998864586 4.674823015303305 0 0 0
1087 1 10.229282894348543 34.694855055286574 6.92727028075034 0 0 0
722 1 7.534054007647768 22.8509718403228 -0.012581688269699548 0 0 0
219 1 1.426482943620078 34.74344124190151 2.3264051945693778 0 0 0
544 1 2.8908876623124757 37.292344992347466 2.3347076290452837 0 0 0
507 1 4.320710227770957 34.81738980348654 2.39553842474593 0 0 0
832 1 5.810152899677526 37.21708224824949 2.3522136390727093 0 0 0
1124 1 8.702261016872464 37.224045756923495 7.060067979246071 0 0 0
795 2 7.2640855191987646 34.68956602925773 2.340847141480137 0 0 0
1083 1 10.078968894795503 34.69927692440482 2.2479949636733143 0 0 0
1120 1 8.67758721417246 37.16301672849352 2.2917490050199345 0 0 0
835 2 7.365690970532258 39.76066475582486 7.016197574818342 0 0 0
1371 1 13.257242319362831 34.66859390857 2.215785798075505 0 0 0
255 1 1.439318210601753 39.67061790962307 2.349870859967297 0 0 0
1123 1 10.211856185620888 39.906845708441175 7.095335746538972 0 0 0
799 2 7.330356732955071 34.70847765867123 7.152344903716393 0 0 0
543 1 4.49440466088095 39.77109137179493 2.3935369460583633 0 0 0
259 1 1.576839614274598 39.72253937989573 6.967022417734417 0 0 0
1122 1 10.134270627295924 38.11031755876712 4.677562895910356 0 0 0
831 1 7.4468099176609455 39.782011694453075 2.3224888015023653 0 0 0
1119 1 10.229811422585557 39.92537769257513 2.3023128625846176 0 0 0
1408 1 11.738923644315198 37.32357281709148 2.346635717438456 0 0 0
1407 1 13.277175910692264 39.86988511615289 2.3208102154350505 0 0 0
836 1 5.87640357511651 37.305256838020306 6.999988068662852 0 0 0
834 1 7.341461360852776 38.210403441634064 4.699776185475803 0 0 0
833 1 5.902634385250884 35.49103581339156 4.593655132744362 0 0 0
150 1 1.5202777051645895 22.790842242617938 4.68673716893417 0 0 0
440 1 3.066886666755277 22.034292880149316 7.072055077453216 0 0 0
546 1 4.377685334559321 38.1050512614947 4.57237309325216 0 0 0
1410 1 13.171297052776925 37.948871259070295 4.546345628084986 0 0 0
547 1 4.3102152254943995 39.74865585459442 7.024417438112757 0 0 0
438 1 4.397107425359671 22.934465008546272 4.682145783982546 0 0 0
728 1 5.817694482107956 22.05761305359409 7.183178417928119 0 0 0
541 1 3.040954049665042 35.677727808782926 -0.013414149986853172 0 0 0
726 1 7.565069180344673 22.77100356308316 4.716457104764868 0 0 0
1016 1 8.87819915885935 21.91222786523365 6.901130961463446 0 0 0
1014 1 10.29859572184845 22.818044289373994 4.505878225733398 0 0 0
1302 1 13.211164180432993 22.991508100343683 4.763359980164211 0 0 0
1304 1 11.737346393346494 22.037461703246777 6.961319003467063 0 0 0
151 1 1.4913018645486809 24.52168916679847 7.01142812351759 0 0 0
473 1 2.8104976095301293 25.49886816621969 4.674242116283663 0 0 0
476 1 2.945719288677047 27.133951649871317 7.030146184160566 0 0 0
439 1 4.416967220757599 24.574772387880152 7.104321995060362 0 0 0
761 1 5.993101906778533 25.385351370836307 4.6749059424824155 0 0 0
727 1 7.298906188212515 24.610982490510107 7.000371987605834 0 0 0
1049 2 8.946203676619602 25.47774834755414 4.609672650494068 0 0 0
1052 1 8.945403609603352 27.044776238213274 6.958220973408708 0 0 0
1015 1 10.383506721737215 24.551380795356636 6.931400059089012 0 0 0
1303 2 13.299750458508143 24.51126521943084 7.018123970615877 0 0 0
1337 1 11.810741332365213 25.479291489873113 4.696900079287384 0 0 0
1340 1 11.847980649031616 27.172585744149217 7.004721006205584 0 0 0
186 1 1.5230981892317033 27.99053184970697 4.625043847682502 0 0 0
187 1 1.478977425109451 29.524268324300806 7.063375307505072 0 0 0
509 1 3.077079771357658 30.53843482046241 4.732027486758138 0 0 0
764 1 5.824115507667087 27.059371725926336 6.985439853767743 0 0 0
474 1 4.464644096649854 28.132474202497672 4.763646516010123 0 0 0
475 2 4.380993048488583 29.622615441867413 7.145251799862857 0 0 0
762 1 7.441710742179722 27.70453461281685 4.631793052268811 0 0 0
763 1 7.323907261242993 29.540099084208094 6.935340528519891 0 0 0
1085 1 8.884117902575017 30.376304309273053 4.588251880194408 0 0 0
1050 1 10.380998768108736 27.96344567518964 4.653490069934042 0 0 0
1338 1 13.165924974310451 28.02198532851069 4.695806362836683 0 0 0
1051 1 10.292890883601158 29.71729244942136 6.984792502201879 0 0 0
1339 1 13.152936256242914 29.669548505006457 6.930003021632221 0 0 0
1373 1 11.71601009049676 30.527111126271645 4.61480001774848 0 0 0
512 1 2.982872655536745 32.10130712074801 7.0710778304648 0 0 0
222 1 1.5536347017462258 33.00941456900818 4.674046135737251 0 0 0
797 1 5.865122193635375 30.6821713433093 4.766374789748397 0 0 0
510 1 4.282459855443199 33.181441147158296 4.616438836545764 0 0 0
800 1 5.907633480132488 32.18392283044325 6.969856035535534 0 0 0
798 1 7.47303660410081 33.05726538539204 4.654284115652296 0 0 0
1088 1 8.823298402582388 32.27189970076865 6.903289334801891 0 0 0
1086 1 10.454128709366923 33.06872639913993 4.61114693093692 0 0 0
1376 1 11.717985468330243 32.18452495443835 7.13477141995296 0 0 0
1374 1 13.288111788865494 33.068263269781745 4.6110203961019245 0 0 0
1412 1 11.537458565166169 37.1677739466829 7.067924449646542 0 0 0
223 1 1.5501563034646981 34.69154619003736 6.983965958873203 0 0 0
545 2 2.8171557575123023 35.60223457540476 4.763945357780251 0 0 0
511 1 4.39831192825036 34.71068972104813 7.003781313686227 0 0 0
542 1 4.521459276270892 38.03831257840749 -0.024839229724317125 0 0 0
1046 1 10.24093692727833 27.89692393378212 0.055265937324832065 0 0 0
725 1 6.006617956421606 20.416371940989944 4.73408755739048 0 0 0
1301 1 11.78870338889862 20.436783773023606 4.515846126957268 0 0 0
793 1 6.017541266489607 30.48309188252575 0.03831267944016456 0 0 0
148 1 0.15136729310693164 22.115393900518555 2.224146895898953 0 0 0
505 1 2.9936070760435323 30.521159477402477 -0.0014781120349047563 0 0 0
1405 1 11.690257029617968 35.46658098918354 0.00605167711371378 0 0 0
829 1 5.8902316749062535 35.61419595564009 -0.005217332737674045 0 0 0
1 1 0.06104489114550657 40.6216925116537 -0.0016103349400561767 0 -1 0
794 1 7.432786890646109 33.08296477569552 0.06286804510646227 0 0 0
218 1 1.4813974382120403 32.998746110431334 0.0008508320620294607 0 0 0
1370 1 13.266499402954548 33.077090280285496 0.011403159322387037 0 0 0
757 1 5.9110329124055445 25.416047908032525 0.0628671458211801 0 0 0
154 1 1.4018551152717118 22.910053423312117 9.441428601422981 0 0 0
444 1 3.0510787547120186 21.929741345520508 11.792285692640213 0 0 0
1420 1 11.847576535336483 37.274260907664 16.448167761740965 0 0 0
1131 2 10.490183176912486 39.78127543567936 16.326932579464216 0 0 0
442 2 4.375031460338635 22.91809278731819 9.383087650265638 0 0 0
732 1 5.9275748523228655 22.04345331927926 11.842613070879489 0 0 0
265 1 0.19516133636046104 35.59623505437272 14.105689559090035 0 0 0
730 1 7.375369309975208 22.8721790856742 9.288859629696812 0 0 0
1020 1 8.973072813761776 22.124332315709808 11.729004787386128 0 0 0
589 1 5.908152178214025 40.543482866056415 14.160556887068763 0 -1 0
1018 2 10.406027745921492 22.905151681545238 9.339955952141242 0 0 0
1306 1 13.25959787968971 22.912303909968927 9.220397062557842 0 0 0
1308 1 11.846794145619153 21.930524234846327 11.781606868135674 0 0 0
155 1 1.3088007542662081 24.564858877431252 11.607321676175687 0 0 0
477 1 2.9332622616134416 25.219952104624742 9.40805686066627 0 0 0
1418 1 13.326352668645292 38.033411980726115 13.999139681407646 0 0 0
443 1 4.385687030488141 24.448787636356446 11.72243666139952 0 0 0
765 1 5.848212728478678 25.31421724246289 9.425054507040109 0 0 0
731 2 7.2713982410633635 24.441019342139036 11.59466487499346 0 0 0
1053 1 8.746640330050754 25.238863713987925 9.317226612849607 0 0 0
1056 1 8.810319776653865 27.00277322829756 11.745999140778611 0 0 0
1019 1 10.26284820315044 24.533843029518252 11.495148760582886 0 0 0
1307 1 13.284013064858616 24.489555977715433 11.764684643342745 0 0 0
1341 1 11.831472429821345 25.39404146710687 9.381820163091238 0 0 0
1344 2 11.657833115017242 26.96628403180071 11.793087353130087 0 0 0
480 1 2.945675999706706 27.091444372907723 11.7445476069115 0 0 0
190 1 1.5916087219805264 27.918670258744058 9.266262650726771 0 0 0
191 1 1.4429526543743831 29.564595704252994 11.659723322221184 0 0 0
768 1 6.013689961162093 27.067393063949265 11.656144009007157 0 0 0
478 1 4.479949020762675 27.998036904611187 9.451897780534058 0 0 0
479 1 4.468308636525659 29.648018321041715 11.750566295387038 0 0 0
801 1 5.7900343492474455 30.482511455949044 9.252954914333964 0 0 0
766 1 7.316430873732278 27.928168684636162 9.374482954508684 0 0 0
767 1 7.594416569234549 29.636127154609863 11.708887945040576 0 0 0
1089 1 8.786018832531806 30.453723223128375 9.341284032151538 0 0 0
1054 1 10.345852437722746 27.94694484752116 9.478350649680694 0 0 0
1342 1 13.171260071164152 27.938737285003302 9.563364825115295 0 0 0
1055 1 10.367613168763304 29.581812767878194 11.65635213281156 0 0 0
1343 1 13.143016472190581 29.692198215755326 11.815187780586507 0 0 0
513 1 2.8978866911825394 30.61423197691324 9.484570174167136 0 0 0
226 1 1.4813790573456722 32.95273869152776 9.229167177745564 0 0 0
516 2 2.9064166386583135 32.21017670025398 11.715531461384618 0 0 0
1419 2 13.181326719571532 39.830172890094595 16.316220181771833 0 0 0
514 1 4.4475546892734865 32.893080632707246 9.50890677144812 0 0 0
804 1 5.899042473112147 32.12637827983413 11.704539163712004 0 0 0
802 1 7.410292426319127 33.069326291963186 9.305840391262343 0 0 0
1092 1 8.839979923020753 32.16541960483805 11.613106075706778 0 0 0
1377 1 11.797233334189276 30.455749315634982 9.40834581650107 0 0 0
1090 1 10.251209184862025 33.052006708949655 9.4446335419865 0 0 0
1378 1 13.280554679716026 33.165626338528554 9.364477102343226 0 0 0
1380 1 11.74321098490453 32.13587118822138 11.775384327900014 0 0 0
227 1 1.4848961079318075 34.69334866222045 11.5685212647086 0 0 0
549 1 3.0225998625364254 35.572651167433634 9.271636845010738 0 0 0
515 1 4.4184943923533115 34.67240862528936 11.6894603729569 0 0 0
837 1 5.944471993155671 35.64307348210874 9.345976091721669 0 0 0
840 2 5.817362851256569 37.20239685310049 11.689179120670232 0 0 0
803 1 7.417283743566181 34.789398091209996 11.676223474713602 0 0 0
1125 1 8.941034995044536 35.57804583835451 9.31410354213902 0 0 0
1091 1 10.368931587032774 34.856578638980274 11.703379362873434 0 0 0
1379 1 13.187031318999257 34.63564629373217 11.69267825924223 0 0 0
1413 1 11.856928147701318 35.591497741125664 9.272816566798737 0 0 0
552 1 2.903000971401432 37.172682959983526 11.8371467117363 0 0 0
262 1 1.5657081151888386 38.16253745104187 9.399452043688564 0 0 0
263 1 1.6239333534436962 39.8631546054695 11.707815020343077 0 0 0
550 1 4.301201016420041 38.14157058965503 9.31954763451786 0 0 0
551 1 4.499817876747759 39.851623146672274 11.595229790060364 0 0 0
1128 1 8.875825357863578 37.10635144090373 11.781093289521253 0 0 0
838 1 7.268840022002814 38.09173564879695 9.36259984743697 0 0 0
839 1 7.328584373592243 39.776717123266536 11.736508930321753 0 0 0
1126 1 10.408989573058147 38.16028895413887 9.424495036409251 0 0 0
1127 1 10.406708740683314 39.8350839301229 11.79802291264315 0 0 0
1416 1 11.85082788489854 37.20599213006049 11.78137332011475 0 0 0
1414 1 13.180750413659997 38.03491209604754 9.401325739334911 0 0 0
1415 1 13.327600673203163 39.797637450188844 11.854741601486783 0 0 0
261 1 0.14607451920018813 35.54492362025302 9.236843630117123 0 0 0
158 1 1.5342666708469734 22.912608798186657 14.035666587578936 0 0 0
448 1 3.0256921561166745 22.007127120658126 16.322216086143566 0 0 0
193 1 0.03805279039818288 25.529011936012164 14.10996178171787 0 0 0
842 1 7.282321077694367 37.993985004190144 14.176164952983731 0 0 0
446 2 4.411514822823447 22.859607028547728 14.018723317997535 0 0 0
736 1 6.130217213663082 21.885063318459135 16.23463964907981 0 0 0
268 1 0.050415421769714995 37.42205529227571 16.56729420257128 0 0 0
734 1 7.350319750543627 22.857126638452968 14.053265697074544 0 0 0
1024 2 8.89754323871861 22.038504054126705 16.3156773485928 0 0 0
1130 1 10.389014833028 38.16646949056879 14.221881570638695 0 0 0
1022 1 10.281763100204333 22.72947639173717 14.01642636126321 0 0 0
1310 2 13.164306248490666 22.807689444685064 14.169102203090558 0 0 0
1312 1 11.767865286270194 22.03053617367526 16.402544303123324 0 0 0
159 1 1.5505415378579053 24.4701580447584 16.37775276843613 0 0 0
481 1 2.962983367288054 25.383062544590313 13.97152319579944 0 0 0
484 1 3.0475426084614283 27.088612149730633 16.481450926106344 0 0 0
1132 1 8.899707204590326 37.349458414946625 16.418984057767286 0 0 0
447 1 4.550584798601145 24.479955427851298 16.240058219251516 0 0 0
769 1 5.9506941575267245 25.399873510927048 13.98837272860786 0 0 0
735 1 7.470964789561401 24.54525239807365 16.494315250621213 0 0 0
1057 1 8.885552716576852 25.31888824528341 13.977361389099098 0 0 0
1023 1 10.36919258815518 24.622642807055385 16.487479218900788 0 0 0
1060 1 8.863751152124191 27.170867913541954 16.308246860183154 0 0 0
1311 1 13.33164965378632 24.54956769650287 16.306780275668963 0 0 0
1345 1 11.791838947194815 25.438188785289658 14.041719864312789 0 0 0
1348 1 11.833113187283264 27.065967259245983 16.39930142144628 0 0 0
194 2 1.452770059818761 27.933876549261676 14.092224321074946 0 0 0
195 1 1.4615906976715822 29.584071215504466 16.382979535561645 0 0 0
772 1 5.879209636420839 27.19108013511127 16.516307306956424 0 0 0
482 1 4.487361951484279 28.082567026959982 14.062853315888335 0 0 0
483 1 4.534239072253002 29.635380190989977 16.39384575195235 0 0 0
770 1 7.5120109829854655 28.03236079441673 13.999244045604335 0 0 0
771 1 7.321542351302223 29.769706030169836 16.241904210892752 0 0 0
1058 1 10.311909173792587 27.92380449461247 13.923992455571943 0 0 0
1346 1 13.131330723906228 27.89118692327933 13.898276586067004 0 0 0
1059 1 10.24015507804653 29.66396297381412 16.221505947859498 0 0 0
1347 1 13.269253130891007 29.556662473518177 16.341494969772494 0 0 0
517 1 2.9272779216426543 30.33704044484923 13.95519013579307 0 0 0
520 1 2.8327316799671105 32.09991490208932 16.34563497299952 0 0 0
230 1 1.4760710468028202 33.04479879994996 14.054047976369107 0 0 0
805 1 6.023213889294928 30.54388751365113 14.02290406124529 0 0 0
518 1 4.443778151754405 32.88133947985999 13.87429080867767 0 0 0
808 1 5.8705533567273065 32.24753199357111 16.319883070475548 0 0 0
1093 2 8.827759126333568 30.45676122217867 13.964964050345698 0 0 0
806 1 7.381664123004251 33.12477150706184 13.922559214251999 0 0 0
1096 1 8.97196270712827 32.14753126792134 16.262493458258497 0 0 0
1381 1 11.762878689573396 30.482399941657643 14.14324886961496 0 0 0
1094 1 10.242961413472786 33.02372314700749 13.976615125567783 0 0 0
1382 1 13.228578508455417 33.07947597507085 14.050963076510527 0 0 0
1384 1 11.945805019192543 32.08024839091258 16.4543192420999 0 0 0
231 1 1.557379843236085 34.678303196607565 16.568031114001855 0 0 0
553 1 2.854245439884449 35.48922407598543 14.18716026989379 0 0 0
519 1 4.360791214571518 34.7194913909699 16.43634478643991 0 0 0
841 1 5.965982349031755 35.54815461464593 14.022093286181429 0 0 0
844 1 5.900278126239911 37.299889724363986 16.553096443036267 0 0 0
807 1 7.329643427545142 34.727954862351524 16.29947270428746 0 0 0
1129 2 8.809625758090524 35.54689885332799 14.036109153595627 0 0 0
1417 1 11.77502397395052 35.596442975022576 14.070769573100833 0 0 0
1095 1 10.067433100612293 34.8060034396875 16.38808933599334 0 0 0
1383 1 13.075339120801313 34.62982147547399 16.344767717069928 0 0 0
267 2 1.544900715316855 39.78889155001871 16.443858748429907 0 0 0
266 1 1.5259110794639763 38.22225738357787 14.058418515564902 0 0 0
556 1 2.9590251085736803 37.48833263488729 16.444039116682138 0 0 0
196 1 0.09546273549431489 27.141352068506404 16.26023562967464 0 0 0
555 1 4.463051923740872 39.85688621825889 16.653816125195178 0 0 0
554 1 4.483120099559249 38.12414692317116 13.98175860995788 0 0 0
843 1 7.371480021720001 39.796958106824036 16.423233973800542 0 0 0
877 1 8.998755552715151 40.546078017247325 14.093803395267644 0 -1 0
1021 1 8.887529377663965 20.3659053572252 13.977171649655975 0 0 0
1305 1 11.82184107954402 20.40772959564415 9.379309021037084 0 0 0
441 1 3.040265084291243 20.32681019771166 9.417307917557679 0 0 0
9 1 0.061404478640701254 40.61139411605999 9.340953376127116 0 -1 0
729 1 5.892218611690957 20.35419606588714 9.367526832939012 0 0 0
445 1 3.1008257078777044 20.37204211061513 13.958909255448495 0 0 0
157 1 0.08707229163575639 20.345393506709126 13.970031870287562 0 0 0
1017 1 8.948626611580067 20.385945565629047 9.235770346180242 0 0 0
1161 2 11.761757718988084 40.62501559321773 9.4958444799855 0 -1 0
162 1 1.6597113089090323 22.705446871965435 18.578950361698322 0 0 0
452 1 3.090919291167409 21.74178937259323 20.85944118964444 0 0 0
197 1 0.05479904679211155 25.201564314438876 18.767151239981512 0 0 0
450 2 4.366262746498717 22.7637308406765 18.603910005866773 0 0 0
740 1 6.0335883322676676 22.01717004351111 20.995064278961284 0 0 0
738 1 7.318429757409752 22.81866927093775 18.662489325012935 0 0 0
1026 1 10.227839540811882 22.839167751010354 18.70317309747225 0 0 0
1314 1 13.286065424327159 22.78017079915356 18.808373205485438 0 0 0
1316 2 11.582160356854796 22.002452741222715 20.970578827249383 0 0 0
485 1 3.017726966622503 25.221114653007852 18.67126290608942 0 0 0
773 1 5.740282144582725 25.434749932213595 18.689062576339996 0 0 0
451 1 4.499711106279758 24.3284757129132 21.040263066147286 0 0 0
1061 1 8.789300644543495 25.45728787892298 18.873103589502833 0 0 0
1027 1 10.36796834325219 24.56594784995536 21.122274601654105 0 0 0
1349 1 11.753798823172433 25.39996809017789 18.7689456106483 0 0 0
1315 1 13.145890112509496 24.444513779592462 21.198578709733514 0 0 0
488 1 3.0173158692736903 27.069521546685394 20.975492165136647 0 0 0
198 1 1.5477323531637392 27.9173604248328 18.70966176485406 0 0 0
521 1 2.8820713850260815 30.469190019760973 18.71353649972588 0 0 0
486 2 4.271884967479235 28.047062869852244 18.6604259040161 0 0 0
776 1 5.806988141409528 27.16906035289988 21.005656149372435 0 0 0
774 1 7.399904042343145 28.014579502225722 18.72706077813631 0 0 0
1097 1 8.801415159174365 30.59164709117615 18.683168928532833 0 0 0
1062 1 10.360058124509122 27.98251958741846 18.68956146118758 0 0 0
1350 1 13.158694407281159 27.924561230844688 18.684522541383938 0 0 0
234 1 1.3978115096063526 32.94786844527732 18.699970627884134 0 0 0
524 1 2.790513499036837 32.20611080626373 21.02409760387253 0 0 0
809 1 5.893959050774281 30.506286876884758 18.70024565554593 0 0 0
522 1 4.346107416610824 32.99733437845175 18.64999492891048 0 0 0
810 1 7.441351668658332 33.154543982083375 18.631969465623314 0 0 0
1100 1 8.714850954734516 32.18552020966306 20.857476336667393 0 0 0
1385 1 11.787801786742438 30.53976315246711 18.792231364360564 0 0 0
1098 1 10.309451567981425 33.09075492209175 18.65030696168389 0 0 0
1386 2 13.149047681730659 33.00969952257689 18.756556211366163 0 0 0
1388 1 11.622602870580812 32.16009827407242 21.091726738574714 0 0 0
557 1 2.9504220366243645 35.62793858152965 18.712053672643545 0 0 0
845 2 5.8285163927685995 35.562245385746216 18.75644461929978 0 0 0
811 1 7.378262121921863 34.74491649414824 21.053006651696027 0 0 0
1133 2 8.675294466142283 35.615921125034625 18.77354156298897 0 0 0
1136 1 8.780020778920669 37.22141836711969 21.232856515862323 0 0 0
1099 1 10.123662081319742 34.72952393865686 20.888944238310412 0 0 0
1421 1 11.768979425738216 35.419467356232964 18.741069806506577 0 0 0
270 1 1.4211989053720857 38.076726333085055 18.849695397829525 0 0 0
848 1 5.763882451143492 37.20368040990248 21.182304868800955 0 0 0
558 1 4.316687496543135 37.968061425101084 18.84033703436433 0 0 0
559 1 4.538834642978755 39.71896842657077 21.269389093175157 0 0 0
201 1 0.1454092188370794 25.36022260522858 23.409151850867765 0 0 0
881 1 8.840762449242245 40.511582884338395 18.82655747897334 0 -1 0
847 2 7.438663832238772 39.805399667083485 21.158307952124897 0 0 0
846 1 7.341593785898053 37.98463204557601 18.791542865811593 0 0 0
1134 1 10.343114149390454 38.062579749847735 18.74374515033349 0 0 0
1135 1 10.220319105893813 39.694105555148724 21.18490201956127 0 0 0
1422 1 13.308131650825063 38.11071062635759 18.808140523937993 0 0 0
1423 1 13.170889667893649 39.84516587311097 21.115190197284242 0 0 0
1138 2 10.242949125264968 38.07820061522031 23.433192422867396 0 0 0
166 1 1.4693772334887327 22.857494710949926 23.36999652008333 0 0 0
454 1 4.440214873323191 22.790441982873073 23.403533263792962 0 0 0
1426 1 13.220306951045496 38.07433989199866 23.50777620911543 0 0 0
1028 1 8.785618423091147 21.983829494257215 21.175160650103596 0 0 0
237 1 0.07774882838285195 30.477599112321116 23.506861826633784 0 0 0
742 1 7.42777644346688 22.84613945350439 23.42599234496113 0 0 0
1030 1 10.340337247034771 22.78021526171561 23.361659805273643 0 0 0
1318 1 13.234245367178422 22.83862966654617 23.42474786433595 0 0 0
163 1 1.663850640187879 24.625845270572388 21.056590839229088 0 0 0
489 1 3.039359483459282 25.284262536427175 23.552352869951854 0 0 0
777 1 5.904236503724125 25.33631786444476 23.374875443503438 0 0 0
739 1 7.340368688385318 24.616480570401283 21.00320718502696 0 0 0
1065 1 8.728168683999096 25.453614195353456 23.549194154407232 0 0 0
1353 1 11.827500824614686 25.518235490664253 23.41127985609504 0 0 0
202 1 1.490929811145428 27.881121104848376 23.43354341517836 0 0 0
199 1 1.383055542573257 29.645552245505407 21.159374966392654 0 0 0
490 1 4.490707834563244 27.819853538573025 23.456059240504484 0 0 0
487 1 4.27799466463117 29.5449200298368 20.981015653893774 0 0 0
813 2 5.8567660815765095 30.334099170896533 23.14026751701791 0 0 0
1064 1 8.795327537334492 27.13236248139135 21.104584188924886 0 0 0
778 1 7.384225106512917 27.8394392533675 23.38651539898553 0 0 0
775 1 7.333019354538849 29.56850736708922 21.005947507933886 0 0 0
1101 1 8.661883762889058 30.468270389170716 23.381729040387864 0 0 0
1351 1 13.203948569950304 29.41745178672214 21.088482634680226 0 0 0
1066 1 10.251223256226716 27.898732304334185 23.338191447407876 0 0 0
1352 1 11.637584648952274 27.123386807759136 21.076517100725788 0 0 0
1354 2 13.31436778923517 27.94940196478729 23.53461326829774 0 0 0
1063 1 10.300330047403914 29.582712760333727 20.963889945939407 0 0 0
1389 1 11.732842622996875 30.267357802873235 23.340000057106153 0 0 0
1424 1 11.737958668944486 37.269117384137374 21.175019353035037 0 0 0
525 1 3.0286209148724024 30.409478209368032 23.319080854706193 0 0 0
238 1 1.6145005258201839 33.11267775281752 23.485067093079863 0 0 0
812 1 5.884225853010661 32.0372676167617 21.052694500330873 0 0 0
526 1 4.545266559495249 32.9194810096011 23.464707563404158 0 0 0
814 1 7.335584557874805 32.86263465710769 23.368521602109567 0 0 0
1102 1 10.202030491074426 33.061148854141685 23.31153245552289 0 0 0
1390 1 13.075222742782938 32.94031865177216 23.456193613827217 0 0 0
235 2 1.5005208419895688 34.791116364078874 21.177001639678657 0 0 0
561 1 2.806556035957957 35.6723463301922 23.377826280390405 0 0 0
523 1 4.41433566443223 34.692941507392085 21.059935832982873 0 0 0
849 1 5.783001430226574 35.511553223593744 23.493913576050293 0 0 0
1137 1 8.793113689197876 35.51748680451095 23.464808741583898 0 0 0
1387 1 13.35435141702084 34.65222949973083 21.05289235496966 0 0 0
1425 1 11.713381993220763 35.499178432657814 23.27551423283174 0 0 0
274 1 1.4217581241648107 38.10130418029238 23.621629391976597 0 0 0
560 1 2.9391863645280916 37.307795333545094 21.239484632960504 0 0 0
271 1 1.4894740894396516 39.75595957067305 21.08329490321083 0 0 0
1025 1 8.950690631452215 20.41068540984603 18.68292779440456 0 0 0
562 1 4.34930722305434 38.02060463487298 23.598186849214496 0 0 0
850 1 7.180221086525842 38.14786466262525 23.51074695118224 0 0 0
885 1 8.838397743139161 40.58510490496508 23.585573660411864 0 -1 0
1173 1 11.70677893563681 40.555305518999596 23.53616791877508 0 -1 0
305 1 2.950020684156754 40.60946718568342 18.811710312115785 0 -1 0
1317 1 11.784766361570295 20.328575708735816 23.33281963799321 0 0 0
269 1 0.04821809947262585 35.645455317799545 18.86275739778796 0 0 0
309 2 2.9228274093777173 40.484259197590326 23.458570161659875 0 -1 0
453 1 2.9201129146498186 20.4992893312286 23.40265888645439 0 0 0
597 1 5.8465537500074305 40.61313314154318 23.36573174767261 0 -1 0
170 1 1.4811274754940422 22.864277614033153 28.140531451637397 0 0 0
456 2 2.9145225250880578 21.997091416248086 25.733397312091178 0 0 0
601 1 5.8061033746831745 40.59957386858253 28.108767086366704 0 -1 0
169 1 0.11140133817850141 20.31361348964861 28.184549003522843 0 0 0
458 1 4.384336465883358 22.776103608893568 28.04514639949228 0 0 0
744 1 5.890089648448799 22.006204052153322 25.692994602098292 0 0 0
746 1 7.346158842940727 22.846631057036625 28.078514981799735 0 0 0
1032 1 8.716620690460536 22.048718656421325 25.6155711551702 0 0 0
1181 1 11.707161601732365 40.44433985440731 32.726816090086544 0 -1 0
1034 1 10.261467037077358 22.848066597213467 28.155844581764182 0 0 0
1320 1 11.747069002166187 21.964281619997333 25.791521630961963 0 0 0
1322 1 13.16260904912001 22.798324377668784 28.024334008888406 0 0 0
167 1 1.4057421694328651 24.56982625168865 25.88324633935238 0 0 0
493 1 3.1624828793625954 25.31698622388136 28.18625119051853 0 0 0
1432 1 11.775975245484222 37.20240601728334 30.56425368228529 0 0 0
492 2 2.951740341970907 27.04608603619937 25.655236182127755 0 0 0
455 1 4.518011768165783 24.546803781606616 25.84024492068959 0 0 0
781 1 5.91171601901511 25.27685519829909 28.238256185201713 0 0 0
780 1 5.852392944461268 27.03571525916056 25.885267388835047 0 0 0
743 2 7.333091254731729 24.5602827457205 25.737807980058957 0 0 0
1069 1 8.822567272336546 25.24809160782839 28.162951163216018 0 0 0
1031 1 10.193487264973905 24.401440184003178 25.649690734593612 0 0 0
1068 1 8.671728859726349 27.102747217594835 25.75763384275012 0 0 0
1319 1 13.265454594543074 24.43499704480942 25.84044428957283 0 0 0
1357 1 11.593689075500512 25.29781607389557 28.15102328342436 0 0 0
1356 1 11.836905590072076 27.092123934042245 25.765981303197478 0 0 0
206 1 1.48730790676658 27.835128517195454 28.23443136059962 0 0 0
203 1 1.5801384194507435 29.652842559850093 25.831058447917165 0 0 0
494 1 4.40659576602953 27.76626690209781 28.018188508481025 0 0 0
491 1 4.329736547744491 29.724118171880527 25.58573930046958 0 0 0
817 1 5.801990419921513 30.41652640786562 28.219146976629236 0 0 0
782 1 7.241362465712927 27.822528817612408 28.161220096886524 0 0 0
1070 1 10.243934452983712 27.906947578088673 28.08059769698574 0 0 0
779 1 7.298704128979015 29.57856261851861 25.773210217658455 0 0 0
1358 1 13.258343444122179 27.980963920136283 28.324455150146207 0 0 0
1067 2 10.329380326079395 29.539666744620025 25.827606753245046 0 0 0
1355 1 13.204992110850938 29.513392441849412 25.81011545416994 0 0 0
1393 1 11.618628878482056 30.208290131272516 28.034031867813844 0 0 0
529 1 2.995122220523064 30.457587779414883 28.114517920031542 0 0 0
242 1 1.531931219027619 32.89708965849851 28.109734224160903 0 0 0
528 1 2.953364640754211 32.18235871049495 25.74055793107652 0 0 0
172 2 0.08382600835206352 22.114871228139656 30.430723841050163 0 0 0
530 2 4.438713267879994 32.95317807538786 28.16672319853753 0 0 0
816 1 5.94629860202629 32.140714478002025 25.79746295084716 0 0 0
1105 1 8.875160833826222 30.336315121974152 28.02737471801363 0 0 0
818 1 7.301408449840463 33.01897765335157 28.06704042166797 0 0 0
1104 1 8.996550733044083 32.01248559875452 25.685422213979848 0 0 0
1106 1 10.30362982008896 32.922204969639765 28.143207827242826 0 0 0
1392 1 11.829230754003566 31.992822758347813 25.72906167432602 0 0 0
1394 1 13.285409776800224 33.02906942764943 28.081607532305718 0 0 0
239 1 1.3243627480454423 34.62514599660168 25.756756321372766 0 0 0
564 1 2.958358936812287 37.206848286518195 25.743270355030816 0 0 0
565 1 2.7661403234589175 35.340750914056585 28.085584718316806 0 0 0
527 1 4.323489491331016 34.64136632838213 25.74115127422251 0 0 0
853 1 5.712171780218422 35.53712348547067 28.093730145822736 0 0 0
852 2 5.851617136442933 37.109152478421336 25.87382799724731 0 0 0
815 1 7.394603959254981 34.58799206410379 25.832594061633475 0 0 0
1141 1 8.832060709095142 35.39860108675587 28.238819319237162 0 0 0
1103 1 10.210102799978046 34.53978064933478 25.808090288796738 0 0 0
1391 1 13.12937415882966 34.662935437214045 25.75865352217139 0 0 0
1429 1 11.702646626654564 35.528115953860315 28.001509150576258 0 0 0
275 1 1.3795303310694516 39.93810689061753 25.754508495985448 0 0 0
278 1 1.4924482135096406 38.12989001923934 28.221052932647346 0 0 0
1143 1 10.269523180690424 39.62583730658845 30.498649899006406 0 0 0
563 1 4.382870814487267 39.82591554543141 25.754954852542816 0 0 0
566 1 4.409632892763268 38.08337076568709 28.052765322278418 0 0 0
1140 1 8.761452022449546 37.024120804405975 25.943723762693914 0 0 0
851 1 7.211283670796248 39.72679092156102 25.763453889107154 0 0 0
854 1 7.3777237197573236 37.98433682887411 28.157198509684857 0 0 0
317 1 2.889607954268124 40.53404319955356 32.807758520419604 0 -1 0
749 1 5.757457222680104 20.49376885319736 32.812892841232184 0 0 0
1428 1 11.595186717665394 37.13840568081647 25.725273868864008 0 0 0
1139 1 10.198863787564576 39.73655885352059 25.757035532411383 0 0 0
1142 2 10.230993099376846 38.117616047374526 28.1731918437822 0 0 0
1427 1 13.320696154825136 39.918119354420675 25.86532736730294 0 0 0
1430 1 13.043856195288702 38.037494194167635 28.004689368461204 0 0 0
174 1 1.3500699076021674 22.85132095519743 32.72174814596196 0 0 0
460 1 2.98024289636106 21.93359452977198 30.40289423688333 0 0 0
1434 2 13.186391674388485 37.97615716827642 32.95164570161858 0 0 0
1321 2 11.684981566061836 20.43151937559966 28.133370377225898 0 0 0
462 1 4.428891829333044 22.99694271128307 32.84497783820779 0 0 0
748 1 5.944861264043792 21.979748763210882 30.304303664127684 0 0 0
750 1 7.427692326117455 22.941453126472172 32.83138199846165 0 0 0
1036 1 8.91373156904621 21.987521128491196 30.420496871006993 0 0 0
1038 2 10.200418035476 22.929315235824856 32.76166542445756 0 0 0
1324 1 11.766262992653688 21.998195613854342 30.368138507707073 0 0 0
1326 1 13.078568538721242 22.88197080918391 32.89326545812146 0 0 0
171 1 1.502522298669073 24.573883342808678 30.45000773894251 0 0 0
497 1 2.8946556249100928 25.488108382264187 32.910168462237024 0 0 0
496 2 2.9749258924070334 26.934468534551193 30.523901042813108 0 0 0
1146 1 10.241037226909603 38.03168583381764 32.82899235563985 0 0 0
855 1 7.1633516553136385 39.54919157037852 30.51489899464904 0 0 0
459 1 4.506208207353706 24.423456445944293 30.592784277261 0 0 0
785 1 5.825784285090014 25.47775545819826 32.91600863657074 0 0 0
784 1 5.877450512556708 27.167177300663205 30.609721556161684 0 0 0
747 1 7.426515927695464 24.45486767707322 30.543271312313095 0 0 0
1073 1 8.733074066624459 25.441656836470585 32.878378602844045 0 0 0
1035 1 10.270394530961374 24.595838157163993 30.472374481601797 0 0 0
1072 1 8.856025545155383 27.124447415042333 30.704381859465986 0 0 0
1323 1 13.240720817562726 24.69792480716743 30.442556150134536 0 0 0
1361 1 11.738688067490116 25.252195725089056 32.627224042517284 0 0 0
210 1 1.5047850173324175 27.897232804842247 32.73815398046511 0 0 0
207 1 1.4402300061702864 29.54303508701074 30.42142027920948 0 0 0
498 1 4.470444822361711 27.983326130836694 32.86704963852153 0 0 0
495 1 4.3704889457562635 29.541117494959597 30.40267071192628 0 0 0
821 1 5.741846670153765 30.550641391138242 32.80363443008762 0 0 0
786 2 7.401864650593722 28.015260770385034 32.98313526400518 0 0 0
1074 1 10.327519134518576 27.974791325897396 32.801895094398375 0 0 0
783 1 7.365806838256811 29.640694963819833 30.601861808941898 0 0 0
1109 1 8.811403285136409 30.60239958789521 32.923361937251975 0 0 0
1360 1 11.812385930549048 27.21570477395259 30.498170639374898 0 0 0
1362 1 13.082377722476112 27.86914569398074 32.919035529188605 0 0 0
1071 1 10.364122649871646 29.60774875591444 30.53862786968903 0 0 0
1359 2 13.175073597230487 29.542297709485705 30.573235637307146 0 0 0
1431 1 13.270191863278836 39.55455531351302 30.58907436694138 0 0 0
533 1 3.0087129391662306 30.631455901750716 32.80054099977484 0 0 0
246 1 1.559237907507162 32.98053178129635 32.66261788508858 0 0 0
532 1 3.046954463464022 32.25967964112026 30.412195871525256 0 0 0
570 1 4.399185070473519 37.925586774267266 32.79922263662835 0 0 0
534 2 4.343546762212326 33.04729791773649 32.71446193924081 0 0 0
820 1 5.842581462257349 32.076092248130216 30.429442245452925 0 0 0
822 1 7.14782017069142 33.14843085373789 32.75262729138286 0 0 0
1108 1 8.652798306094727 32.137042017054945 30.487470884311666 0 0 0
1110 1 10.174672365035658 32.94225701701166 32.84463350780999 0 0 0
1397 2 11.771017574077183 30.47293982612876 32.843789661366024 0 0 0
1396 1 11.857803064251373 32.115771645099294 30.267497433376704 0 0 0
1398 1 13.331260667783349 33.039960947980745 32.76332190478241 0 0 0
243 2 1.4136438690062916 34.743205840525796 30.46563828118072 0 0 0
569 1 2.809239341026159 35.47160647433655 32.83641208646535 0 0 0
568 1 2.9274642314461805 37.09191499996787 30.39433113331488 0 0 0
531 1 4.30092954907053 34.716201393946605 30.47326383570242 0 0 0
857 1 5.7762809442069765 35.51379851486611 32.63500852729715 0 0 0
856 2 5.722422530673444 37.26189777985088 30.43335654833904 0 0 0
819 1 7.300174652106286 34.73554630113405 30.273271171274267 0 0 0
1144 1 8.744426406966598 37.13883099490241 30.624418469885867 0 0 0
1145 1 8.741217303520779 35.473908460586514 32.748002033808206 0 0 0
1395 1 13.123814794868103 34.67931937752992 30.530266100483214 0 0 0
1107 1 10.291114553944016 34.54581258916451 30.44606496638105 0 0 0
1433 1 11.812948843576908 35.55760718964236 32.77579341332382 0 0 0
282 1 1.5044793675304828 37.98404700166973 32.817628459268605 0 0 0
279 1 1.4350664464363574 39.69865581420602 30.435107856317224 0 0 0
858 2 7.348490355567619 38.01482805865911 32.90604596756469 0 0 0
605 1 5.8323298725014645 40.500967631696284 32.89745207873532 0 -1 0
168 1 0.1375728979247966 21.943653691024682 25.68709994201227 0 0 0
567 1 4.276390500394699 39.648837200539916 30.503085992284966 0 0 0
208 1 0.11474567317454096 26.93799089378487 30.536026901138065 0 0 0
245 2 0.11534850210672286 30.53425814620633 32.82326690732066 0 0 0
1177 1 11.756510251591886 40.39194699006736 28.21465818019408 0 -1 0
313 1 2.9220931169894007 40.52548907268251 28.012082200042006 0 -1 0
893 1 8.706267658729587 40.57747538679677 32.865683443430456 0 -1 0
889 1 8.816664307634626 40.471895680547654 28.218023688549113 0 -1 0
1325 1 11.745631960923602 20.39302215468788 32.68537172905355 0 0 0
178 1 1.4900491604576114 22.87505647928703 37.477103742264426 0 0 0
464 1 2.8610020410795887 22.092379957967434 35.17279995326088 0 0 0
1439 1 13.235389456255135 39.76179868159594 39.78231717090705 0 0 0
466 1 4.401040579301176 22.705568901243105 37.61850428206344 0 0 0
752 1 5.924098872086594 22.133365162511804 35.1139975344995 0 0 0
754 1 7.390041588334593 22.788688980346894 37.62133786707121 0 0 0
1040 1 8.771061236857937 22.01285800113101 34.87069390662488 0 0 0
1042 1 10.191853603329045 22.917762854358077 37.53048814450055 0 0 0
212 1 0.18697524832714044 27.184826230530792 35.265193344121734 0 0 0
249 1 0.12952305054315527 30.363976812527785 37.42168261403038 0 0 0
1328 1 11.682197041052586 21.965963614752205 35.13944672539768 0 0 0
1330 1 13.173829716197718 22.984708286341228 37.4928665848105 0 0 0
175 2 1.5405602515204575 24.507287343037472 35.139010884066124 0 0 0
501 1 2.860630134281044 25.297081027966957 37.58031072525736 0 0 0
1151 1 10.293436012984518 39.97139671761238 39.826492642180874 0 0 0
463 1 4.472296750486599 24.596266587440198 35.23741896413164 0 0 0
789 1 5.941963229857332 25.394303649797166 37.681207734618596 0 0 0
788 1 6.031838496179292 27.154898546742764 35.20229501580534 0 0 0
751 1 7.415309144689059 24.487906882236242 35.294182660253526 0 0 0
1077 2 8.887925025610382 25.42534471900414 37.52817364411725 0 0 0
1039 1 10.204428533214905 24.421706419002888 35.18123616607709 0 0 0
1327 1 13.234210064382042 24.750067358377013 35.118187902030655 0 0 0
1365 1 11.681415089252797 25.520322193154428 37.53909069119441 0 0 0
1364 2 11.566865637053976 27.121815690524922 35.11745880973092 0 0 0
500 1 3.1153520794570584 27.112962367513994 35.23991015959221 0 0 0
214 2 1.6063910621826827 27.96956684197661 37.420811163558646 0 0 0
211 1 1.6026998763202893 29.563931365274733 35.16105111291071 0 0 0
502 1 4.483842627380039 27.91091431517171 37.57664983069257 0 0 0
499 1 4.470863679694467 29.639330115503284 35.19868470241046 0 0 0
825 1 6.030626240217326 30.445648436242752 37.50884692774541 0 0 0
1076 1 8.803198177435801 27.002879175664905 35.255495550579546 0 0 0
790 1 7.47710031655525 28.08012557293255 37.509891173966125 0 0 0
1078 1 10.244240968582542 28.008558697242616 37.52732612498168 0 0 0
787 1 7.4167442145628675 29.72017046490208 35.18644056430087 0 0 0
1113 2 8.75658248520792 30.6060916984988 37.52375374849999 0 0 0
1075 1 10.285092105912353 29.70762777087367 35.103158415588815 0 0 0
1366 1 13.174055695477639 27.99700600040621 37.40304348015517 0 0 0
1363 1 13.19178169868074 29.699132630181257 35.16287725067933 0 0 0
1401 1 11.753268651596825 30.518578101525776 37.40156267424705 0 0 0
537 1 3.1942239027735 30.41087939697574 37.63554530471081 0 0 0
250 1 1.5363042469116215 32.98939749427802 37.57091295963451 0 0 0
536 1 2.8594937240279905 32.34524384498629 35.18596282453546 0 0 0
321 1 2.8209007561380055 40.53885654432103 37.375822958343925 0 -1 0
538 1 4.320497822893057 32.9588934660177 37.54000812868603 0 0 0
824 1 5.682126559889639 32.291155474796575 35.085338565789016 0 0 0
826 1 7.417162586442 32.96509278313958 37.35206029243866 0 0 0
1112 1 8.745107160570928 32.30312634871386 35.19018658667118 0 0 0
1114 1 10.20274294654946 33.057989439214154 37.558255386461965 0 0 0
1400 1 11.755130236199486 32.364166954566976 35.172786035024984 0 0 0
1402 2 13.159102260610965 33.0510556031306 37.48567152605207 0 0 0
247 1 1.4273943891316383 34.72908664539538 35.20440503712651 0 0 0
573 2 3.103372156691302 35.50148726312384 37.682500750762365 0 0 0
572 1 2.796259577443661 37.270635350203925 35.38864205551362 0 0 0
535 1 4.363927438282421 34.85736289870051 35.07722474637472 0 0 0
861 1 5.935683446764809 35.61362110928928 37.39926247800249 0 0 0
860 1 5.914367834707654 37.31382957752425 35.10775530244445 0 0 0
823 2 7.1992627645008636 34.791633930271296 35.00053710149397 0 0 0
1149 1 8.798844491322201 35.60025639758745 37.5256378029213 0 0 0
1148 1 8.76458892258808 37.190014903000296 35.201111291397865 0 0 0
1111 1 10.228756387939722 34.81010651098928 35.05061812499468 0 0 0
1399 1 13.172836289651752 34.76600654539661 35.29856471938347 0 0 0
1437 1 11.645832478449321 35.454147841486765 37.423088394901754 0 0 0
1117 1 8.758481683641943 35.60475964448544 42.13230243527496 0 0 -1
283 2 1.4057236221736598 39.711389881874496 35.202467630529284 0 0 0
286 1 1.4765690047344295 38.077217925438234 37.54958533801233 0 0 0
863 1 7.241557109927738 39.919134460699915 39.89745778456117 0 0 0
1329 1 11.6441506469047 20.512599329996483 37.40384061982344 0 0 0
571 1 4.218260872726993 39.65923055356392 35.15728732898485 0 0 0
574 1 4.506776582180071 37.91033793183817 37.456467048288054 0 0 0
859 1 7.231541509217602 39.72136892233922 35.234681649051645 0 0 0
862 2 7.462947432120859 38.18696620422983 37.52860735334416 0 0 0
1147 1 10.364597851656344 39.71558922359098 35.17113367155345 0 0 0
1041 1 8.650729981879149 20.37296919569612 37.35119427564185 0 0 0
1436 2 11.757752326093536 37.28465724602234 35.18790768188178 0 0 0
1150 1 10.300807172969076 38.141317931386226 37.444085833713984 0 0 0
1435 1 13.148564644379361 39.61755352188761 35.11193011063982 0 0 0
1438 1 13.12663585244963 37.96432235376103 37.55035629271534 0 0 0
468 1 3.038157695377054 21.99919347551859 40.02638505423623 0 0 0
575 1 4.313851097498252 39.87065227906447 39.96857235449879 0 0 0
287 1 1.4675509354389171 39.69299299173523 39.814207074019286 0 0 0
756 1 6.06271901269054 21.997743450431393 39.85359896910581 0 0 0
1044 1 8.909881649426007 21.85424176992101 39.92948039184612 0 0 0
252 1 0.13072281571625358 32.096253224331186 39.863421829759474 0 0 0
180 1 0.1021779284026593 21.98634013845023 39.952383359693215 0 0 0
1332 2 11.815713219501124 22.005454792332728 39.69060084049428 0 0 0
285 1 0.1931651292347743 35.56659714332143 37.594856243072726 0 0 0
830 1 7.3435840640051016 38.2985836888587 42.12951149741468 0 0 -1
1297 1 11.821568296351824 20.358698032835605 42.034389033375874 0 0 -1
179 1 1.3519920266530332 24.4942607577828 39.88154165191509 0 0 0
504 1 2.9296155328575924 27.021854857356605 39.818906618172775 0 0 0
467 1 4.555527843270336 24.461260209296107 39.896987274731536 0 0 0
755 1 7.512891844080434 24.499678788864234 39.88004549101691 0 0 0
1043 1 10.395008663498645 24.52897161878655 39.76900554925307 0 0 0
1080 1 8.900849647094164 27.006492097333616 40.00726142648578 0 0 0
1403 1 13.116037793735183 34.76159858656144 39.923131954470115 0 0 0
1331 1 13.130318267688258 24.733491425750447 39.84090045019398 0 0 0
215 1 1.552196169709079 29.537455801152454 39.763438590643574 0 0 0
792 1 5.855759142464759 27.092866899108486 39.94056355486046 0 0 0
503 1 4.441357687949735 29.6693896538184 39.983031101589425 0 0 0
791 1 7.445672812129211 29.683704447112596 39.81312467184456 0 0 0
1079 1 10.343732628919332 29.578178327812996 39.7231419938082 0 0 0
469 1 2.8448362335991635 25.436280471349974 42.12109287355972 0 0 -1
1115 2 10.170190918145204 34.72526692165412 39.962218895050555 0 0 0
1368 2 11.825044519574806 27.088323503912022 39.86830494819515 0 0 0
1367 1 13.081926276293292 29.488395573979933 39.79695531271838 0 0 0
540 2 2.9586710493345283 32.198272551987365 39.88056963790285 0 0 0
1440 1 11.647462335190529 37.1477044069301 39.833962420163346 0 0 0
827 1 7.452852135205546 34.61896919909384 39.7661984926931 0 0 0
828 1 5.899645896524722 32.185542131253264 39.759658148276074 0 0 0
1116 1 8.766144652037847 32.2029290524897 39.83890563755945 0 0 0
1152 1 8.84954797233662 37.252768798524784 39.745938898522375 0 0 0
1404 1 11.723886276610532 32.28254503914134 39.73271193962753 0 0 0
539 1 4.538151953755596 34.696213648069865 39.87768132298094 0 0 0
251 1 1.5689896340198888 34.65137387404689 39.909621790111686 0 0 0
576 1 2.9981393105942855 37.17125754715981 39.95269999513964 0 0 0
864 1 5.882334756939674 37.292944082797334 39.7102921569871 0 0 0
213 1 0.07117213625998284 25.462701779571436 37.62118182422801 0 0 0
1369 1 11.690211580778424 30.613159400032686 42.13389394994315 0 0 -1
248 1 0.07306492313659133 32.06467207758236 35.15347829972034 0 0 0
506 1 4.40591670154401 33.107240408550375 42.18577215092467 0 0 -1
1118 1 10.315881394383915 38.26480035389454 42.175233446764466 0 0 -1
753 2 5.891640246725804 20.371600571479306 37.44473536517704 0 0 0
1298 1 13.079132868648173 22.895395645078878 42.03515234503907 0 0 -1
1010 1 10.26783408033965 22.8177192873806 42.06771676438239 0 0 -1
182 1 1.4614183390700564 27.89975294735661 42.0673516697047 0 0 -1
254 1 1.4453167244682148 38.036019790558285 42.16861323881933 0 0 -1
1082 2 10.35990971311995 33.10183208345457 42.1712617214159 0 0 -1
1045 2 8.81391178678466 25.337826971317423 42.1283746175644 0 0 -1
434 1 4.4899023402497695 22.93083221845426 42.160802582165736 0 0 -1
1406 1 13.198514131321799 38.062185850799224 42.18204396855488 0 0 -1
1081 1 8.913710802663426 30.547876983400933 42.01563319515488 0 0 -1
721 1 5.985750357586435 20.3857353986035 42.164792841376794 0 0 -1
758 1 7.440490132337662 27.8652469895341 42.178289508720816 0 0 -1
1334 1 13.17001075048563 27.874137341591535 42.19047493358086 0 0 -1
1444 2 14.725215060766182 1.6475833270181464 2.329536262001579 0 0 0
1732 1 17.624338183018576 1.5802454089889273 2.4109520791694083 0 0 0
2020 1 20.392060792507145 1.5908941943575396 2.3191731922430523 0 0 0
2308 1 23.32273979958079 1.7416965067352437 2.2724900232163234 0 0 0
2309 1 23.43245866608303 0.019931455665583818 4.569560317679767 0 0 0
2596 1 26.469066863214668 1.8510189988734531 2.310947360879698 0 0 0
1443 1 16.070416183169055 4.259980788347441 2.3807681570923167 0 0 0
1731 1 19.109940836874177 4.185603016323218 2.2981375274985196 0 0 0
1768 1 17.6127870361889 6.800548986711286 2.3405115304582775 0 0 0
2056 1 20.48858948945877 6.690333072651891 2.366970588698186 0 0 0
2019 1 21.952690352211256 4.23555987917996 2.311601737321223 0 0 0
2344 1 23.535454830805836 6.957071324900625 2.2576746043553335 0 0 0
1733 1 17.410293821197214 0.004436217294025556 4.811984980201353 0 0 0
2307 1 24.81359797486718 4.33933310788429 2.2202885750945898 0 0 0
2632 2 26.383733976433287 6.802690650778192 2.293624644476117 0 0 0
1478 1 16.254175765413226 7.460383476649081 0.02667706253462078 0 0 0
1480 1 14.670601363424073 6.731672086270176 2.298581717358006 0 0 0
1479 1 16.38357381020484 9.3194769285524 2.4781557857397414 0 0 0
1767 1 19.168664205771393 9.226981494239542 2.2901012224385737 0 0 0
1801 1 17.525116794308254 10.207467777642883 0.016677127052287986 0 0 0
2055 1 21.987377035084165 9.297101418534446 2.1723420706953553 0 0 0
2343 1 24.938227117599624 9.50468838779962 2.0677048493694636 0 0 0
1516 1 14.839810217571399 11.686490350443087 2.392371452735733 0 0 0
1804 2 17.67396961321197 11.814300943307558 2.3640245987628674 0 0 0
2092 1 20.391748736077556 11.697562465957668 2.3810349920187828 0 0 0
2597 1 26.40715793094456 0.06210890270441631 4.606104909176401 0 0 0
2380 2 23.385197857134724 11.874065147192033 2.164916611413539 0 0 0
2668 1 26.33610901665311 11.850248420628162 2.321545387262182 0 0 0
2453 1 23.484665144769068 20.232300019883283 4.734069693476133 0 0 0
1515 1 16.106217959008966 14.317752493718507 2.2613290306449665 0 0 0
1803 1 19.000389981964286 14.412089046521887 2.2535986030966226 0 0 0
2091 1 21.908319818716063 14.41802891579414 2.2874958701243346 0 0 0
2018 1 21.797275821696914 2.4437072834439424 -0.0013641979657594075 0 0 0
2379 1 24.970683513175143 14.375125193766866 2.4024774373099644 0 0 0
2704 1 26.364749445222994 16.86720247846962 2.1907381242382584 0 0 0
2165 1 20.52691110798304 20.27711238466918 4.677360704415308 0 0 0
1552 2 14.840918830210187 16.90031229511801 2.205860926119488 0 0 0
1551 1 16.115061160789704 19.500155921226437 2.3653075313779004 0 0 0
2420 1 23.571916480353483 16.905602359033683 6.948065431416879 0 0 0
1844 1 17.447070502450128 17.049832594452123 7.152107844525943 0 0 0
1840 1 17.625409248425797 17.027183786441405 2.437564003388883 0 0 0
2128 1 20.60449721943053 16.869420957798745 2.34025849132311 0 0 0
1839 2 19.04878927480185 19.516284678602556 2.271710253225195 0 0 0
1842 1 19.068329540780567 17.821713175182555 4.714094989845165 0 0 0
2341 1 23.253816417873587 5.069972087809626 -0.030005224949986035 0 0 0
2416 1 23.394219650185885 17.160438828213742 2.3159525769365668 0 0 0
2127 1 21.87037416870727 19.452456117717 2.4993885936080966 0 0 0
2419 1 25.04426091933954 19.359153128792034 7.040450141777806 0 0 0
2415 1 25.044150069949193 19.46722648532118 2.4697146499073432 0 0 0
1802 1 19.01038092316349 12.770453917797962 0.0499612773619318 0 0 0
1446 1 15.900390188427316 2.6130263213713767 4.679287242297048 0 0 0
1448 1 14.71791724268819 1.5071351543580476 6.983270835524549 0 0 0
2418 2 24.846812152349386 17.63201857735912 4.630293036475771 0 0 0
1734 1 19.10242830173265 2.6337418332129596 4.648693647778845 0 0 0
1736 1 17.49147506774308 1.63564903333379 7.094004340531902 0 0 0
2024 2 20.432419923355415 1.6226048277872192 6.8528592531665735 0 0 0
2022 1 21.905047709841238 2.541335587972721 4.696172027527475 0 0 0
2312 1 23.385411156011624 1.682011349798349 6.9673417948614675 0 0 0
2708 1 26.380966742046965 16.92017749385329 6.948120069222272 0 0 0
2131 1 21.980374329652605 19.433053953148413 7.154418584970461 0 0 0
2310 1 24.86979307769266 2.635776884908839 4.670739344106725 0 0 0
2600 1 26.41446704578365 1.7722280516587667 6.902716205893266 0 0 0
1447 2 16.134665809621968 4.151515048614752 7.092441342981254 0 0 0
1481 1 14.826240675227119 5.14456144854995 4.826687919392369 0 0 0
1735 1 19.072591679480826 4.276690250519544 6.921760046693262 0 0 0
1769 1 17.564816463871985 5.1866735273288995 4.607339967786296 0 0 0
2057 2 20.577838475921993 5.0432905362711145 4.777543480436475 0 0 0
2023 1 21.987124959548257 4.2508006587299265 6.9536607182584875 0 0 0
2345 1 23.470056423105806 5.190280031016427 4.669099021192056 0 0 0
2311 2 24.86654149815376 4.202496206803425 6.9317015535180655 0 0 0
2633 1 26.29126082852462 5.106913347242894 4.621227881259878 0 0 0
1484 1 14.738829704896627 6.64503848001051 7.057645379455007 0 0 0
1482 2 16.121599386829455 7.654812962238311 4.668469456275678 0 0 0
1483 1 16.11861073756438 9.36691158032684 7.025549966648036 0 0 0
1772 1 17.535428495152804 6.853303365129705 7.001476236987666 0 0 0
1770 1 19.15807381862083 7.657412797605531 4.633428781805645 0 0 0
1771 2 19.09875610926793 9.332199157182714 7.007334584905432 0 0 0
1805 1 17.760662763992425 10.039761339930907 4.843525811977951 0 0 0
2060 1 20.475075853866517 6.790378208039283 6.954588183200361 0 0 0
2348 1 23.57249737917847 6.73179037201144 7.133942670513973 0 0 0
2058 1 22.12505915692559 7.579820161443681 4.580303882230102 0 0 0
2093 1 20.528566215623222 10.020901021480896 4.705674297194253 0 0 0
2059 1 22.016717455262267 9.310014675310809 6.89269265686004 0 0 0
2636 1 26.423553170704352 6.708723664088753 6.9827525260469 0 0 0
2346 1 25.026512762023383 7.810150552891327 4.574624893314265 0 0 0
2347 1 24.828605007850808 9.316088854815437 6.857449296458811 0 0 0
1517 1 14.678048473770795 10.006852937327388 4.6003329110485955 0 0 0
1518 1 16.249936499197858 12.581552592961343 4.72845512169402 0 0 0
1520 1 14.672299218760875 11.798793256117964 7.081300517834594 0 0 0
1808 1 17.68285597313941 11.795314700514687 7.16310512469788 0 0 0
1806 1 19.009947316230768 12.86979555589773 4.63846161784089 0 0 0
2096 1 20.369688671622963 11.753158458291 7.0156717771742905 0 0 0
2381 1 23.20803881237507 10.193655279490079 4.384795148630161 0 0 0
2384 1 23.459806655035678 11.839691099843106 7.014637669874635 0 0 0
2094 1 21.957503321623722 12.667373541301597 4.57336094222704 0 0 0
2669 1 26.26430890189801 10.335651454333929 4.711756673452161 0 0 0
2382 1 24.71992540217267 12.650651992422482 4.634711145152032 0 0 0
2672 2 26.257471032982952 11.914690086422013 7.065270935613657 0 0 0
1519 1 16.380987570339215 14.36860401100746 6.986196682174565 0 0 0
1553 1 14.829615448199876 15.200827535165306 4.569727366273974 0 0 0
1807 1 19.026933784206165 14.585275486438093 7.019838754910177 0 0 0
2132 1 20.52670264035158 17.010395286283337 7.061932320275133 0 0 0
1841 1 17.738501527872796 15.381060944570526 4.717062090241542 0 0 0
2417 1 23.42976261430994 15.298470123734681 4.695030312296227 0 0 0
2095 1 21.79332359362971 14.385383287318113 6.949456883646813 0 0 0
2129 2 20.57555588404553 15.300617104124878 4.737104736440329 0 0 0
2705 1 26.354620655161195 15.27371641191298 4.583020248703686 0 0 0
2383 1 24.824079217362144 14.356666002866199 6.942931265930533 0 0 0
1554 1 15.96896752554169 17.80310139449159 4.636148940698841 0 0 0
1555 1 16.244172309198525 19.49506246638745 6.895670915997734 0 0 0
1556 1 14.67442249957028 16.884379222839186 7.081814510774837 0 0 0
2130 1 21.983593441616453 17.718899900477528 4.669375245792416 0 0 0
1843 2 19.059637936450017 19.475077731198873 6.99639276149828 0 0 0
1873 1 17.57570044518547 20.2922878727279 0.015776586698640446 0 0 0
2413 1 23.595350254605364 15.332531491050826 0.07311636980849444 0 0 0
1838 1 18.979487233119173 17.75249707417712 0.1191648512260079 0 0 0
2701 2 26.342630945690086 15.264551797878442 -0.006167109731532998 0 0 0
2125 2 20.365497125022458 15.236012515324617 0.013727588279912058 0 0 0
1549 1 14.625794231028559 15.16180268601918 0.0309792159549378 0 0 0
2053 2 20.457379880551745 5.02822389793763 0.021392378817918174 0 0 0
2090 1 21.952777371992855 12.847718505205316 0.07587324333960839 0 0 0
1442 1 16.21171506403871 2.4585845039573195 0.018816701180907502 0 0 0
2089 2 20.51087915131256 10.210864288450821 -0.02567646986201793 0 0 0
1514 1 16.250061476010426 12.67518453057831 0.05121939233630793 0 0 0
1513 1 14.68505015944326 9.986905126776772 -0.029449593956677234 0 0 0
1452 1 14.80064080914526 1.7999768087670187 11.825378694160984 0 0 0
1450 1 16.328610587211102 2.6518938122640026 9.494930123689015 0 0 0
2601 1 26.413737458891443 0.041020263672594655 9.232638822353671 0 0 0
1738 1 19.02929035628622 2.5172368603676416 9.268993600233017 0 0 0
1740 1 17.504421964374362 1.657334462031042 11.800323030276967 0 0 0
2028 1 20.603067825378798 1.721595479844993 11.7143470322944 0 0 0
2026 1 21.761146356866867 2.486844601754006 9.244517903147399 0 0 0
2316 1 23.45567740513546 1.809483188440025 11.676364201949681 0 0 0
2426 1 24.71102018412601 17.98073958828705 14.011050587211926 0 0 0
2314 1 24.94905599818121 2.607483546927501 9.14341264033493 0 0 0
2604 1 26.476184168843325 1.7301218474015347 11.643409500394643 0 0 0
2427 1 25.096471911902505 19.434842052175494 16.324461356709328 0 0 0
1451 1 16.20464046367497 4.100962374435407 11.70874580472987 0 0 0
1485 1 14.74216026494715 4.945549324951548 9.332232244740519 0 0 0
1739 1 19.114503642172437 4.285015205165076 11.613622825258203 0 0 0
1773 2 17.458864248225 5.1256860350279805 9.313517919370904 0 0 0
1776 1 17.564520834931532 6.673894382354692 11.567841073896862 0 0 0
2061 1 20.391228152111818 5.104238116254453 9.220873266357163 0 0 0
2027 1 21.952801836491048 4.1181745026636865 11.589797936033928 0 0 0
2349 1 23.536543267144136 4.99784193088841 9.29876764802348 0 0 0
2315 2 24.920232686371566 4.266028146802066 11.577845692919842 0 0 0
2637 1 26.335886424452475 5.0335808492405185 9.299928563349933 0 0 0
1488 1 14.575020709456647 6.692781855759676 11.711178482908513 0 0 0
1486 1 16.009179520192458 7.59966027019166 9.485007529127495 0 0 0
1487 1 15.999834435285342 9.253522064829786 11.753220637240092 0 0 0
1521 1 14.609519816074322 10.119688657591633 9.354186754547955 0 0 0
1774 1 19.000603016885588 7.6326028487800315 9.19002306324332 0 0 0
1775 1 18.954081993158592 9.403123408228115 11.660611456425197 0 0 0
2352 1 23.5716880842855 6.76647537805431 11.570192979346828 0 0 0
2064 1 20.595240167667594 6.766156871314249 11.775849445653192 0 0 0
2062 1 22.10978490958779 7.559092266877066 9.239044313296331 0 0 0
2063 1 22.042789325031507 9.227988046910896 11.575077901583281 0 0 0
2640 1 26.432271086981665 6.824818575100076 11.69486102383974 0 0 0
2350 1 24.987685042625348 7.831038587270769 9.310401576675472 0 0 0
2351 1 24.86485399563332 9.485045772967418 11.62006591067886 0 0 0
1522 1 16.134221334498513 12.860738524984484 9.404611572603484 0 0 0
1524 1 14.678044184569888 11.837066584332861 11.656534523161474 0 0 0
1809 1 17.51190125548581 10.079437465266343 9.41902739460447 0 0 0
1810 1 19.100557122307702 12.78230837114405 9.396257204461037 0 0 0
1812 1 17.488950430673977 11.80754810747596 11.758035697109298 0 0 0
2097 1 20.52841508445717 10.090475530760735 9.377125739561022 0 0 0
2385 1 23.357792739315368 10.358451277880448 9.330198945113958 0 0 0
2100 1 20.521459763576043 11.775934760955517 11.72940887325808 0 0 0
2098 1 21.86062866387827 12.684735549499715 9.280172569942257 0 0 0
2388 1 23.47881843275692 12.042901754210583 11.589745146530788 0 0 0
2673 1 26.289134013187716 10.273288643955096 9.339042664735638 0 0 0
2386 1 25.024022752097178 12.684269314098175 9.306031293339856 0 0 0
2676 1 26.46130402578187 12.016032777233804 11.595337995384833 0 0 0
1523 1 16.19314665853643 14.490513504297153 11.725527511118804 0 0 0
1557 1 14.712990038266533 15.222407538093067 9.353931269810921 0 0 0
1811 1 19.023939645778455 14.485550274331644 11.675245485423567 0 0 0
1845 1 17.680322563096567 15.391577865797261 9.348453391735225 0 0 0
1848 1 17.573231563417295 17.070056874070133 11.747677373644501 0 0 0
2133 2 20.440794399600783 15.194955962708802 9.321311882802595 0 0 0
2136 1 20.541528023811193 16.856886908716806 11.66021586930482 0 0 0
2099 1 21.796713932018115 14.266257888912083 11.66617625365901 0 0 0
2421 1 23.264209828278283 15.22991213873223 9.521912573060682 0 0 0
2387 1 24.76073756923534 14.460755563271174 11.691425548847489 0 0 0
2709 1 26.454669077773833 15.255708401353385 9.292693610933972 0 0 0
2712 1 26.246463007829714 17.021264765750026 11.724342869536928 0 0 0
1560 1 14.569533211895553 16.893817411776613 11.795837779911366 0 0 0
1558 1 15.995932099879383 17.85838399069323 9.360793732477363 0 0 0
1559 1 16.226241286924893 19.465138694945654 11.647210790895498 0 0 0
1846 1 19.076690070916264 17.74444530335624 9.26901076326926 0 0 0
1847 2 19.112403991275972 19.404969221405157 11.651141142658823 0 0 0
2424 2 23.37223535290207 16.967555781185638 11.680754712017475 0 0 0
2134 1 22.039066755295078 17.70803669896244 9.389623322051467 0 0 0
2135 1 22.087774509624605 19.540278951657807 11.643773408702794 0 0 0
2422 1 24.75915555790261 17.72247489753789 9.454204724893765 0 0 0
2423 1 24.984060983199534 19.51948383888824 11.66224739948659 0 0 0
2139 1 22.04087801812197 19.435132973501045 16.32972141527109 0 0 0
1454 2 16.086704152199893 2.4765459173530977 14.12369319415921 0 0 0
1456 1 14.706887619459911 1.6530602922232287 16.420604402197682 0 0 0
2138 1 22.037435407864788 17.95322661870103 14.05299666742878 0 0 0
1742 1 18.99631785903458 2.6169169521790696 13.948714937733811 0 0 0
1744 1 17.65393569217805 1.6562919228926005 16.37396459700823 0 0 0
2032 1 20.428681637362633 1.762885298020948 16.348907405749255 0 0 0
1881 1 17.615230287582587 20.289023546791938 9.290068532412073 0 0 0
2030 2 21.97728046853891 2.5823126528702116 13.951736087063237 0 0 0
2320 1 23.37300308050646 1.7853777799773802 16.22875197330668 0 0 0
1850 1 19.06472043917299 17.908548470913935 14.080288656406 0 0 0
2318 1 24.901836414032402 2.663501916211785 13.942134701249245 0 0 0
2608 1 26.31637799863146 1.7289629792782193 16.290674223883027 0 0 0
1562 2 16.19095183494012 17.82732651820128 14.033686674121215 0 0 0
1455 1 16.121850451596014 4.0880654105245595 16.304883670900683 0 0 0
1489 1 14.608230263727872 4.885175016438152 13.95422144811086 0 0 0
1492 1 14.5603262548883 6.764442745360589 16.34293522869178 0 0 0
1743 1 18.960433183665963 4.344213372869027 16.366781967798524 0 0 0
1777 1 17.53998152718991 5.072333287211063 13.895184070346598 0 0 0
1780 1 17.490806737338193 6.754116455414682 16.406046660668192 0 0 0
2065 1 20.518907765075703 5.028426179737453 14.006443673262666 0 0 0
2031 1 21.962040935504422 4.318271503714091 16.242710300274044 0 0 0
2353 1 23.433023482701365 5.009826793542985 13.903297782819587 0 0 0
2356 1 23.457850548411297 6.773356976259682 16.24029118147025 0 0 0
2319 2 24.929270343409083 4.238708016442989 16.383709459024107 0 0 0
2641 1 26.36027615986372 5.079561550654302 13.937442579994572 0 0 0
2644 1 26.336335330311957 6.634399328030918 16.353923035309208 0 0 0
1490 1 16.065035174166876 7.6362368978803445 14.126334943891994 0 0 0
1491 1 16.078997467571078 9.240637065722652 16.240694890524654 0 0 0
1525 2 14.543288261405568 10.293001944439625 13.934636638482413 0 0 0
1778 1 19.10062709814094 7.647373829394359 13.954676258707115 0 0 0
2068 1 20.52486359948776 6.838362726408845 16.33416214014016 0 0 0
1779 1 18.940285051959844 9.283732613506988 16.2415771980567 0 0 0
2066 1 21.960254358793666 7.786409129631981 14.033019900771478 0 0 0
2101 2 20.480782877450867 10.181039460081974 13.89405579867682 0 0 0
2067 1 21.890690105908163 9.39632348142383 16.291301339454254 0 0 0
2389 1 23.348314601796336 10.18298519774727 13.923177995647972 0 0 0
2354 1 24.87665397929174 7.719837203224915 13.979007096591115 0 0 0
2355 1 24.90879406964888 9.365989844961598 16.434965950287307 0 0 0
1526 1 15.936517091656826 12.755263076798558 14.104024384209533 0 0 0
1528 1 14.556468124255165 11.913670509946888 16.406142133629746 0 0 0
1813 1 17.56420061903478 10.181168557589132 14.072513634497794 0 0 0
1814 1 18.999436558897774 12.653579576637373 14.089770609479531 0 0 0
1816 1 17.43076625926031 11.9949666337211 16.346182355308752 0 0 0
2104 1 20.43846499088676 11.750552510516314 16.342902954982957 0 0 0
2102 1 21.984913667357304 12.655827881800667 14.01823827911511 0 0 0
2392 2 23.45026942566742 11.853233166011547 16.37198963705352 0 0 0
2677 1 26.525023769714007 10.07701092264179 14.054407058368177 0 0 0
2390 1 24.959982505947664 12.63779875007562 14.166244371645053 0 0 0
2680 1 26.388163598292866 11.80351364701832 16.391091788453526 0 0 0
1527 2 16.16388373449709 14.436499065221168 16.369279471752193 0 0 0
1561 1 14.62580493707202 15.244107241096046 14.157429800573096 0 0 0
1564 1 14.686942004035542 16.952811992794654 16.388557400942037 0 0 0
1815 1 19.075360970236027 14.458674392299702 16.376916773361238 0 0 0
1852 1 17.61787595780712 17.08495101762922 16.363931517247572 0 0 0
1849 1 17.632332147887418 15.246478319528743 14.140799243991648 0 0 0
2137 1 20.53392800949561 15.197988634774001 13.934526857325578 0 0 0
2103 1 22.07023981566004 14.434175527443461 16.306820663777597 0 0 0
2428 2 23.496124618496353 16.994364802982556 16.381016848881526 0 0 0
2140 1 20.585834108380315 16.931967801172895 16.39132332886059 0 0 0
2425 1 23.326033543826796 15.377883755201266 13.970723028226912 0 0 0
2391 1 24.823271998590144 14.310857416156692 16.392729070935196 0 0 0
2716 1 26.278474397058535 16.85708802340453 16.310221216926667 0 0 0
2713 1 26.4850330774125 15.146539776636052 13.915036437780168 0 0 0
1851 1 19.14222599273562 19.64914302923742 16.519626141260797 0 0 0
1563 1 16.124272919584516 19.66416537925114 16.361749149716985 0 0 0
2317 1 23.501079674576154 0.10053933312111041 13.914942058490054 0 0 0
2605 1 26.369323747972924 0.12555295645375592 13.925829776884177 0 0 0
2313 1 23.34820859104633 0.07127541059025848 9.482936393851132 0 0 0
1597 1 14.636232990519025 20.30859101039309 13.959560525210286 0 0 0
2457 1 23.536677452194304 20.271878003098635 9.3185371547411 0 0 0
1885 1 17.71159500561916 20.280260649352737 14.127843357600128 0 0 0
2025 1 20.440097910032808 0.029827317873114934 9.38758710684286 0 0 0
1593 1 14.682587712531145 20.312080224112425 9.201635225939789 0 0 0
1458 1 16.0753611143724 2.4183560283770964 18.796739571582783 0 0 0
1460 1 14.718890910618383 1.7308064119616946 21.177230685001277 0 0 0
1746 1 18.98697113113003 2.5418198463386896 18.69066605727411 0 0 0
1855 1 19.01361019197264 19.436945935437297 21.24887608413914 0 0 0
2034 1 21.920802951613787 2.542042861762924 18.756147730704907 0 0 0
1858 1 18.987556345672566 17.697861742530534 23.483321000762217 0 0 0
2322 1 24.939607860147788 2.5272493204199167 18.60978675328425 0 0 0
2612 1 26.281349724371843 1.7280913695427187 21.039858719600094 0 0 0
2143 1 21.913033767928145 19.43886583561022 21.151542819630635 0 0 0
1493 1 14.702321951763505 5.055181355952081 18.81337109063667 0 0 0
1781 1 17.46463954593404 5.116179494266975 18.77292401125723 0 0 0
1747 1 19.164874536638564 4.130763957841206 21.072715169097634 0 0 0
2069 1 20.54390871373282 5.088795441044193 18.660666450358832 0 0 0
2357 1 23.3797276658701 5.224130931799949 18.65822534407654 0 0 0
2645 2 26.327764592885096 4.9168455621617255 18.612372700609967 0 0 0
2323 1 24.899736068014754 4.192920618580716 21.016129819430603 0 0 0
1494 1 16.122785072120127 7.774048852659916 18.679797514134954 0 0 0
1496 1 14.709846490012863 6.84989272338951 21.088884841141567 0 0 0
1495 1 16.019761372048386 9.341856398400646 21.11401544511053 0 0 0
1782 1 19.000610831347405 7.58947876613104 18.648126753725084 0 0 0
1817 1 17.43359381591855 10.27575407190245 18.681205346310254 0 0 0
1784 1 17.61082838447895 6.7270668452927245 21.13629110938907 0 0 0
2070 1 21.94755312569257 7.616289505264266 18.637614594145806 0 0 0
2072 1 20.535442287134405 6.646954707328623 21.032800471724997 0 0 0
2358 1 24.85344206184295 7.676947369979946 18.565781345805778 0 0 0
2681 2 26.484110588556334 10.05926987508667 18.78490653383759 0 0 0
2359 1 24.815341283246145 9.159660329978424 21.03110417421572 0 0 0
1529 1 14.396695635164493 10.25504015870457 18.740106396359085 0 0 0
1530 1 16.128983353197405 12.745150643933982 18.892900627206906 0 0 0
1532 1 14.656435184334466 11.871055891525508 20.927555167491903 0 0 0
2105 1 20.412079269065824 10.090995076546942 18.71624378823747 0 0 0
1818 1 19.09586703094238 12.715808195647062 18.728283129536006 0 0 0
1820 2 17.574300204313445 11.823242124128623 21.11070716110466 0 0 0
2393 1 23.341796004210714 10.160736138639189 18.66337334222381 0 0 0
2106 1 21.88721473500974 12.762258413782439 18.672285993677345 0 0 0
2394 1 24.928846613763774 12.461910379338493 18.748872881850964 0 0 0
2684 1 26.342593575798276 11.860663090049925 21.124580838660133 0 0 0
1565 1 14.710438213740346 15.268158916322047 18.759896403518 0 0 0
1531 1 16.194382202807112 14.32695113441112 21.090688930692874 0 0 0
1853 2 17.47745608760499 15.160883213359778 18.675295805607707 0 0 0
2141 1 20.305022887999506 15.377783254961122 18.59697540873115 0 0 0
2429 1 23.447247723592746 15.215850963578434 18.508431930362637 0 0 0
2107 1 21.907633832037632 14.354288967710515 21.027223333470083 0 0 0
2432 1 23.34542154555994 16.73444703950103 21.100292879749194 0 0 0
2395 1 24.951461828546755 14.29348679128763 21.013489097659264 0 0 0
2717 1 26.348906892363683 15.175944012531945 18.776924339561265 0 0 0
2720 1 26.372720922941276 16.896688398155867 21.167876910329106 0 0 0
1601 1 14.73901436804028 20.151819246923527 18.6916766984978 0 0 0
1566 1 16.12424470994518 17.77524586017305 18.730899844546947 0 0 0
1568 1 14.593955505716156 16.91996474700797 21.18489495354399 0 0 0
1854 1 18.96276489739727 17.846409057570078 18.82173974250914 0 0 0
2142 1 21.971669463913294 17.6754470195939 18.841955166442347 0 0 0
2144 2 20.440364189652165 16.918707522096145 21.16151102258344 0 0 0
2430 1 24.777827302781052 17.694096956316788 18.778671834085042 0 0 0
2431 1 25.019686754046756 19.304167141767202 21.0180073140781 0 0 0
2434 1 24.95945121465335 17.733296986344023 23.432781710866315 0 0 0
1462 1 16.164872316056822 2.487310515051583 23.337350803284384 0 0 0
1748 1 17.708643698348535 1.5089962606600014 21.06562477123044 0 0 0
1750 1 19.080069236941878 2.637345064727138 23.43059137325669 0 0 0
2324 1 23.46331219638659 1.6920415117730532 20.96924885001181 0 0 0
2146 1 22.018268024134024 17.548110284185086 23.47459469141747 0 0 0
2036 1 20.368726016651937 1.6091471014278227 21.161314892059643 0 0 0
2038 1 22.014239022755106 2.499767129755053 23.329621933446063 0 0 0
2326 1 24.92099984358086 2.396896786330893 23.416430013081232 0 0 0
1459 1 16.072347031738396 4.129117159272932 21.113599695646315 0 0 0
1497 1 14.63948954298957 5.043888003269441 23.377545293352433 0 0 0
1785 1 17.604551830394655 4.952564918151447 23.469174886604495 0 0 0
2035 2 21.97292081115765 4.158340777127834 21.014821216880772 0 0 0
2073 1 20.593618318473613 5.179543211951948 23.44971612988131 0 0 0
2361 1 23.493269951441114 4.964935286719201 23.300443243743874 0 0 0
2648 1 26.401982770277513 6.771269432478961 20.862152600808866 0 0 0
2649 1 26.372722300278642 5.074638217288057 23.46329231835504 0 0 0
1498 1 16.067090302535966 7.628351891451386 23.487596378182864 0 0 0
1786 1 19.008051507405995 7.596581157876196 23.571855448357756 0 0 0
1783 1 18.9820545825997 9.254113909137063 21.095140520007615 0 0 0
2360 1 23.36439215948023 6.740992171623413 20.911989361619085 0 0 0
2074 1 22.03434150533275 7.552976576605184 23.4216825973172 0 0 0
2071 1 21.870898828786967 9.22329793737506 21.122604357687287 0 0 0
2362 2 24.958390808386092 7.459032594542514 23.294294870873788 0 0 0
2685 1 26.351216156414864 10.072715093619795 23.409705588396278 0 0 0
1533 1 14.559415951184125 10.183745064187143 23.566284811209478 0 0 0
1534 1 16.061485975092427 12.688331931458269 23.387926003457004 0 0 0
1821 1 17.580652016822206 10.138089080741237 23.378007163136083 0 0 0
1822 1 18.98651369023179 12.537760662597643 23.26284416687022 0 0 0
2396 1 23.49879548868007 11.824431939711129 21.07751517291134 0 0 0
2109 1 20.519716998986347 10.093265781042064 23.46445858192966 0 0 0
2397 1 23.553113794323867 10.075491547678359 23.53897678415562 0 0 0
2108 1 20.426094371879568 11.81789156524507 21.050788692851317 0 0 0
2110 1 22.066385915071777 12.619649189041908 23.426447903181522 0 0 0
2398 2 24.895052640137163 12.652050701874625 23.4251249054625 0 0 0
1569 1 14.59800144147513 15.322699294513573 23.602922034973275 0 0 0
1856 1 17.603263285887028 16.750709766310326 21.144252172268736 0 0 0
1819 1 19.051583286953267 14.468160901646502 21.113194007248623 0 0 0
1857 1 17.40806444582347 15.277060721824595 23.447384487289693 0 0 0
2145 1 20.53308881353496 15.2375842552405 23.458397352159697 0 0 0
2433 1 23.603460427401785 15.071878744058827 23.327292012753542 0 0 0
2721 1 26.50731077538871 15.18606377599308 23.407209711303686 0 0 0
1567 1 16.133726338352922 19.478938794706927 21.105027675644475 0 0 0
1570 1 16.154508633659873 17.79272686448021 23.51564527720007 0 0 0
2465 1 23.40857001332113 20.127954160669216 18.657479247342113 0 0 0
2321 2 23.309595105897547 0.10147417584651124 18.61881070305322 0 0 0
2609 1 26.270286911350784 0.07290030999033123 18.64518412579368 0 0 0
2177 1 20.40671628741498 20.27455682752068 18.936316597167462 0 0 0
2033 1 20.49320130265127 0.01364010942443377 18.601519256897483 0 0 0
1893 2 17.51128908128593 20.293205635189505 23.473340673528213 0 0 0
1464 1 14.680301265225028 1.7195127625259448 25.898846921702823 0 0 0
1466 1 16.171381747792392 2.392096489714349 28.317008174852617 0 0 0
2728 1 26.324978375492506 17.045024204875805 30.396274279475378 0 0 0
1752 1 17.713470493762035 1.5558249012836842 25.575459150250136 0 0 0
1754 2 19.021856329980924 2.5857281425369094 28.042253625292567 0 0 0
2040 1 20.47732445707524 1.6471733360461474 25.83936505046098 0 0 0
2042 1 21.920380943916914 2.564770412939401 28.257918369808472 0 0 0
2328 1 23.49919253578531 1.698509258756835 25.704067952983173 0 0 0
2154 1 21.886780242637943 17.674336428569585 32.85696903808835 0 0 0
2330 1 24.909229009507797 2.4080728249815437 28.23943396271229 0 0 0
2616 1 26.473774523859962 1.4785287823301094 25.68075516548266 0 0 0
1463 1 15.938258440715433 4.173056950062425 25.928906999637498 0 0 0
1501 1 14.607931184611367 4.797791956120925 28.13292459045816 0 0 0
1751 1 19.18615016693044 4.192328878235894 25.757425159898748 0 0 0
1789 1 17.5120842393506 4.979483044813189 28.107259500617335 0 0 0
2077 1 20.557292119215997 4.991201230918799 28.148114398847593 0 0 0
1788 1 17.63753726021353 6.608081896594391 25.809127777685067 0 0 0
2039 1 22.07808706154207 4.251228904101166 25.732445180094935 0 0 0
2365 1 23.56148554439534 5.103486973454943 28.127449178967854 0 0 0
2327 1 25.091733823765928 4.044616389140956 25.802912598952037 0 0 0
2653 1 26.497601975566585 4.938377995358608 28.15445552085684 0 0 0
2652 1 26.477256284910514 6.687742415666903 25.841555461126216 0 0 0
1500 1 14.553119121157222 6.695771314673293 25.770759841286296 0 0 0
1502 1 16.198583196364627 7.674623197757813 28.047513545374482 0 0 0
1499 1 16.181752836639795 9.283241997111729 25.857481725765766 0 0 0
1790 1 18.99659764478843 7.572839994231428 28.182594046620466 0 0 0
1787 1 19.14698060412734 9.279523828209296 25.78040239017697 0 0 0
1825 1 17.64913862817698 10.220638638266143 28.029819924608006 0 0 0
2076 1 20.668501238978177 6.798275067776011 25.80005168709506 0 0 0
2364 1 23.62160627922019 6.704498630116216 25.64407182226137 0 0 0
2078 1 22.063844140726136 7.469855659668436 28.139195846123414 0 0 0
2075 2 22.118262860894486 9.256697598877658 25.869086611786305 0 0 0
2366 1 25.125576873876334 7.607770372306374 28.13883617238476 0 0 0
2363 1 24.979962622717494 9.13617033729425 25.711272926586936 0 0 0
2689 1 26.435416629380178 10.211881781235668 28.214487740873828 0 0 0
1537 1 14.669707743776584 10.175249898446276 28.197314882258613 0 0 0
1536 2 14.690899483372023 11.908980283256529 25.84920796566358 0 0 0
1538 1 16.1813310716321 12.763363904612953 28.220022838288003 0 0 0
1824 1 17.51117827571216 11.840222126872014 25.646618348081418 0 0 0
1826 1 19.04752985964892 12.774679106425957 28.12175729827882 0 0 0
2113 1 20.682007665960228 10.249711481719139 28.111439425937036 0 0 0
2401 1 23.472172378742215 10.058039678617387 28.168058869072645 0 0 0
2112 1 20.546667731616214 11.80581920177161 25.730454915649155 0 0 0
2114 1 21.90497157411896 12.641374731542635 28.16555533144589 0 0 0
2400 1 23.512458575725805 11.941161576478315 25.89904522711736 0 0 0
2688 1 26.43838614018951 11.880723389811838 25.71624575874315 0 0 0
2402 1 24.975773988831385 12.62047675383031 28.262348547911127 0 0 0
1535 1 16.14985602340428 14.36843181605686 25.890294100335815 0 0 0
1573 1 14.618465195120606 15.306948854530377 28.136529161613854 0 0 0
1823 1 19.04511552304858 14.40175661281612 25.570791580046638 0 0 0
1861 1 17.62782530675797 15.358642113901816 28.115362676091028 0 0 0
1860 2 17.550889008944964 16.87788327314382 25.842046379301944 0 0 0
2148 1 20.412083276671336 16.823096927258195 25.79890030130516 0 0 0
2149 2 20.533053500192526 15.256159821416201 28.112622064574488 0 0 0
2111 1 21.944682473315424 14.31133234516859 25.818355768604437 0 0 0
2437 1 23.416475103312973 15.213998680226284 28.161504475524183 0 0 0
2399 1 24.982045188827165 14.369679791964382 25.732129470901 0 0 0
2725 1 26.29135774949386 15.368450832372195 28.06620468636504 0 0 0
1572 1 14.69260018364525 16.948728713995436 25.898408789927704 0 0 0
1571 1 16.223285593351207 19.524409753448598 25.792681408870987 0 0 0
1574 1 16.174390489244985 17.81186846729767 28.119179807949088 0 0 0
1866 2 18.972749431390138 17.849804801324147 32.81234967810698 0 0 0
1859 1 18.985558956398915 19.4401135016615 25.698523097977933 0 0 0
1862 1 19.090371719468326 17.870524773248484 28.042340148848968 0 0 0
1901 1 17.4977361034714 20.245363877157345 32.84920724525543 0 0 0
2436 1 23.454201378965237 16.829231091831367 25.68380826328783 0 0 0
2147 1 21.97384172847379 19.457621965272658 25.900129009373867 0 0 0
2150 1 22.096762178873508 17.745996971073122 28.156332045349103 0 0 0
2189 1 20.54682691862438 20.214764876766385 32.81416653762001 0 0 0
2442 1 24.935137912463855 17.527388526308098 32.86020710380445 0 0 0
2724 1 26.303089264482775 16.991721828333226 25.783289927114623 0 0 0
2435 1 24.91070902582288 19.31282078668219 25.800802468294144 0 0 0
2438 2 24.971530755368004 17.78591264249819 28.027082479811295 0 0 0
2473 1 23.546830872208584 20.150802220166025 28.068300851626567 0 0 0
1468 1 14.687891595861457 1.554343556646121 30.629420588989774 0 0 0
1470 1 16.119170001143893 2.566126967526544 32.83434966050103 0 0 0
1756 1 17.654596556773015 1.5449875708835596 30.499440415165 0 0 0
1758 2 18.970806543523114 2.5135261745384456 32.804274994265754 0 0 0
2439 1 24.81892428914799 19.3541880883014 30.53496630013058 0 0 0
2044 1 20.431796053112922 1.581415969693929 30.502317888956757 0 0 0
2046 1 21.916996243494786 2.6550234994835122 32.77813075173833 0 0 0
2332 2 23.272953951271546 1.793836830832897 30.608930498170714 0 0 0
1863 1 19.1968319293943 19.40368253550265 30.4574542727063 0 0 0
2334 1 24.8591700927371 2.4796904032374534 32.864529991105236 0 0 0
2620 1 26.29110885052577 1.5452300473449703 30.613327968800753 0 0 0
2152 1 20.42270787113233 16.963676614926207 30.4025694508931 0 0 0
1467 2 16.272267955227548 4.175112521773414 30.456309504539014 0 0 0
1505 1 14.835576083954544 5.023426537306964 32.69046065710926 0 0 0
1504 1 14.714882189312206 6.621626695507699 30.48629380133806 0 0 0
1755 1 19.030921575627268 4.057471722307495 30.42073752766571 0 0 0
1793 1 17.665679806752923 5.051224933854955 32.670355228846674 0 0 0
1792 1 17.581766474019982 6.80249870062538 30.370072320166493 0 0 0
2080 1 20.448861723176737 6.865550982431622 30.48587877452653 0 0 0
2081 1 20.543851505662523 5.044249721371748 32.68871251729632 0 0 0
2043 1 22.13098865909336 4.2269261642741265 30.37644910062466 0 0 0
2369 1 23.444774320010406 5.0672039614242435 32.72891313717092 0 0 0
2368 1 23.44081431923605 6.772338210036504 30.31741077397397 0 0 0
2331 1 24.982462321691568 4.035829479672629 30.608972088600847 0 0 0
2657 2 26.412827390521194 5.142232751620743 32.847363419912526 0 0 0
2656 1 26.428491235392055 6.740353561221795 30.437168885583567 0 0 0
1506 1 16.245883028756328 7.620460558872323 32.791742323915614 0 0 0
1503 1 16.148154945817573 9.32591213399544 30.343126396121413 0 0 0
1541 1 14.7445871022493 10.048451941159174 32.86754724901888 0 0 0
1794 2 19.047593958715957 7.5476262419556415 32.764390305280436 0 0 0
1791 1 19.074104018398295 9.286318686702469 30.54588953538906 0 0 0
1829 1 17.506893029877148 10.180989925486545 32.94293785067885 0 0 0
2082 1 21.97419933093815 7.683365195411481 32.77142162925371 0 0 0
2079 1 22.104143041679677 9.412184022099503 30.471276371555174 0 0 0
2405 2 23.461679081045283 10.152436022867178 32.86004292739995 0 0 0
2370 1 24.813629250773722 7.596774592157313 32.724281537828055 0 0 0
2367 1 24.9465066005558 9.365603927906191 30.615358171240473 0 0 0
2693 1 26.324674147164036 10.191190930179259 32.86084747196107 0 0 0
1540 1 14.776997422569373 11.885858224238916 30.53601626008734 0 0 0
1542 2 16.203514647258867 12.740685533342184 32.77194937086079 0 0 0
1828 1 17.719975075956416 11.734189986971247 30.489060068956015 0 0 0
1830 1 18.99272285145326 12.685994155530633 32.89037621437665 0 0 0
2116 2 20.382736456600295 11.900861959183809 30.449988197740396 0 0 0
2117 1 20.632640216066545 10.255211486028072 32.73118475169121 0 0 0
2404 1 23.475589960008953 11.908721516669004 30.56931951578665 0 0 0
2118 1 21.97571576229491 12.644142072878797 32.85168983929108 0 0 0
2406 1 24.82994596820224 12.676133687613545 32.95767537577567 0 0 0
2692 2 26.38197823181492 11.985328623497391 30.49938046760372 0 0 0
1539 1 16.295958937616582 14.440344363551402 30.533314441027766 0 0 0
1577 1 14.796629254753789 15.082426832166448 32.82220007653915 0 0 0
1576 1 14.735068310160772 16.947628644865294 30.517398244072933 0 0 0
1827 1 19.091923682649117 14.409861535769606 30.444966150009435 0 0 0
1865 1 17.730317790434544 15.136054254604343 32.7495298451589 0 0 0
1864 1 17.597484263870793 16.91418427394792 30.64853489553414 0 0 0
2153 1 20.439239246944876 15.2962661737835 32.862434356084435 0 0 0
2115 1 21.90105032800109 14.479201194185606 30.672707018257544 0 0 0
2441 2 23.370318813001262 15.162487775247 32.968779321795566 0 0 0
2403 1 24.907732826304215 14.381263641738714 30.60390957993568 0 0 0
2729 1 26.451051788132084 15.273114746059546 32.802586041355426 0 0 0
1575 1 16.1294747542849 19.53761789081616 30.448862097676535 0 0 0
1578 1 16.158191445473307 17.83476660536163 32.82833998708212 0 0 0
2440 1 23.471207559178904 16.777815381334744 30.509990173822427 0 0 0
2151 1 22.06643003765783 19.323478242597236 30.457043754442402 0 0 0
1472 1 14.54813079206167 1.568327729065921 35.132622365682096 0 0 0
1474 1 16.122253324199782 2.5495860114879614 37.45036312536148 0 0 0
1477 1 14.67153378275804 4.999488232244025 42.081360504507344 0 0 -1
1760 1 17.60161137898652 1.6305705852244725 35.066275205573014 0 0 0
1762 1 19.211687371190994 2.352193257938922 37.48803474905315 0 0 0
2447 1 24.75906902078894 19.5230262741128 39.75718851504276 0 0 0
2048 1 20.52304142121542 1.7107698632019328 35.03300163216705 0 0 0
2050 1 22.011678168210466 2.55335790982829 37.5134488379527 0 0 0
2336 1 23.330812616865348 1.8536452667279861 35.189599853343516 0 0 0
2159 2 21.888914044696712 19.487240687044537 39.75108874729348 0 0 0
2338 2 24.85384742207233 2.5639121432372556 37.50297030220775 0 0 0
2624 1 26.435506349485397 1.6654674384424129 35.24874453202336 0 0 0
1471 1 16.12554999279758 4.172752471552933 35.05065560951745 0 0 0
1509 1 14.659434090278005 4.987212332114604 37.44477052289491 0 0 0
1759 1 19.015735808697144 4.170383297542673 35.13481072027561 0 0 0
1797 1 17.6583668482113 4.891443888675038 37.53244815777453 0 0 0
2084 1 20.48496226694013 6.761225636799402 35.10959943097687 0 0 0
2085 1 20.569580469699762 5.139238984601553 37.34660416330103 0 0 0
2047 1 22.012886864179524 4.166168592633229 35.1027671042221 0 0 0
2373 1 23.374769649820706 5.059963820023844 37.55345478648637 0 0 0
2335 1 24.917249094403726 4.145777463656143 35.21904596291156 0 0 0
2661 1 26.420972367372077 5.0352936343775365 37.46663310695583 0 0 0
2660 1 26.294572946901983 6.786579240226946 35.06660869915421 0 0 0
1508 1 14.785460733070323 6.835623998958483 35.05220053921472 0 0 0
1510 1 16.171925211975065 7.499627246759893 37.61162123452845 0 0 0
1507 1 16.123146673014965 9.318175628863521 35.33849591825723 0 0 0
1796 1 17.6367395378075 6.799470936310555 35.25890892585993 0 0 0
1798 1 19.026422373432943 7.540191350787141 37.447702859471036 0 0 0
1795 1 19.00371341357325 9.329149919751826 35.18535883947946 0 0 0
2121 1 20.47118382360002 9.96960109120138 37.655154594991124 0 0 0
2372 1 23.446999341365043 6.781150153071802 35.00650180617185 0 0 0
2086 2 21.960335406563875 7.592244660176943 37.40808077160307 0 0 0
2083 1 22.031426119791895 9.253630266097776 35.25766071503186 0 0 0
2409 1 23.437316441850623 10.203609053892832 37.686607764459595 0 0 0
2374 1 25.00023023516292 7.689394628625724 37.50052350413039 0 0 0
2371 1 24.873271883636658 9.291487520579228 35.203126629560295 0 0 0
1545 1 14.485279629212773 10.212310667400528 37.59604136917948 0 0 0
1544 1 14.579667915736039 11.746537214131962 35.10086004993115 0 0 0
1546 1 15.879680640295703 12.654006830886216 37.475607781867396 0 0 0
1833 1 17.495609575250405 10.116538272929438 37.5877472438995 0 0 0
1832 1 17.5496462847235 11.741743302149086 35.13665862943311 0 0 0
1834 1 19.04056490322611 12.51356465766202 37.56642334102578 0 0 0
2120 1 20.61863080612179 11.828803481961243 35.321061504125865 0 0 0
2122 1 21.922303011364235 12.752850736523497 37.63481223599122 0 0 0
2408 1 23.355404861904997 11.735271985333782 35.2772897303326 0 0 0
2697 1 26.397693962436495 10.2310176623438 37.53195877657956 0 0 0
2410 1 24.874446249515227 12.774506177381186 37.50406457679635 0 0 0
2696 1 26.40818483844539 11.879305625316224 35.09821647314818 0 0 0
1543 1 16.24272347705877 14.2367784557032 35.04520157410868 0 0 0
1581 1 14.688966433151494 15.273771793198533 37.49946895960656 0 0 0
1580 1 14.76286086584133 16.88589569089844 35.20279493912009 0 0 0
1831 1 18.94329820215848 14.33009128061186 35.29941607640495 0 0 0
1869 1 17.500746930804702 15.089976374907886 37.67135795135286 0 0 0
2157 1 20.45915834339134 15.195761506541436 37.47912220926367 0 0 0
2119 1 21.86864434868205 14.457471386629093 35.215686851498624 0 0 0
2445 1 23.309680474052197 15.219729669165833 37.51230389639975 0 0 0
2444 1 23.326054324299804 16.799573784688928 35.18438749885541 0 0 0
2407 1 24.810618751815674 14.368258170208504 35.20911849308211 0 0 0
2733 1 26.297546540348467 15.128657351799715 37.48455522287676 0 0 0
2732 1 26.36765870051336 16.970436852644564 35.249978926803465 0 0 0
1579 1 16.142552118501786 19.309917613553107 35.045150544467276 0 0 0
1582 2 16.061805565574765 17.69105663790628 37.45899234944649 0 0 0
2449 1 23.46198863228531 20.22421584835108 42.15521276585328 0 0 -1
1868 1 17.59272008730969 16.814036618562476 35.07198254946548 0 0 0
2156 1 20.394974825738274 16.924069516521023 35.2107741094494 0 0 0
1867 1 19.084815960371056 19.424834853044686 35.08566490341199 0 0 0
1870 1 18.73115046331013 17.722970849804703 37.47729943640166 0 0 0
2054 1 21.988522985898864 7.628951512381901 42.19002007379436 0 0 -1
2155 1 21.960373126716608 19.48646594385157 35.19726616440062 0 0 0
2158 1 21.923506553532665 17.777563518364836 37.41070633233662 0 0 0
2700 1 26.265382442498947 11.784107331393837 39.72279923513335 0 0 0
2443 1 24.80703010708934 19.464858420823376 35.092269400304254 0 0 0
2446 2 24.93803687808188 17.609587679315364 37.5049188849268 0 0 0
2412 2 23.377580556376344 12.062085295053677 39.82248445592009 0 0 0
1871 1 19.101925849239567 19.303783007844757 39.81394713066908 0 0 0
1476 1 14.640259324499945 1.4848888363439443 39.88056788395087 0 0 0
1584 1 14.63383326458037 16.898341827706776 39.755116433432164 0 0 0
1764 1 17.779477330865348 1.674938676722729 39.75106304341672 0 0 0
1872 1 17.43396718015404 16.971173301043912 39.80453449793958 0 0 0
2378 1 24.988808732709145 12.72838294837977 42.169154053882394 0 0 -1
2052 2 20.583715305504192 1.6340231164979104 39.79546051743137 0 0 0
2340 1 23.383597003379478 1.6157224264170909 39.77879868511194 0 0 0
2448 1 23.29539393448006 17.040686776763245 39.7514887978096 0 0 0
1583 1 16.00209399385819 19.412155114990803 39.68647407803305 0 0 0
2628 1 26.402740306267066 1.8654201391207625 39.74012963372458 0 0 0
1475 2 16.229272434707458 4.1239577117670425 40.01310352980751 0 0 0
2414 1 24.90148604297878 17.70033293660597 42.098256033380906 0 0 -1
1763 1 19.177127638622427 4.083510620706678 39.83845983156175 0 0 0
1800 1 17.65110241665215 6.713171976260149 39.85125226788744 0 0 0
2625 1 26.446495691563175 0.10012209348164362 37.49084158869159 0 0 0
2051 1 21.877788783906187 4.057253532604535 39.942073168112884 0 0 0
2088 1 20.5923208570222 6.702845388466198 39.81771175092116 0 0 0
2376 1 23.443772345530302 6.8132997255215795 39.79056410602384 0 0 0
2123 1 21.83391130411928 14.579779353725725 40.09350948998957 0 0 0
2339 1 24.8962868339425 4.2768970195134495 39.78705046422152 0 0 0
1512 1 14.789251600085867 6.843952998582086 39.914805465794885 0 0 0
1511 1 16.00725721536223 9.23656621937503 39.81594149029014 0 0 0
1835 1 18.94342688113927 14.274233589773237 39.9591984566084 0 0 0
2160 1 20.40625235579206 16.932832827528173 39.873670738807874 0 0 0
1799 1 18.99244060381683 9.372830998822847 39.9508576593958 0 0 0
2411 1 24.894500912891434 14.426168203226144 39.955872060545396 0 0 0
2377 1 23.395177152957142 10.32262378938195 42.010178885811804 0 0 -1
2087 1 21.933839406574467 9.308432444528743 39.80417827658886 0 0 0
1765 1 17.750115702469227 5.150298012996184 42.14389090210587 0 0 -1
2124 1 20.515278392587373 11.82325634080905 40.00244517664413 0 0 0
2664 2 26.368831988583164 6.735552325177686 39.76226372505397 0 0 0
2375 1 24.892174292744695 9.256790894511635 39.854210291685625 0 0 0
1547 2 15.997185016920719 14.316928437240662 39.727813815474775 0 0 0
1548 1 14.53672018556078 11.815793130917003 39.82442114026415 0 0 0
2736 1 26.325736956225104 17.049177508321918 39.75930373202605 0 0 0
1836 1 17.43052227954348 11.864609884950525 39.8429308851438 0 0 0
2769 1 26.23795777154379 20.2649232367929 37.423752637688594 0 0 0
2481 1 23.4601584076226 20.25207183889316 37.382428798813656 0 0 0
1837 1 17.52218610916799 15.35669107477002 42.04313989089681 0 0 -1
2337 1 23.514484369390832 0.1598681628951085 37.41462266744899 0 0 0
1617 1 14.738919984395125 20.197113376076807 37.59842184512547 0 0 0
2049 1 20.48150429421199 0.09318139471987685 37.451516522496696 0 0 0
2126 1 21.996348242588056 17.638106867064696 42.15356344867075 0 0 -1
2593 1 26.481558847630396 0.070469320107494 42.01178640691707 0 0 -1
2629 1 26.347095837766197 5.158769370858348 42.03570773778018 0 0 -1
2161 1 20.434784970698463 20.214192497786296 42.17274892609106 0 0 -1
2306 1 24.89108380271716 2.5606963597633716 42.1475706177144 0 0 -1
2665 2 26.47039088092225 10.195442374332751 42.121497271246355 0 0 -1
2342 1 24.911144139181616 7.7080372153973515 42.14121620769713 0 0 -1
1766 1 19.121030871885814 7.661309691781452 42.18480686710165 0 0 -1
1550 1 16.060328153770172 17.911096114791345 42.16045413024694 0 0 -1
1730 1 19.03853149535247 2.560362305092372 42.17814999437291 0 0 -1
1588 1 14.694403403960596 21.88000963908761 2.2797597629154094 0 0 0
2737 1 26.174548239059995 20.409448470506764 0.020709635441496253 0 0 0
1876 1 17.7767663728817 22.051658101029044 2.2672248770278847 0 0 0
2164 1 20.48978864972262 21.946118656407446 2.2865317630036888 0 0 0
2452 1 23.394544774765016 21.839663731103613 2.3767447780351274 0 0 0
1909 2 17.596174229844806 25.442556992957112 0.038136719455716256 0 0 0
2740 1 26.185346201928805 22.225165982873566 2.349853167316987 0 0 0
2198 2 21.99423720651413 27.98373338922611 -0.02479134871824512 0 0 0
1587 2 16.24833365864673 24.55623024548779 2.1901234841161688 0 0 0
1877 1 17.53555212421084 20.365699331930028 4.59300079942733 0 0 0
1875 1 19.008515828448758 24.53994918753295 2.2406202316368677 0 0 0
1946 2 18.994257113932267 33.027110387209525 -0.0146597374067675 0 0 0
2163 1 21.889419414878414 24.40650295976595 2.223505962861013 0 0 0
2563 1 24.88509318849061 39.835476793854305 6.898001487328828 0 0 0
2234 1 21.766551019684552 32.92561503417315 -0.0011356740935271198 0 0 0
2451 1 24.81460064529615 24.577659849341213 2.414787170372836 0 0 0
2776 1 26.405836378852655 27.07779702670741 2.3591878470382133 0 0 0
1624 1 14.811815230441791 27.19585290938813 2.2018941669847463 0 0 0
1623 1 16.077776107543375 29.647776886794457 2.2684424627223994 0 0 0
1912 1 17.721080509014243 27.096940429442903 2.3438908535573506 0 0 0
1911 2 19.14897337247699 29.497946155273514 2.3137065255342977 0 0 0
2488 1 23.427172866933258 26.99039709053815 2.440762398323718 0 0 0
2200 1 20.687832268742035 27.133991273822645 2.3917595448063045 0 0 0
2199 1 21.875194992989037 29.541213671258667 2.3482390869957914 0 0 0
2274 2 21.922946287113646 38.03500803071656 4.6119180791564505 0 0 0
2487 1 25.061710948550637 29.693892699299614 2.3627246049700434 0 0 0
2021 1 20.297593755671485 40.5932953970516 4.587350780126046 0 -1 0
1660 2 14.643523482520699 32.036796720837685 2.333241715820045 0 0 0
2276 1 20.52180574998965 37.08518496773495 6.875911632204235 0 0 0
1948 1 17.58756381756251 32.12088694205437 2.313548899364718 0 0 0
2236 1 20.476404308362604 32.012966456000676 2.4017477418871627 0 0 0
1700 1 14.665045852915112 37.17439385662874 6.959837595320648 0 0 0
2524 1 23.49543518635518 32.10407476697899 2.3417485794623585 0 0 0
2812 2 26.38738047489429 32.17105419136137 2.317075395814128 0 0 0
1987 1 18.905672330455474 39.95179094840865 7.069526034240242 0 0 0
2773 1 26.2475133174932 25.228625887534715 0.10145140535638308 0 0 0
1659 1 16.145257782713625 34.799036750550144 2.2523401035972146 0 0 0
1696 1 14.63825891405443 37.18070712716863 2.3331237913698972 0 0 0
1945 1 17.707118884267697 30.314663334726138 0.07539017736906488 0 0 0
1947 1 19.013053645365115 34.65525058166681 2.3475742139246822 0 0 0
1986 1 19.049540751462896 38.007600627093865 4.639597005859628 0 0 0
2235 1 21.95383891504973 34.55841099195405 2.3559445117779156 0 0 0
2560 1 23.405804661064202 37.306332727036406 2.112067630056847 0 0 0
1698 1 16.091171426053812 37.890288098274134 4.758103737404121 0 0 0
2523 1 24.926516768591778 34.61628417385737 2.252421364349415 0 0 0
2562 1 24.717728699737027 38.20641331603309 4.620421413411664 0 0 0
1695 1 16.242027632138107 39.87207534477694 2.362964094931524 0 0 0
1984 1 17.629464687402173 37.371928509651084 2.3001370248803603 0 0 0
1983 2 18.99135638927471 39.64122348077642 2.3844971975264597 0 0 0
2272 1 20.580522128234986 37.217612239531505 2.2853866438732418 0 0 0
2271 1 21.93205457283979 39.792648182978425 2.2976642400112612 0 0 0
2275 1 21.83228061146685 39.76251904772206 6.955846931981247 0 0 0
2848 1 26.42397969084354 37.29582246233918 2.2602054061222674 0 0 0
2559 1 24.96805405722766 39.849514703281656 2.269108692758555 0 0 0
2564 1 23.312375089979184 37.311222339620855 6.966624362494793 0 0 0
1693 2 14.587399507940026 35.596649533769195 0.05387108255045514 0 0 0
1590 1 16.223168343401728 22.954045714032794 4.510570468408265 0 0 0
1592 1 14.895562231165991 21.93464366619259 6.946346406349179 0 0 0
1878 1 19.29912294970472 22.906398700207117 4.62784457140635 0 0 0
1880 1 17.74358375064649 21.926848732698325 7.007319383791324 0 0 0
2168 1 20.538328317956807 21.96127023029752 7.053187470916181 0 0 0
2852 1 26.287442514925814 37.21166189463728 6.936922325746772 0 0 0
2166 1 22.009819824636814 22.777997301010526 4.77604094088806 0 0 0
2456 1 23.376243070515606 21.994197418543404 7.126130544083561 0 0 0
2454 1 24.876488921895188 22.855461385250344 4.745347041163946 0 0 0
2744 1 26.35335509647563 22.014313549370225 7.041492027167175 0 0 0
1591 1 16.158626686828544 24.44603221940638 7.0142116043977545 0 0 0
1625 1 14.771606290992295 25.501055888954514 4.697106906554833 0 0 0
1879 1 19.068119874878327 24.538081371227904 6.993153841178476 0 0 0
1913 1 17.568273475522457 25.413407967385226 4.6983080000233235 0 0 0
2201 1 20.652285690062534 25.347788355421716 4.640371507392464 0 0 0
2167 1 21.97380870044993 24.430041545142295 7.158289109854426 0 0 0
2489 1 23.540914503536186 25.286880424322053 4.714597926479329 0 0 0
2455 1 24.91816638665423 24.60547367372629 7.007580511606277 0 0 0
2777 1 26.524970403665662 25.324087040760777 4.736736511793984 0 0 0
1628 1 14.682660802460235 27.07666436745383 6.921978673291295 0 0 0
1626 2 16.204133134636745 27.963150791818524 4.6947112847728105 0 0 0
1627 1 16.17822051987008 29.542659353367306 6.971592476920404 0 0 0
1661 1 14.562172628298573 30.403073086949185 4.566834394572643 0 0 0
1916 1 17.62498902195712 27.12658773199807 6.865134575322434 0 0 0
1914 1 19.12491964202998 27.883831427181697 4.532803091654094 0 0 0
2204 1 20.64239614432884 27.02779293380038 6.966751144860257 0 0 0
1915 1 19.162721405548574 29.513910944782413 7.1462737136294425 0 0 0
2492 1 23.467256160053594 26.983246023678 6.836443831212423 0 0 0
2202 2 22.088991263486783 27.878562516861184 4.627646699253851 0 0 0
2203 1 21.997053014815005 29.406075983607085 7.096860746823718 0 0 0
2780 1 26.503429156307707 26.97354364145559 7.048690596313089 0 0 0
2490 1 25.001840327723002 27.865289748989593 4.644036690174785 0 0 0
2491 1 24.989563288476788 29.593324583643508 7.180874639833731 0 0 0
1662 1 15.943619664269168 33.03564081793856 4.596288707846002 0 0 0
1664 1 14.639818169286258 32.18877453650609 7.0270823775038 0 0 0
1949 1 17.68562053652148 30.28345043821965 4.700008879667541 0 0 0
2237 1 20.425578620903263 30.275310153595278 4.725366515401908 0 0 0
1950 1 19.024520296120862 33.031104820342065 4.789287818759292 0 0 0
1952 1 17.666279563945494 32.11758914614384 7.079309587690015 0 0 0
2240 1 20.579860587845864 31.940491879651 7.131250388321523 0 0 0
2525 1 23.46333163340924 30.255935120788774 4.7108630156756535 0 0 0
2238 1 21.87314574424997 32.83891610259294 4.750512319001163 0 0 0
2528 2 23.39655331938286 32.119536037915424 6.872358878698918 0 0 0
2813 1 26.54765521541812 30.641882424082652 4.552199293009317 0 0 0
2816 1 26.243280145326217 32.174138556557345 6.986282950564988 0 0 0
2526 1 24.85158461951893 32.9462711608972 4.633018304564684 0 0 0
1663 1 16.22115663048065 34.60831751316004 7.070968677608154 0 0 0
1697 2 14.55295466874776 35.59229024778488 4.672742519525579 0 0 0
1951 2 19.128035317935808 34.65730836042976 6.9874244364185865 0 0 0
1988 1 17.639238020195897 37.36124140386243 7.081310470783567 0 0 0
1985 1 17.38659405609212 35.533643256955635 4.737829743035035 0 0 0
2239 1 22.008967475676183 34.43935900456557 7.125624474931006 0 0 0
2273 1 20.602867369752964 35.49379955766024 4.681250451910509 0 0 0
2561 1 23.30778301053205 35.694996524409596 4.576386468541563 0 0 0
2849 1 26.26932669670411 35.542646043026764 4.67890206129394 0 0 0
2527 1 24.818810301993675 34.68154271367174 7.108291189834019 0 0 0
1699 2 16.07329041932198 39.695355069844425 7.056862249662041 0 0 0
2741 1 26.377916209026324 20.355671408808306 4.664199294015331 0 0 0
2522 1 25.042085571455065 32.89743381972875 -0.023677374998823213 0 0 0
1910 1 19.18175346140599 27.939215719730516 0.07754079171883364 0 0 0
1729 1 17.523886732885174 40.55826801253286 0.018667243833691588 0 -1 0
2233 1 20.414094859700917 30.522786067535023 -0.012922665003980677 0 0 0
1589 2 14.663156176583882 20.377467080092348 4.584525214195628 0 0 0
1445 1 14.65829018691636 40.45625906139491 4.659500963760748 0 -1 0
2486 1 24.855378547660624 28.002548427341186 0.08406703686310923 0 0 0
1982 1 19.256282382633028 38.11603284310888 0.003556167767617739 0 0 0
1981 1 17.484299689294676 35.47540483065034 0.0793640142602591 0 0 0
1694 1 16.104447454577688 37.97653939172837 0.03345800974972443 0 0 0
1658 1 16.151127330406062 33.00318359635393 0.06149739804501181 0 0 0
2450 2 24.747326165134147 22.779680631247054 0.007728533366083826 0 0 0
2269 1 20.534459478599175 35.52458288102247 0.03645070432915756 0 0 0
2521 1 23.415258303915966 30.42855576909326 0.217171853611154 0 0 0
2305 1 23.539445783876648 40.53099229952304 -0.014381284282723266 0 -1 0
2017 1 20.233579732831778 40.55874841502669 0.01009250145198886 0 -1 0
1621 1 14.666067613948782 25.347464867846757 0.08332829276271135 0 0 0
2197 1 20.395328706238697 25.571017907921636 0.16147617864371724 0 0 0
1622 1 16.23551219063444 27.840854960013214 -0.02991609274469198 0 0 0
1657 1 14.57019020175918 30.402575576373426 -0.02041356122126814 0 0 0
1594 2 16.361013994639556 22.88708989607814 9.243881002139414 0 0 0
1596 1 14.645910250879483 21.928385066957023 11.545201797149186 0 0 0
2860 1 26.32138686014699 37.16898187243356 16.32019775216098 0 0 0
2570 1 24.891330625963295 38.20361458861197 14.061538149917046 0 0 0
1882 1 19.220824541560784 22.83815701583274 9.388554339884989 0 0 0
1884 1 17.692557745708317 21.91801731679537 11.636915701805629 0 0 0
2571 1 24.793591064402452 39.87868606776891 16.354293628047316 0 0 0
2172 2 20.63516687675876 22.093026457834682 11.768188780513961 0 0 0
1453 1 14.9626767199404 40.531349380669475 14.073712040813417 0 -1 0
2170 1 21.976736137660076 22.748244032709074 9.491051792947175 0 0 0
2460 1 23.535295130213388 22.006670888053982 11.61291617046543 0 0 0
2458 2 24.916157908281885 22.926345793376964 9.328976724221242 0 0 0
2748 1 26.520618288075053 22.039636947688074 11.67191214204259 0 0 0
1595 1 16.00226458737404 24.366875910546103 11.664721783700497 0 0 0
1629 1 14.640240260657215 25.383602498790555 9.23620939136249 0 0 0
1632 1 14.573931219319167 26.999803492036264 11.71048093059866 0 0 0
1883 1 19.137590725948915 24.51721738794403 11.70216839296378 0 0 0
1917 1 17.65021549673144 25.354201383098076 9.36187172640747 0 0 0
2205 2 20.534243641509658 25.40469829202752 9.272009229570287 0 0 0
2208 1 20.523654728043436 27.120524623678907 11.711548136893592 0 0 0
2171 1 22.005518083136433 24.535164335530027 11.737177213989046 0 0 0
2493 1 23.430740326756826 25.40241458665047 9.439741213791873 0 0 0
2459 1 25.07187555815031 24.465431311842313 11.7015160073891 0 0 0
2781 1 26.55761399477588 25.33342196887783 9.396839205430481 0 0 0
2784 1 26.427733056641255 27.016392543029195 11.710388302820302 0 0 0
1630 1 16.043620565507833 27.769976932273543 9.366478815731389 0 0 0
1631 1 16.129108330106796 29.506460452178434 11.888148559755374 0 0 0
1665 1 14.769218778642506 30.48007428069106 9.38452384704855 0 0 0
1920 1 17.412442087279995 27.02781381373691 11.738152529428653 0 0 0
1918 1 18.955114692604305 27.732022593374996 9.303559013581394 0 0 0
1919 1 18.988222966475096 29.545187500825246 11.766289438495132 0 0 0
2241 1 20.472785622023725 30.379705514507748 9.43575163000341 0 0 0
2496 1 23.351091323175797 27.158669737085948 11.798171511527883 0 0 0
2206 1 21.991175070760537 27.98233836002575 9.37595404535591 0 0 0
2207 2 22.083978799148834 29.710773085053408 11.693205955996108 0 0 0
2494 1 24.979897293427882 28.01610931371638 9.270735050103477 0 0 0
2495 1 24.931823849062145 29.58447523873509 11.545295261936813 0 0 0
1666 2 16.23331249916989 32.95830082134556 9.355411193945896 0 0 0
1668 1 14.893200300629976 32.033924813342225 11.696963112355 0 0 0
1953 1 17.524945622594014 30.40138926111065 9.36817418836457 0 0 0
1954 1 19.123645269688243 33.14521165873144 9.270062326942552 0 0 0
1956 1 17.614118178139908 32.28189451108825 11.70063369100723 0 0 0
2529 1 23.450488814585757 30.433845318721907 9.263322093058063 0 0 0
2244 1 20.538017215979494 32.11043743236969 11.8480455534713 0 0 0
2532 1 23.525556947885775 32.1767215781703 11.686859041134525 0 0 0
2242 1 21.926651809240276 32.9043854977674 9.431418265430278 0 0 0
2817 1 26.48719830900851 30.509295023625878 9.449841036835716 0 0 0
2530 1 24.747958398092642 32.93232282346864 9.144709003460719 0 0 0
2820 1 26.500305844628585 32.142189939967295 11.727384247846144 0 0 0
1667 1 16.24484416305765 34.66503789302784 11.68350033529257 0 0 0
1701 1 14.705555372991732 35.53659592641493 9.330827294941832 0 0 0
1955 2 19.162523631441275 34.626342883975354 11.588395365703693 0 0 0
1989 1 17.61276650021839 35.51935340414952 9.226740187599983 0 0 0
2277 1 20.498104744280287 35.53667928857986 9.367311702421294 0 0 0
1992 1 17.779779470654244 37.202794554415156 11.6411029264342 0 0 0
2243 1 22.03497006160521 34.65998762169635 11.667358538752044 0 0 0
2565 1 23.310631083311375 35.56706396720342 9.386834844044536 0 0 0
2531 1 24.99168422127123 34.57000106936855 11.567991043811679 0 0 0
2853 1 26.26460334718497 35.635577285964644 9.255393535865505 0 0 0
2856 1 26.556165630721694 37.2753813580657 11.714770550980074 0 0 0
1704 1 14.727927595087884 37.157003754757056 11.734245676775 0 0 0
1702 1 16.109056749639006 38.06050700949019 9.436403242529142 0 0 0
1703 2 16.28878955333666 39.71940414645258 11.724140675931155 0 0 0
1990 1 19.194930905802906 38.08284685648133 9.287096643739385 0 0 0
1991 1 19.103788545250044 39.73181624499188 11.798248085373595 0 0 0
2283 1 21.96200684206352 39.75106258850647 16.286726312576832 0 0 0
2280 1 20.4835444886068 37.327723789031246 11.666130545499229 0 0 0
2568 1 23.543688099233265 37.33964202544418 11.632537958044045 0 0 0
2278 1 21.845261280938033 38.05955600432795 9.444660804451091 0 0 0
2279 2 22.060175809339007 39.836532718791354 11.77275804707269 0 0 0
2572 2 23.54249202670039 37.21493798204091 16.344805708694967 0 0 0
2566 1 24.972607779932027 38.03581539451738 9.315091136481659 0 0 0
2567 1 24.98886093169512 39.83021234052812 11.626906993372497 0 0 0
1598 1 16.25892192394178 22.778640121308097 14.011631127314871 0 0 0
1600 1 14.722062533580566 22.113013897909152 16.356145587264738 0 0 0
1886 2 19.06311815664229 22.895488951911297 13.990526097430408 0 0 0
1888 2 17.622044216788677 22.067058049945306 16.477263502318483 0 0 0
2284 1 20.584186534388817 37.218245826202285 16.28573695375355 0 0 0
2176 1 20.49346967207196 21.936610449078138 16.38497297911591 0 0 0
2174 1 21.939430633311463 22.89577655920279 14.101043898907411 0 0 0
2464 1 23.317152749729516 22.0910658882148 16.393232626569944 0 0 0
2745 1 26.359779696776577 20.4280700475321 9.343843966607317 0 0 0
2462 1 24.92239795559506 22.82330414501723 13.993216579246257 0 0 0
2752 1 26.49820704067931 21.855618486653643 16.47645766372184 0 0 0
2282 1 22.014085386443803 38.08209898808881 13.918296725042774 0 0 0
1599 1 16.196457574776687 24.581222594083012 16.356556007719668 0 0 0
1633 1 14.673822586168818 25.190376168538354 14.01206786773197 0 0 0
1636 2 14.594463520891976 27.05375917637637 16.422047611125638 0 0 0
1887 1 19.034056866134414 24.433678024183408 16.354505799519814 0 0 0
1921 1 17.62157247036834 25.26795574747708 14.026105636634128 0 0 0
2209 1 20.516150575179132 25.412131197283465 14.098937747035858 0 0 0
1924 1 17.50034803318835 26.913901767695055 16.403603336730267 0 0 0
2175 1 21.976490778463184 24.81671402439667 16.48004033589421 0 0 0
2497 1 23.569646072791016 25.316909683316425 14.075743412174905 0 0 0
2463 1 24.90386544439365 24.506344663223608 16.424486997076695 0 0 0
2785 2 26.511254158734857 25.285637251968986 14.005873591474579 0 0 0
2788 1 26.453838184835305 26.995686433320028 16.453266674360385 0 0 0
1634 1 15.899233696315838 27.851912494509666 14.10774881925037 0 0 0
1635 1 16.178979317748958 29.62558596165926 16.441055997928707 0 0 0
1669 2 14.643038933728068 30.409286666767585 14.051088343788427 0 0 0
1922 1 19.159028035153728 27.794131638830322 14.138842629109869 0 0 0
1923 1 19.044545886314822 29.52090930622625 16.468364745198272 0 0 0
1957 1 17.579358840710768 30.308984184733337 14.139847746071025 0 0 0
2212 2 20.45813861826153 27.0714550475534 16.385251129114522 0 0 0
2500 1 23.405732237746545 27.199323244126163 16.400219306153556 0 0 0
2210 1 22.040110835689582 28.051030275761647 13.985439222894179 0 0 0
2211 1 21.91732618144591 29.702393356542537 16.287097117115824 0 0 0
2498 1 25.04081386873566 27.90683287866919 14.060746808214951 0 0 0
2499 1 24.977527302842653 29.59296262184144 16.33424024541292 0 0 0
1672 1 14.731121704380392 31.96264046827203 16.306488157674252 0 0 0
1670 1 16.1580644515195 32.99736242510145 14.155462547367668 0 0 0
1958 1 19.039671431300896 33.01454581147746 14.019658643974248 0 0 0
1960 1 17.69949393607048 32.17763977489493 16.591714894752077 0 0 0
2248 1 20.389555195632017 32.29025371187452 16.483558435535066 0 0 0
2245 1 20.511241902341013 30.460124348264014 14.089600233388802 0 0 0
2533 1 23.462811387067404 30.721056622348293 13.97544285211975 0 0 0
2246 1 21.958944261882692 33.088192555829636 14.235421040008573 0 0 0
2536 2 23.43794671902535 32.27360802555556 16.32357796863684 0 0 0
2821 2 26.38135830514387 30.41857642259823 14.077212778898316 0 0 0
2824 1 26.32977518599303 32.15373324704726 16.481313255121115 0 0 0
2534 1 24.912224839894108 32.986320140440384 14.007180365812928 0 0 0
1671 1 16.040249757930578 34.61753888667956 16.334684650973912 0 0 0
1705 2 14.626064030162297 35.56536872690354 14.02778607355199 0 0 0
1708 1 14.602911179664625 37.36990538425344 16.38046479433351 0 0 0
1959 1 18.958923503751247 34.7338934225552 16.27640223488458 0 0 0
1993 1 17.51034883740683 35.5853786160135 13.880683062735649 0 0 0
1996 1 17.5388356797155 37.1458376417074 16.39528085318298 0 0 0
2281 1 20.53531341028287 35.59566928886648 13.95453277859255 0 0 0
2247 1 22.040725085078535 34.70502950242357 16.532459816245034 0 0 0
2569 1 23.519673152686526 35.667876883986835 13.959081102474899 0 0 0
2535 1 24.88995092050314 34.751681452685354 16.228625192596898 0 0 0
2857 1 26.48169844951317 35.595793944924665 13.951205031029058 0 0 0
1707 1 16.15018074008145 39.6637985127383 16.373867431075297 0 0 0
1706 1 16.26162046309186 38.05236152370889 14.015587629775256 0 0 0
1995 2 19.008330821018845 39.652303942881495 16.39976614756476 0 0 0
1994 1 19.03972740510044 38.01977456098111 14.193967869446007 0 0 0
1737 1 17.511273368060877 40.517185570963704 9.43110095312586 0 -1 0
1449 1 14.80705425078797 40.599224697746074 9.446859309464514 0 -1 0
2461 2 23.495120591501337 20.35417023267509 14.167695149551689 0 0 0
2173 1 20.554981310507863 20.411320939605833 13.989144882812734 0 0 0
2749 1 26.36149547679604 20.418544596003642 14.022685477766938 0 0 0
2169 1 20.34730804049142 20.32523916559163 9.463629935528537 0 0 0
2029 1 20.53923407941634 40.611635261233516 14.072342860156175 0 -1 0
1741 1 17.703051994396386 40.62451942656491 14.210228113127725 0 -1 0
1602 1 16.127992425812344 22.73595206558431 18.766415756258855 0 0 0
1890 1 19.105716773577768 22.92712747786075 18.815142881300808 0 0 0
2181 1 20.555421915276586 20.31928675884402 23.57882339052368 0 0 0
2178 1 21.999163798683018 22.958337129527386 18.81138226355132 0 0 0
2180 1 20.642860597563207 22.06400728648283 21.055220249882986 0 0 0
2468 1 23.65008300361394 21.992858579282018 21.175048035860975 0 0 0
1889 1 17.685176211421783 20.323719895208495 18.83900499190615 0 0 0
2288 1 20.497137643055027 37.20219458868267 21.025549532617347 0 0 0
2466 1 24.872318432395005 22.849943133215195 18.796936096367315 0 0 0
2756 1 26.429102930412473 21.917661495282868 21.08056210403032 0 0 0
1637 1 14.85984867769294 25.48634218382067 18.782990690584818 0 0 0
1603 1 16.18808686398303 24.58515180982592 21.25864667967135 0 0 0
1925 1 17.608617434236276 25.44948764123028 18.891092255589182 0 0 0
1928 2 17.69103052105659 27.061591093979082 21.02789661682083 0 0 0
2216 1 20.485892062982987 27.08862412122089 20.957583694296165 0 0 0
2213 1 20.603720895589653 25.500727370639073 18.797715097647085 0 0 0
2501 1 23.468075048093663 25.365778571214875 18.80561386634209 0 0 0
2179 1 22.16198488115223 24.62274151472265 21.08789867177977 0 0 0
2789 2 26.395185586949946 25.347703120849697 18.818124102096284 0 0 0
2467 1 25.046387892265322 24.430157648034626 21.149426844499683 0 0 0
1638 1 16.255542161966133 28.006300407209814 18.73098247114998 0 0 0
1673 1 14.670459857233073 30.591276866260788 18.72080162267384 0 0 0
1639 1 16.19554439104442 29.78513277781641 21.012283782890428 0 0 0
1926 1 19.13642488517999 27.956223194940677 18.782688261639695 0 0 0
1927 1 18.92812574733439 29.664237422455614 21.252573708536897 0 0 0
2214 1 21.988804477210486 27.990790225483085 18.661609587767902 0 0 0
2249 1 20.41910029453921 30.6070262034489 18.617162494759462 0 0 0
2215 1 22.022069572399886 29.672616222215936 20.899317450659698 0 0 0
2502 1 24.926138108052967 27.744396376237205 18.677839346610575 0 0 0
2825 2 26.317685917685253 30.40655257711412 18.785837847381604 0 0 0
2503 1 24.824441177798157 29.52874272832634 20.919528112498945 0 0 0
1674 1 16.105472541274743 33.001637176817326 18.718812125426325 0 0 0
1676 1 14.59948782031822 32.148651143809744 21.18821932008127 0 0 0
1961 1 17.66426829800115 30.522661590024615 18.794668596254724 0 0 0
1962 1 19.07931994179135 33.033477777311404 18.917859902760355 0 0 0
2252 1 20.528122241638858 32.134984972897826 21.12842826291603 0 0 0
2537 1 23.321534645228866 30.59215852957048 18.589346588178163 0 0 0
2250 2 22.02339817935989 33.05454424546755 18.682043750922702 0 0 0
2540 1 23.344463869287278 32.27498607485201 20.996893201125836 0 0 0
2538 1 24.99199677494365 33.08835084306765 18.77754220213848 0 0 0
2828 1 26.335381092151714 32.076233681924364 21.080745307750313 0 0 0
1675 2 16.09442983811343 34.632836242700364 21.070096853791114 0 0 0
1709 1 14.786047065319941 35.536225961725115 18.68633391753586 0 0 0
1712 1 14.870327271989147 37.20458048336961 21.11621141674041 0 0 0
1997 1 17.579040557544445 35.473677914877264 18.873228322399275 0 0 0
1963 1 18.86652966689858 34.70501355143262 21.253480888746783 0 0 0
2251 1 21.758380007319552 34.66190673056694 21.04811803330812 0 0 0
2285 1 20.421270074418043 35.37110695461322 18.71946839018552 0 0 0
2573 1 23.38430745942524 35.50084351665468 18.842737120928284 0 0 0
2576 1 23.3700303499208 37.11723431558344 21.088210428651152 0 0 0
2861 1 26.28960230776806 35.505962333438084 18.7529071033159 0 0 0
2864 1 26.305481693767337 37.139962272611925 20.965894677682822 0 0 0
2539 2 24.838884257860723 34.725108050185575 21.07292767948053 0 0 0
1710 2 16.05886905494735 38.104379819582654 18.663991860465178 0 0 0
1461 1 14.724201507757122 40.54286594587116 23.418235976019904 0 -1 0
1998 1 18.98157670715423 38.03954427991876 18.801174572203767 0 0 0
2575 1 24.92869922714288 39.92506996685806 20.90209309928795 0 0 0
2287 1 22.096116786821984 39.72113898222462 20.9529237724382 0 0 0
2286 1 22.083972916077375 38.037198553964856 18.70999679328513 0 0 0
2574 1 24.808105403713032 38.167698349673344 18.739902546283727 0 0 0
1604 1 14.655009153842185 22.032594257636003 21.144146013099874 0 0 0
1606 1 16.10143868304525 22.75965071076749 23.61264693565519 0 0 0
1892 1 17.639829906181753 21.983973203328887 21.18634298911629 0 0 0
1894 1 18.99562968683431 22.856833642043767 23.486771306011445 0 0 0
1745 1 17.63238326802901 40.500683764172244 18.747775339204484 0 -1 0
2182 1 21.979238881760633 22.952629451868752 23.403254980829434 0 0 0
2290 1 22.020204388575984 38.13799575335015 23.366818322327934 0 0 0
2578 1 24.83454516614588 38.16493679174923 23.42371920608512 0 0 0
2470 2 24.942943880365625 22.81823729483087 23.46795834587785 0 0 0
1641 1 14.511839381922954 25.401272910326938 23.523780894001067 0 0 0
1640 1 14.689985280903448 27.06653590457142 21.020365165063552 0 0 0
1891 1 19.133588247244873 24.61456983308535 21.13313881054395 0 0 0
1929 1 17.523242859634248 25.411008968409575 23.449099158447776 0 0 0
2217 1 20.51187584589699 25.253188493882583 23.31420017905411 0 0 0
2505 1 23.48032768545768 25.48791818243729 23.453138447340528 0 0 0
2504 1 23.511116628523023 27.06080652367279 21.192048948604388 0 0 0
2793 1 26.39593297492316 25.375000055677503 23.558812567832714 0 0 0
1642 1 16.090021149924848 27.95785696335311 23.361259532320453 0 0 0
1677 1 14.675837920541365 30.351135456429542 23.27050953600336 0 0 0
1930 1 19.00329611386705 27.98594195473792 23.46250622821441 0 0 0
2253 2 20.580273293928673 30.377643396162977 23.424589235239207 0 0 0
2218 1 21.926019628855048 27.994281981156924 23.32757292876298 0 0 0
2792 1 26.499079365610996 26.90982787551938 21.15615734897514 0 0 0
2506 1 24.846592687298003 27.938414886958075 23.531154985078476 0 0 0
1678 1 16.134516538675793 32.98282086011699 23.367098449590145 0 0 0
1964 1 17.599874017975385 32.187923507295416 21.148527295128183 0 0 0
1965 1 17.69829527497999 30.47596816289269 23.533823058796674 0 0 0
1966 1 19.08319808955179 32.84991619261449 23.566825677735334 0 0 0
2541 1 23.439433001569633 30.419604828931618 23.336697763850346 0 0 0
2254 1 21.892797474194644 32.88515918227566 23.387481835244277 0 0 0
2829 1 26.16012415958007 30.56698095580278 23.499857987184107 0 0 0
2542 1 24.80466582480622 33.057243591793814 23.579398376936975 0 0 0
1713 1 14.693403137227904 35.54689831689532 23.411686708122062 0 0 0
2000 1 17.639392039441663 37.2695805083897 21.11868675156488 0 0 0
2001 1 17.4818997370151 35.50778872060012 23.54046588897284 0 0 0
2289 1 20.47494495669017 35.570245112039615 23.51002451941908 0 0 0
2577 1 23.333368702436815 35.65850933646213 23.423910996660652 0 0 0
2865 1 26.429893363545705 35.47351434790296 23.54944414151691 0 0 0
1999 2 19.13833057232535 39.66485299037786 21.067282222523183 0 0 0
1714 2 16.04213468906156 38.031191823993076 23.49157900623107 0 0 0
1711 1 16.100599593339783 39.654561663718866 21.09055707444867 0 0 0
2002 1 19.05954190310943 38.12156864331612 23.39794013529583 0 0 0
1457 1 14.617007085765506 40.576240274529944 18.83544206390762 0 -1 0
2037 1 20.55482286822736 40.58479184701805 23.37428778874659 0 -1 0
1749 1 17.739154181610772 40.475421097710544 23.43003885291625 0 -1 0
2469 1 23.454151159981226 20.349015976167326 23.416050996634866 0 0 0
1605 1 14.68802236473122 20.392809865908117 23.350818180199703 0 0 0
2757 1 26.30792635956351 20.32280564536988 23.320642248679796 0 0 0
2613 1 26.18198378882793 40.54496480536274 23.346304601999787 0 -1 0
2325 2 23.336002576130273 40.55730421330427 23.448653459256306 0 -1 0
2753 1 26.293011393765244 20.319377708820326 18.665805643775485 0 0 0
1608 2 14.71639940953739 21.97635561003824 25.930895021964563 0 0 0
1610 1 16.221362131194468 22.86295604691109 28.22436479556947 0 0 0
1896 1 17.599740599327593 21.987353631135026 25.88592311489374 0 0 0
1898 1 19.150087509740942 22.750043773503986 28.231101866219756 0 0 0
2184 2 20.633187995436106 21.935908248350387 25.77888040878686 0 0 0
2186 1 21.946676088357847 22.889489251395123 28.046179705087997 0 0 0
2472 1 23.40954685137614 21.911218438164155 25.752104141784564 0 0 0
2474 2 24.944770644409335 22.896556700011356 28.221113764091424 0 0 0
2760 1 26.345734627835185 21.99389081461348 25.81784595946646 0 0 0
1607 1 16.132231650512256 24.574185304842572 25.900247906131916 0 0 0
1645 1 14.56634930620837 25.415415398813117 28.174128948324974 0 0 0
1644 1 14.802077737853883 27.09054632940529 25.784797648777314 0 0 0
1895 1 19.145295533191195 24.367847834289435 25.802737785282062 0 0 0
1933 1 17.745567437688557 25.352081949589458 28.22288132471445 0 0 0
2221 1 20.530429095470865 25.549056461839662 28.179504100832013 0 0 0
1932 1 17.701993850839095 27.065927996789153 25.705306506825945 0 0 0
2183 1 21.910246017646312 24.46826942060377 25.743586489943826 0 0 0
2509 1 23.45435987970884 25.308555419875002 28.119111614123394 0 0 0
2508 2 23.41538348000266 26.925669093465444 25.771713348120787 0 0 0
2471 1 24.955243229677556 24.44391061447516 25.826406888094308 0 0 0
2797 1 26.378394111959746 25.224579882643766 28.12935362145632 0 0 0
2796 1 26.3607688606334 26.961029209930718 25.83069353601169 0 0 0
1646 1 16.223100465398346 27.794711095499387 28.13349114969259 0 0 0
1643 1 16.189572844572552 29.565895063654207 25.76522809399491 0 0 0
1934 2 19.077016118895724 27.878531710168435 28.17099703777364 0 0 0
2220 1 20.714556306906108 27.139945785841245 25.701457667466187 0 0 0
1931 1 19.202711872936806 29.66009274780811 25.80437862227478 0 0 0
2222 1 21.90116786463491 27.935719374394615 28.0574722859649 0 0 0
2219 1 22.16677049636298 29.675353383175928 25.829759147938507 0 0 0
2545 1 23.397639754870873 30.600943747207925 28.185503422633982 0 0 0
2510 1 24.796525608579834 27.85277653339599 28.266159093313682 0 0 0
2507 1 24.892879163873424 29.577441954875237 25.857595878601753 0 0 0
1681 1 14.650466264639551 30.41859866900434 28.264796901195826 0 0 0
1680 1 14.726030861381325 32.069238434831256 25.799098792116514 0 0 0
1682 2 16.15016347250907 32.887496969834544 28.147845607175448 0 0 0
1969 1 17.643189691869335 30.434568593158893 28.213195597866488 0 0 0
1968 1 17.57443413943838 32.141958410479084 25.95222025650678 0 0 0
1970 1 19.0930106050067 32.99253017574428 28.18680794675857 0 0 0
2257 1 20.580274918551822 30.45254794089781 28.258039425678394 0 0 0
2256 1 20.630831116538488 32.13683632514277 25.836304269388513 0 0 0
2258 2 22.100784436080968 33.05484224523998 28.05105103594722 0 0 0
2544 1 23.416232322804166 32.2819464448658 25.81327134355887 0 0 0
2833 1 26.541911528161695 30.490125176354635 28.106503961305464 0 0 0
2546 1 24.90167582727282 32.99096418944382 28.281612872573728 0 0 0
2832 1 26.414275785023477 32.20190799484161 25.928266177372755 0 0 0
1679 1 16.113765064778125 34.53057831289156 25.857225337867504 0 0 0
1717 1 14.625598821355208 35.50069369873917 28.15550188686331 0 0 0
1716 1 14.637740719530377 37.23208687348657 25.826193267568605 0 0 0
1967 2 19.00442066790176 34.72512160797739 25.810251438962684 0 0 0
2005 1 17.487700674603385 35.541904710425015 28.13916729802521 0 0 0
2004 1 17.480822696699093 37.04916844610787 25.81485697389763 0 0 0
2292 1 20.54101551647631 37.279628130190886 25.863831890801432 0 0 0
2255 1 22.016467967167493 34.58696150688769 25.7164864960446 0 0 0
2293 1 20.439362587360197 35.42186691940955 28.074209304351008 0 0 0
2581 1 23.385456566498867 35.481604032427235 28.13262511106395 0 0 0
2580 1 23.655919315884958 37.14602009286454 25.815422770489032 0 0 0
2543 2 24.845662633841982 34.711878864993345 25.806197722968715 0 0 0
2869 1 26.41440664769549 35.46817370356487 28.04768514865965 0 0 0
2868 1 26.41987549119375 37.308167427769355 25.747909383703135 0 0 0
1715 1 16.317071913695873 39.690545173350934 25.692594093221857 0 0 0
1718 1 16.176108533576972 38.10237816956802 28.11218325278434 0 0 0
2003 1 19.057732423106533 39.605401842415986 25.886869705164777 0 0 0
2006 2 19.032712194206784 37.841413025901446 28.223576298406755 0 0 0
2872 1 26.573265997242558 37.19502425057677 30.374224108550177 0 0 0
1897 2 17.62621675195539 20.330863850629452 28.11353670090476 0 0 0
2291 1 21.96280485147324 39.74999282452566 25.75345783050595 0 0 0
2294 1 22.029770587417154 38.08990485105704 28.20161624629822 0 0 0
2579 1 24.772705368199453 39.85283942918765 25.856321985890133 0 0 0
2582 2 25.046206211437646 38.01123350275705 28.128352996600082 0 0 0
2583 1 24.948159586940832 39.65494289249807 30.436636597551974 0 0 0
1612 1 14.68293047424885 22.02351927184257 30.507119946729954 0 0 0
1614 1 16.132419891281806 22.72963829133649 32.865596446969676 0 0 0
2584 1 23.624295612712498 37.23983036845445 30.496659879177923 0 0 0
1900 1 17.856901329256832 21.749237388485565 30.476960595238374 0 0 0
1902 1 19.036802673314007 22.748809777458767 32.82203866006728 0 0 0
2188 2 20.68256430744774 21.958373870326128 30.422425305614087 0 0 0
2190 1 21.784484898851236 22.92327554129168 32.818433680775925 0 0 0
2476 1 23.523430800426986 22.003324823890686 30.351234401272222 0 0 0
2478 1 24.878155257958962 22.891373150146325 32.79267593954075 0 0 0
2764 1 26.453145070578497 21.87148190225288 30.40581019082674 0 0 0
2041 1 20.548573007668193 40.50496002986983 28.079747702978956 0 -1 0
1611 1 16.16516477146649 24.53625943996914 30.611638581386806 0 0 0
1649 1 14.763082763044869 25.39597499361211 32.84596102889289 0 0 0
1899 1 19.22386217191157 24.440142151144375 30.606060962676565 0 0 0
1937 1 17.688816016375053 25.237610546952226 32.96629314972616 0 0 0
2225 2 20.615914537305297 25.38484097760042 32.828697708582496 0 0 0
2187 1 21.952650220365562 24.59714525824654 30.412025261415174 0 0 0
2513 1 23.572722760512605 25.37864924461998 32.86465134566703 0 0 0
2224 1 20.6388366648132 27.04701853874509 30.494455471142498 0 0 0
2512 1 23.385527528977757 27.028978996572317 30.437403362823364 0 0 0
2475 1 24.92534168496918 24.442292965773877 30.517820377893663 0 0 0
2801 1 26.463926128257405 25.36380901621443 32.84881279775877 0 0 0
2800 1 26.348057645361106 26.937621772047237 30.504720223504428 0 0 0
1648 1 14.726715771759197 27.124396351122368 30.546883499730043 0 0 0
1650 1 16.110932231013575 27.886660547391802 32.88554977841951 0 0 0
1647 1 16.114527671236743 29.499926042560745 30.506835258620026 0 0 0
1936 1 17.60924377085334 27.176891883152905 30.437946042034785 0 0 0
1938 1 19.019956588561072 27.735015519279656 32.85530698222677 0 0 0
1935 1 19.222337624542615 29.690939797914282 30.51652289032395 0 0 0
2226 1 22.062347925795393 27.885450239727263 33.037525258021724 0 0 0
2223 1 22.073872327014893 29.563523522776347 30.612504126390185 0 0 0
2514 1 24.771940477744568 27.838898954325767 32.90135016090616 0 0 0
2511 1 24.90633703309588 29.60650857336926 30.446819105240365 0 0 0
2837 1 26.392063160488853 30.480491855625374 32.81368495354322 0 0 0
1685 1 14.608408211825456 30.41885213307007 32.70222327255547 0 0 0
1684 1 14.714245126384274 32.22112573715502 30.53773717308541 0 0 0
1686 2 16.035538525573013 32.863001978158636 32.81431289157853 0 0 0
1973 1 17.56549973117411 30.393060792787903 32.69057563653002 0 0 0
1972 1 17.530643790423138 32.18391826616284 30.39228455789545 0 0 0
1974 1 19.011581072994414 33.04650007079048 32.79399898756076 0 0 0
2261 1 20.584590199495814 30.55328208759956 32.83136845781814 0 0 0
2549 1 23.46364989114374 30.47889801433232 32.8052380406314 0 0 0
2260 1 20.543063274765053 32.16861699780144 30.525900824757997 0 0 0
2262 2 21.929373900687246 33.09280679312038 32.7617388405663 0 0 0
2548 1 23.470556051494125 32.264222315379165 30.47514713710821 0 0 0
2550 1 24.93549961821161 33.097687436897495 32.79338009646197 0 0 0
2836 1 26.5022391410367 32.136043668047186 30.42522365215654 0 0 0
1683 1 16.105484986414027 34.685490410939764 30.448878131146163 0 0 0
1721 1 14.731791972144586 35.47655210485626 33.01157261038689 0 0 0
1971 1 19.12104194691935 34.691510659990094 30.531849664904417 0 0 0
2009 1 17.59220016595188 35.45919783038755 32.88515808147407 0 0 0
2296 1 20.572735102588876 37.16424189226425 30.434556292307896 0 0 0
2259 1 21.948452133026624 34.624362935675144 30.486592550481326 0 0 0
2297 1 20.433092578688584 35.55435049654225 32.8184856879487 0 0 0
2585 1 23.46167344504968 35.3907792218135 32.94964771173699 0 0 0
2547 1 24.925031377733834 34.866904600551585 30.568816077300937 0 0 0
2873 2 26.38287120032306 35.522187793744905 32.95098128955458 0 0 0
2586 1 25.03888012053633 38.13820312067581 32.68357537158022 0 0 0
1722 1 16.238150878692675 38.09873546560232 32.89918678928345 0 0 0
1720 1 14.679606770036886 37.16094413581169 30.715768797698868 0 0 0
1719 2 16.077947949243764 39.60395976765139 30.343030159743627 0 0 0
2010 2 19.027242586543927 38.02312082860421 32.80752165331414 0 0 0
2007 1 18.997800684787094 39.58498592171415 30.462082962181437 0 0 0
2008 1 17.599709615467347 37.23088569361561 30.499118485935128 0 0 0
2329 1 23.419001833926117 40.535049586895134 28.131793924718494 0 -1 0
2295 1 22.014100285501552 39.94599685939782 30.596437550537278 0 0 0
2298 1 22.066989241358655 38.12517439156922 32.90409974238814 0 0 0
1757 1 17.556172911995386 40.54743717209715 32.69958470408266 0 -1 0
1469 1 14.573431786586333 40.481425660793654 32.777590484128716 0 -1 0
1753 1 17.765328695772293 40.43837173987023 28.09840458558332 0 -1 0
1465 1 14.72267368875756 40.50281269076156 28.197850956375667 0 -1 0
1609 1 14.875217682725772 20.475715594057334 28.173573433463773 0 0 0
2765 1 26.36026700717975 20.35276889020948 32.842859217452286 0 0 0
2477 1 23.504870262737427 20.318452355790377 32.77064105962652 0 0 0
2333 1 23.55472024961125 40.586163374796 32.82548324708578 0 -1 0
1613 2 14.663694870091673 20.400446962226457 32.91806615991317 0 0 0
2621 2 26.41439764873972 40.608419832345795 32.75154865232828 0 -1 0
2761 1 26.289476585872613 20.316036176577242 28.07211999413202 0 0 0
2617 1 26.4673282670913 40.573427652880575 28.156398392262012 0 -1 0
2185 1 20.555965760923936 20.4192842277803 28.10591521956226 0 0 0
2045 1 20.419322671546148 40.59540145412443 32.957938286559305 0 -1 0
1616 1 14.566019674047352 21.837700013371595 35.28388921851741 0 0 0
1618 2 16.184436138611183 22.82490049489419 37.45761671702886 0 0 0
1904 1 17.604901523123104 21.96929027421577 35.25507629315838 0 0 0
1906 1 19.05477032624387 22.81719113708213 37.49110245354418 0 0 0
2192 1 20.523818476353792 22.002897766989562 35.218244944982125 0 0 0
2880 1 26.48579324058437 37.26399071422309 39.79287746276502 0 0 0
2194 1 21.951830471250656 23.04356945407244 37.501669919395745 0 0 0
2480 1 23.36392124789253 21.946745321067848 35.136232800085914 0 0 0
2482 2 24.753310706024347 22.768901047779156 37.541509888337124 0 0 0
2768 1 26.273428932360925 22.03900496697065 35.1203141947918 0 0 0
1615 1 16.19641923947533 24.371696941749715 35.157131097515034 0 0 0
1653 1 14.874511137520315 25.276417132839665 37.458580046019236 0 0 0
1903 1 19.166551850881305 24.554164710814312 35.13344626069596 0 0 0
1941 1 17.738201723696868 25.408659858361258 37.43220681431927 0 0 0
2229 2 20.63168913918458 25.37121999639982 37.50618327036886 0 0 0
2191 1 22.064578371339994 24.711138833404704 35.13534690672873 0 0 0
2517 1 23.450653564221867 25.439815833435215 37.50140736339201 0 0 0
2228 1 20.45285439030632 26.960378049004298 35.07248793656772 0 0 0
2516 2 23.41078539957358 27.129111180680116 35.26415009163072 0 0 0
2479 1 24.887594194393817 24.549428687695748 35.364721150943346 0 0 0
2805 1 26.33827361467737 25.464134322915108 37.524167983959515 0 0 0
2804 1 26.152317114676507 27.067704899804255 35.41579817286856 0 0 0
1652 1 14.68878819193608 27.25859202864993 35.295281937859954 0 0 0
1654 1 16.146821809810422 27.938532278465804 37.553718919600705 0 0 0
1651 1 16.076254327843014 29.65644260913334 35.11247263620135 0 0 0
1689 1 14.657721461943437 30.550118017549718 37.39740690478101 0 0 0
1940 1 17.544297550137923 27.150802144850676 35.205037695377996 0 0 0
1942 1 19.12842552490421 27.89310613707767 37.61421465574278 0 0 0
1939 1 19.077894305347048 29.632218580037534 35.17173020149678 0 0 0
2265 2 20.50116382940489 30.510999182339877 37.531346859354954 0 0 0
2230 1 21.96564376325193 27.97038987533609 37.52496369881554 0 0 0
2227 1 22.037370564201886 29.733954953548466 35.272740761001735 0 0 0
2518 1 24.96631886604022 28.042807785137533 37.668083307673164 0 0 0
2515 1 24.859833775504818 29.694522321545943 35.29657412491303 0 0 0
1688 1 14.614739864533075 32.21219234289464 35.12933878928317 0 0 0
1690 1 16.02445398608736 33.103151645991744 37.575353547940196 0 0 0
1977 1 17.598823872984138 30.530546847994554 37.53027385634905 0 0 0
1976 1 17.539061462004057 32.07918400819337 35.067679610978296 0 0 0
1978 1 19.205630321433556 32.98798182484722 37.47180038275481 0 0 0
2264 1 20.60229703741538 32.20704543195847 35.25241321621466 0 0 0
2553 1 23.476878371591013 30.72262151289109 37.67377215534025 0 0 0
2266 1 21.991763626233535 33.08428381776297 37.60849325786292 0 0 0
2552 1 23.49226871872096 32.226798875436714 35.14231318937097 0 0 0
2841 1 26.544662095781952 30.610178131781577 37.64281271620552 0 0 0
2554 1 25.09402687412517 33.033528417620175 37.53934438363229 0 0 0
2840 1 26.3164078251237 32.298445644869574 35.15541999888904 0 0 0
1687 1 16.25056197841818 34.53268031583564 35.10143763898044 0 0 0
1725 1 14.718061085210394 35.47928425353555 37.7076140925675 0 0 0
1724 1 14.642318686822982 37.1294153934463 35.19089285812007 0 0 0
1975 2 19.095827966923054 34.631231973405015 35.11553855077297 0 0 0
2013 1 17.59386243927304 35.426028701495014 37.46467208714178 0 0 0
2012 1 17.787699685877794 37.139491993790045 35.26005760418165 0 0 0
2300 1 20.593484453696266 37.3187094910679 35.05048951008657 0 0 0
2263 1 21.915578559855593 34.74365929338942 35.19229488002132 0 0 0
2301 1 20.616016381751592 35.669876268699994 37.60755695908361 0 0 0
2589 1 23.454116634861084 35.53733318046712 37.58180458512229 0 0 0
2588 2 23.369287221463583 37.24116837797148 35.26222005738442 0 0 0
2551 1 24.87656859018494 34.848659483126696 35.23511146798671 0 0 0
2877 2 26.353977979355292 35.66288864001369 37.515404299969674 0 0 0
2876 1 26.476842167604122 37.284886554755055 35.114731647015915 0 0 0
1723 1 16.218505943950394 39.55429485009329 35.09090752484626 0 0 0
1726 1 16.16997180293905 37.992130746967234 37.57622623240779 0 0 0
2011 1 19.224814532510283 39.66663090242106 35.24600120187458 0 0 0
2014 1 19.167224528559935 38.23926112413421 37.586154756824506 0 0 0
1761 1 17.52865293712642 40.57734577466454 37.3716358842318 0 -1 0
2299 1 22.14415371883568 39.82280110551978 35.23847919350984 0 0 0
2302 2 22.050987884826174 38.131460165404015 37.48186120022853 0 0 0
2591 1 25.063775020188295 39.84856228132689 39.72324576217041 0 0 0
2587 1 25.187283649540497 39.82556025056135 35.04464270189136 0 0 0
2590 1 24.96696865192561 38.10774781311557 37.39197567382225 0 0 0
1620 1 14.530049203823335 22.003175555332003 39.90575139293672 0 0 0
1908 1 17.524260768647945 21.78775103030186 39.77476127484379 0 0 0
1874 1 19.085191461679567 22.968083242763385 42.07682618426664 0 0 -1
2196 1 20.565074209407435 21.934465423464495 39.869997045283 0 0 0
2484 1 23.41357946580985 21.983547204976585 39.771137155382156 0 0 0
2772 1 26.238395604928563 21.99625588978716 39.89984875794358 0 0 0
1619 1 16.141898766996032 24.648842098620605 39.91162051255315 0 0 0
1656 1 14.585850385131325 27.085818660501907 39.79511937752232 0 0 0
1907 1 19.017553300634784 24.692025898040697 39.854002428597425 0 0 0
1944 1 17.62780913079359 27.115430915929334 40.026070086003315 0 0 0
2232 1 20.599859632946803 27.132646388767732 39.83410235482223 0 0 0
1441 2 14.794658103256983 40.49561017805137 42.182587973307804 0 -1 -1
2195 1 21.864479282789112 24.536667184697578 40.02728972167442 0 0 0
2520 1 23.447043652617328 27.129579147341886 39.86905505274233 0 0 0
2483 1 24.86654320359205 24.50496574421651 39.86410911472694 0 0 0
2808 1 26.371253397020613 27.03601727594827 39.92962012966936 0 0 0
1586 1 16.145884038398304 22.829332451678273 42.16092600427353 0 0 -1
1655 1 16.12169982463368 29.70456493159523 39.82901452546947 0 0 0
2193 1 20.5690873839098 20.382068714962177 37.57895281013362 0 0 0
1943 1 19.086381463883093 29.757276770436075 39.88652937232865 0 0 0
2231 1 21.970155959244018 29.61611367994591 39.787597502496794 0 0 0
2485 1 23.32033326004827 25.386229708768564 42.17793852876096 0 0 -1
2519 1 24.937303016786228 29.785116855832065 39.919729646327816 0 0 0
2015 1 19.07981084847984 39.81653552741614 39.90536591681657 0 0 0
1692 1 14.69442021395936 32.206478815727486 39.877131405393555 0 0 0
1980 1 17.649928759610372 32.199628254366644 39.968587581870594 0 0 0
2268 1 20.56897922964821 32.18782119093175 39.81931672085419 0 0 0
2303 1 22.059906443158937 39.82244014735906 39.93378379095731 0 0 0
1727 1 16.183043081337864 39.72416293728338 39.92143216744661 0 0 0
2556 1 23.46930841185881 32.27027109133511 40.05351657878155 0 0 0
2304 1 20.723704678259182 37.14996775471631 39.94727433530216 0 0 0
2844 2 26.47966131809605 32.20532054348402 39.926615888632185 0 0 0
1691 1 16.09060833290712 34.82011645749702 40.13695550112414 0 0 0
1728 1 14.732360279117206 37.124241063154955 39.908997456855644 0 0 0
1979 1 18.987851940765818 34.662052054475666 39.803460671469864 0 0 0
2592 1 23.453919104056506 37.1747367401969 39.865071463492434 0 0 0
2267 2 21.949961247520672 34.613668156676624 39.969760039886644 0 0 0
2016 1 17.644531928582406 37.08512184830116 39.90680673312504 0 0 0
2555 1 24.956884381052426 34.79923852998634 39.920275747750814 0 0 0
1473 1 14.683527987374445 40.603604110044635 37.386430657456906 0 -1 0
2558 1 24.89777849307255 38.07198336174721 42.11425122053045 0 0 -1
1905 1 17.54731477422278 20.3618286886128 37.375194587268446 0 0 0
2845 2 26.416901441259 35.51707191458301 42.156883441840186 0 0 -1
2557 1 23.38988535096921 35.500569277152195 42.16078927206092 0 0 -1
2162 1 21.993643587790036 22.81939134044774 42.08506927225681 0 0 -1
2270 2 22.02639883493499 38.04120895351721 42.16150167007365 0 0 -1
2809 1 26.430522257670592 30.537754011576226 42.11523321932714 0 0 -1
1585 2 14.563245878347843 20.347161013340394 42.18877469505488 0 0 -1
2884 1 29.221131163203268 1.6937045138056654 2.188414979468556 0 0 0
3172 1 32.237829596889796 1.6685487736548665 2.2194799325563244 0 0 0
3460 1 35.236718623613115 1.652771433402754 2.1416397711267074 0 0 0
3173 1 32.285424962873876 0.03698486086587666 4.645297676063021 0 0 0
3748 2 38.17442606483092 1.657894725999552 2.2407142400709277 0 0 0
2917 1 29.4675078019363 5.142838949713924 0.11852291328978523 0 0 0
3817 1 38.002833159134326 10.071568951309926 0.13363251170013202 0 0 0
2595 1 27.936414752656823 4.373615216573097 2.3669879515707763 0 0 0
2920 1 29.264744354505595 6.811299163587613 2.254702277625622 0 0 0
2883 2 30.784077544686397 4.3494970680853005 2.2377872785935584 0 0 0
3171 1 33.673602978551735 4.176515878718783 2.133370284171101 0 0 0
3208 1 32.15720058370909 6.786780514843611 2.353412566718099 0 0 0
3317 1 32.335378566713096 20.240944385223994 4.8288134760141 0 0 0
3459 1 36.62531046936445 4.218782360052648 2.2226648429657123 0 0 0
3496 1 35.12771458482816 6.7886716877149 2.3623696249742454 0 0 0
3747 1 39.539660555552516 4.221110762995746 2.324999166093685 0 0 0
2631 1 27.836952981890786 9.258974112223122 2.3221756953517514 0 0 0
2919 1 30.748013617156456 9.287739370075093 2.2548384623483675 0 0 0
3207 1 33.706076518644046 9.238556692294328 2.223031429530324 0 0 0
3495 2 36.68251612957954 9.221351262068044 2.438170714309312 0 0 0
44 1 40.98812337105564 6.709782875113344 6.948171576761719 -1 0 0
3858 1 39.60955297728447 17.829187785923914 4.657636698791856 0 0 0
3784 1 38.17181709836917 6.836263335560929 2.2714975690630865 0 0 0
3783 1 39.52142466625195 9.290868389410608 2.387559671437653 0 0 0
3893 1 37.8797305699957 20.277791709970423 4.6814547044732 0 0 0
2956 1 29.261600958984005 11.964636163133246 2.353509670982169 0 0 0
3244 1 32.220934539349045 11.765821541140472 2.306039396081021 0 0 0
3532 1 35.19152400714109 11.689484420765773 2.2774547304762547 0 0 0
3820 1 38.08811952231876 11.830484611369027 2.2907692821312304 0 0 0
2955 1 30.84264214785371 14.537534214458962 2.239431001577558 0 0 0
2667 1 27.856334153348875 14.449910428422287 2.1926803961391133 0 0 0
2992 2 29.323361468917817 17.118717238451804 2.315644004822264 0 0 0
3572 1 35.08225245418124 16.994698110949535 6.858957009715112 0 0 0
3243 1 33.80605769539708 14.319641869183881 2.354903086885346 0 0 0
3280 1 32.11901189069218 16.94726046787047 2.206324736864473 0 0 0
3531 1 36.66327523648013 14.175451146153483 2.3078494620794543 0 0 0
3568 1 35.26328882103898 16.7535311760469 2.306917079209565 0 0 0
3819 1 39.53162003591653 14.494656188965816 2.1692934079810846 0 0 0
3570 1 36.66540064925505 17.748441444529018 4.714956102290507 0 0 0
2703 1 27.851170692169966 19.528319184686342 2.360004110069647 0 0 0
3571 2 36.60055641940838 19.38968963345662 7.010063627662219 0 0 0
2991 1 30.673746190180832 19.51396807963942 2.314072208264828 0 0 0
3279 1 33.78044023666217 19.411760556645806 2.32713398876506 0 0 0
113 1 40.9030444631994 15.367332117772722 4.514620453388102 -1 0 0
3284 1 32.316903210971354 16.99712643209611 7.036627972515909 0 0 0
3567 1 36.59458503612312 19.276575696230953 2.4038690633495845 0 0 0
3283 1 33.69287063834047 19.446203618350026 7.020059208812465 0 0 0
3605 1 35.0811212342489 20.159348698657677 4.7378771411808085 0 0 0
3749 1 38.17142925451387 0.011805723296756004 4.653826731958114 0 0 0
3856 1 38.104553850348346 16.947168085050084 2.2311100908474466 0 0 0
3855 1 39.609933702200266 19.317574499354187 2.2111338332496087 0 0 0
80 1 40.851361938509115 11.852986002491264 6.856167086655239 -1 0 0
2598 2 27.726074991525255 2.6110140175273386 4.585652100458766 0 0 0
2888 1 29.317767669630545 1.6493032362076903 7.011054392818631 0 0 0
2886 1 30.756923665871994 2.620569775011471 4.6082987669584385 0 0 0
3174 1 33.75608968704834 2.43070015027165 4.632376267816274 0 0 0
3176 1 32.21127848479501 1.6126904059821738 6.982437982674601 0 0 0
3462 1 36.67500707260761 2.3596344353376644 4.768882548030155 0 0 0
3464 1 35.1691424804783 1.6232805891671294 7.057206330936763 0 0 0
41 2 41.00019012726407 4.935796899698578 4.660824750208553 -1 0 0
3750 1 39.64567005933637 2.5060310104082775 4.566873251592009 0 0 0
3752 1 38.18018733959509 1.5908626710230989 7.09981464529689 0 0 0
2599 1 27.856185208467096 4.090511485472865 6.948299041309475 0 0 0
2921 1 29.261319261621157 4.998502451300348 4.71749090858623 0 0 0
2887 2 30.640679809517138 4.198226750745832 6.993376307395847 0 0 0
2924 1 29.249669420974374 6.863021180272654 6.921081009156417 0 0 0
3175 1 33.57508558356806 4.095441110963866 6.914694183256305 0 0 0
3209 1 32.23169251592132 5.086797152943278 4.551245897169204 0 0 0
3463 1 36.54390678908874 4.085192629500493 7.028972706696682 0 0 0
3497 1 35.09239037533147 4.996462284652611 4.584873330079437 0 0 0
3751 1 39.55216350131794 4.160781370264446 6.956755937981634 0 0 0
3785 1 38.171432511354716 5.030147835198114 4.558811628140486 0 0 0
3788 1 38.13018822194991 6.783694874279886 6.854229484602347 0 0 0
2634 1 27.834107822644683 7.750209451677806 4.5631644629621295 0 0 0
2635 1 27.73979189063339 9.330864190050873 7.226831074359732 0 0 0
2923 1 30.791690491826746 9.37603117566677 7.086744496238862 0 0 0
2922 1 30.666390423029313 7.627320717557844 4.527266884017491 0 0 0
3212 1 32.146525802251915 6.741524966778673 6.870608916037985 0 0 0
3210 2 33.6990155003714 7.703255369843487 4.590701089054714 0 0 0
3211 1 33.58309172582091 9.306931889622021 6.991520096091553 0 0 0
3245 1 32.18980078126568 10.119323209979123 4.5628703258136785 0 0 0
3500 1 34.906938378775195 6.567706438695658 6.807825249021261 0 0 0
3498 1 36.48082242707665 7.5778837583445045 4.652007974767996 0 0 0
3499 1 36.60658843579533 9.302718560391346 6.790638010827359 0 0 0
3786 1 39.5090689013712 7.4577422737098 4.591167381846704 0 0 0
3787 2 39.72918364276806 9.206351983029124 6.961860515818002 0 0 0
3821 1 38.1402764659369 10.177310453206319 4.687241240817677 0 0 0
2957 1 29.385079727909858 10.214874107635445 4.703146767352856 0 0 0
2670 1 27.677831735302274 12.748780977720262 4.663933623736245 0 0 0
2960 1 29.212608054852392 11.854938476704802 7.054214023576268 0 0 0
2958 2 30.759056953524798 12.663620286646072 4.599567819399486 0 0 0
3248 1 32.114952334899115 11.795944760871825 6.963672494165106 0 0 0
3246 1 33.59665057732463 12.55353085576927 4.721237632995244 0 0 0
3533 1 35.280385455346426 10.115825351841428 4.674395774157046 0 0 0
3534 1 36.5038141324232 12.795843973994453 4.638607479060737 0 0 0
3536 2 35.040105523402396 11.658570048785966 6.867577148296022 0 0 0
5 2 40.95694747428752 0.008442747056125308 4.607786996568317 -1 0 0
3824 1 38.072146127680064 11.89295525485714 6.988239552866853 0 0 0
3822 1 39.6944579838589 12.664566239045854 4.708763596442349 0 0 0
2671 1 27.735576527553228 14.342268406640661 7.030458975877641 0 0 0
2993 1 29.309738530624895 15.369344072908605 4.51376299794224 0 0 0
2959 1 30.777686422490397 14.429347530274969 6.961296692566821 0 0 0
3247 1 33.88633217466126 14.372258510786304 7.058352779871113 0 0 0
3281 1 32.18562691572061 15.050172841568074 4.705555700531211 0 0 0
3535 1 36.701497085225355 14.541963668701616 7.106451898573974 0 0 0
3569 2 35.23502964895588 15.217067408998869 4.6396774338790285 0 0 0
3859 1 39.36049777767477 19.62108175387139 7.035162590604868 0 0 0
3860 1 38.1836716175159 17.104304529510404 7.138351599770426 0 0 0
3857 1 38.146280416890875 15.29166952889669 4.711086027189214 0 0 0
3823 1 39.612677806482836 14.496671854648602 7.075688118819062 0 0 0
2706 1 27.74068222027619 17.78899813848646 4.614571018292262 0 0 0
2707 1 27.914096244208466 19.490655311997696 7.114245643578896 0 0 0
2994 1 30.73347300405886 17.734674174394986 4.652279297623314 0 0 0
2996 1 29.304891922662584 17.04602752626081 6.955467223251878 0 0 0
2630 1 27.77355432707644 7.645548910095475 -0.024510114188506425 0 0 0
3282 1 33.59307274510682 17.46567272910244 4.52296629428665 0 0 0
2995 2 30.736576475823252 19.49801187564707 7.083218777194493 0 0 0
3854 1 39.53856227504525 17.615738000812325 -0.003609200615254226 0 0 0
3601 1 35.025794286066684 20.10416227429629 0.0626940524104984 0 0 0
3889 1 38.08684319715751 20.236163400618018 0.08345220945021718 0 0 0
3025 1 29.24115199230115 20.269293742624352 -0.02265234586565157 0 0 0
2602 1 28.06222064435018 2.4445340804918128 9.348304402178709 0 0 0
2892 2 29.285854859282885 1.6592310632573746 11.66951866944538 0 0 0
2890 1 30.787506725618588 2.319884411060588 9.271275081416382 0 0 0
3181 1 32.33289624006213 0.17917882879633423 13.999591151035284 0 0 0
3178 1 33.708884877305756 2.4947761319691275 9.362519102679911 0 0 0
3180 2 32.09962664207016 1.742215564315416 11.76138006540991 0 0 0
85 1 40.93818039024955 10.178182094119954 13.942032837363824 -1 0 0
3466 1 36.649565439510575 2.494593838685037 9.366418887579794 0 0 0
3468 1 35.10091912386234 1.5279965990591151 11.814625226784981 0 0 0
3754 1 39.49777873823045 2.584392781594496 9.396675945523286 0 0 0
3756 1 38.01703296708428 1.654021860916736 11.70771607690013 0 0 0
48 1 40.92632258185262 6.836759752266781 11.724957962437381 -1 0 0
3867 2 39.505116430570155 19.473755274072605 16.45724772786948 0 0 0
2603 1 28.009983801626646 4.163864913125841 11.698027462797464 0 0 0
2925 1 29.21771829986972 5.022289726260474 9.257128132105032 0 0 0
2891 1 30.661958790900126 4.036385637643443 11.509060283748108 0 0 0
3179 1 33.767529923899545 4.170878332548104 11.681779368776157 0 0 0
3213 1 32.07700038749461 5.072954822212393 9.253500218860745 0 0 0
3467 1 36.63665024624683 4.233974352819009 11.681310857604844 0 0 0
3501 1 35.160828700357555 5.0904772092145185 9.28860311409982 0 0 0
3755 1 39.605814199173444 4.302092674308251 11.630250641986226 0 0 0
3789 1 37.993966331680035 5.105423198822171 9.251016000940705 0 0 0
3792 1 38.068260561492124 6.81108417019775 11.591872709337471 0 0 0
2928 1 29.247870356122956 6.745390228931137 11.652148976957916 0 0 0
2638 2 27.787331129433735 7.63802442604933 9.32236400667293 0 0 0
2926 1 30.679615100837754 7.550360966374073 9.18323238906264 0 0 0
2639 1 27.89538917926181 9.2658526132515 11.685203223806901 0 0 0
3214 1 33.57448245851987 7.601621012817328 9.158387201394692 0 0 0
3216 1 32.22454995732202 6.741675193920708 11.464220910488038 0 0 0
2927 1 30.912417926025917 9.236901181013556 11.673286555318464 0 0 0
3215 2 33.79821819854307 9.235271334555843 11.533740468099055 0 0 0
3249 1 32.26368278270012 10.175791327068307 9.442338652448333 0 0 0
3504 1 35.15261925739461 6.786024505742177 11.67939258527045 0 0 0
3502 1 36.56295705624851 7.623436088432236 9.255837161668795 0 0 0
3503 1 36.66898132422797 9.226507116965363 11.564024325372216 0 0 0
3790 1 39.497991044762394 7.624470224811981 9.307072249795468 0 0 0
3791 2 39.497878047821786 9.413168020266138 11.639606001947826 0 0 0
3825 1 38.05146713477416 10.083120290409731 9.252606297287949 0 0 0
3866 1 39.45998357336951 17.865002568888826 14.130691309682954 0 0 0
2961 1 29.39134017144859 10.038891628185818 9.434870367184422 0 0 0
2674 1 27.83718807010898 12.771278983102448 9.431739747367484 0 0 0
2964 1 29.39532612239315 11.82889883772828 11.621452781346369 0 0 0
2962 1 30.863735838968868 12.634097143965674 9.23119355370843 0 0 0
3250 1 33.74992785882043 12.752159685982448 9.125446877209125 0 0 0
3252 1 32.38748992097748 11.708161329038019 11.686669216091776 0 0 0
3537 1 35.24380112538069 10.235978701529822 9.107101333522605 0 0 0
3538 1 36.61042113116129 12.846803480363553 9.128658239356735 0 0 0
3540 1 35.23160494689054 11.741702969930543 11.536600426555287 0 0 0
3826 2 39.57489166065926 12.628614338208632 9.390438081552611 0 0 0
3828 1 38.105838014628404 11.826711664033152 11.561848420074691 0 0 0
81 1 40.98025225591392 10.108800381051534 9.18050123421831 -1 0 0
2893 1 29.164763068139315 0.09766873057978473 14.071494534124227 0 0 0
2675 2 27.893627898180398 14.498971040189288 11.569669198003412 0 0 0
2963 1 30.715829057808325 14.285597671059604 11.644280321718142 0 0 0
2997 1 29.307927528602 15.205854837613723 9.282339364325233 0 0 0
3251 1 33.7486010564714 14.233090543756441 11.763167620471895 0 0 0
3285 1 32.19816988091321 15.288125427036006 9.379374472735444 0 0 0
3288 1 32.352556707928144 16.9033303509315 11.605399293534674 0 0 0
3539 1 36.581919842290326 14.472137042636184 11.659796767863595 0 0 0
3573 1 35.1311334795818 15.283808580143713 9.333668257884765 0 0 0
3576 1 35.06765465024523 17.02230040802432 11.809121201623938 0 0 0
3827 1 39.36467453076347 14.240268973983007 11.806736574628077 0 0 0
3861 1 38.03888478253635 15.270958567674883 9.355797273769168 0 0 0
3000 1 29.282814747359865 17.079033558699265 11.663316425803433 0 0 0
2710 1 27.702698213652575 17.73324456991662 9.39540832203354 0 0 0
2711 2 27.795838479354995 19.478783617063364 11.725363360277258 0 0 0
84 1 40.949064759446976 11.775418193464441 11.621238611529515 -1 0 0
2999 2 30.698604793336507 19.402344326389006 11.761522326192429 0 0 0
2998 1 30.756566433318987 17.957891577458057 9.360749871350276 0 0 0
3286 2 33.71129234269942 17.784237448553103 9.304668188740068 0 0 0
3287 1 33.56905963073829 19.421043573586363 11.546200454867138 0 0 0
3609 1 35.1498742007355 20.2387135770473 9.249601448476046 0 0 0
3291 2 33.74765444496581 19.5322116150963 16.35016465547116 0 0 0
3574 1 36.472860089141534 17.812459640130434 9.406056513672446 0 0 0
3575 1 36.6624549096383 19.403033027241584 11.784576114217307 0 0 0
3864 1 38.13023878655527 16.961678245729512 11.723919688800866 0 0 0
3862 1 39.59815122886664 17.933959366847695 9.39379687547651 0 0 0
3863 2 39.53435406073171 19.566784592105247 11.730104024430796 0 0 0
2606 2 27.801243725073732 2.4995873336363763 14.044191233409512 0 0 0
2896 1 29.267463587545933 1.8410426207001278 16.39560355336946 0 0 0
2894 1 30.662481196139385 2.7059170570432958 14.0082141867512 0 0 0
3182 1 33.54039700569122 2.703733673206172 14.001208519754325 0 0 0
3184 1 32.267184786663144 1.8034432296578635 16.273167181861012 0 0 0
3470 1 36.392720932853535 2.6488018546492706 14.090256858748562 0 0 0
3472 1 35.190769429633676 1.813088391342927 16.343814635104334 0 0 0
3003 1 30.799863029037986 19.483833246067917 16.348911426584284 0 0 0
3758 1 39.5144681465073 2.5734636077673705 14.01842673940402 0 0 0
3760 1 38.22207531726836 1.5635905563049044 16.339673166982294 0 0 0
3579 1 36.660709793688156 19.53174885023918 16.533682882886698 0 0 0
2607 1 27.802453229715596 4.232211926045442 16.319945634710944 0 0 0
2929 1 29.2982503856876 5.194805678015188 13.991902179512563 0 0 0
2895 1 30.923894802983416 4.20869167154321 16.408248693509567 0 0 0
3183 2 33.79818502078314 4.287081460274005 16.334576975003245 0 0 0
3217 1 32.17535877361298 5.2025711751553665 14.051188459472161 0 0 0
3220 1 32.309916753335905 6.815382307854519 16.34943137990299 0 0 0
3471 1 36.56724202845695 4.327109987497515 16.553596360805237 0 0 0
3505 1 35.22705063921837 5.104703236693574 14.022441488403008 0 0 0
3759 1 39.43299517058928 4.23432542708306 16.422962293464973 0 0 0
3793 1 37.98612277112386 5.07878269306682 13.849016018529685 0 0 0
2932 1 29.33628932140563 6.8467229105008895 16.334362103022052 0 0 0
2642 1 27.91275553162361 7.639009121307622 14.104615019065468 0 0 0
2643 1 27.77004013268554 9.283220829916235 16.463654811644062 0 0 0
2931 1 30.744582485519178 9.367250638744604 16.254021720556942 0 0 0
2930 2 30.70030717642285 7.703816572391057 13.897052306103365 0 0 0
3218 1 33.7358088148675 7.72037370123835 13.853236826241023 0 0 0
3219 1 33.753243216217314 9.423450109052085 16.28705950232549 0 0 0
3253 1 32.27778397737294 10.00165366600893 13.99581796481269 0 0 0
3508 1 34.968559806569345 6.874639081605907 16.402531581390708 0 0 0
3506 2 36.66286354662443 7.627923112221115 14.0374807159183 0 0 0
3507 1 36.62852152793742 9.425792288154572 16.29810199287544 0 0 0
3796 1 38.06005500753613 6.813215687847392 16.38461749405204 0 0 0
3794 1 39.46577983690671 7.756168462335413 13.921989433990444 0 0 0
3795 1 39.55945075981893 9.269601152099241 16.42097897527077 0 0 0
3829 1 38.08986465883883 10.119214837783108 13.90503897790236 0 0 0
2965 1 29.298747958473566 10.090589316483396 13.971469230216941 0 0 0
2678 1 27.857931683815266 12.674489809256501 13.85961726486776 0 0 0
2968 1 29.252676760142414 11.810011386599253 16.381443171976013 0 0 0
2966 1 30.84383490216777 12.697622601713128 13.901465120673603 0 0 0
3254 1 33.6053137232344 12.582035775588292 13.962468244682444 0 0 0
3256 1 32.3406239162269 11.833423876054656 16.314481297418958 0 0 0
3541 1 35.20095785919824 10.125770867803666 13.839483711695383 0 0 0
3542 1 36.62933413298458 12.713976753674213 13.88888730093111 0 0 0
3544 2 35.17006842342599 11.951494304169499 16.22658935144743 0 0 0
3830 2 39.42881661898326 12.732453015782315 14.092906756701604 0 0 0
3832 1 38.10591612773836 11.82828856298706 16.28216670703964 0 0 0
2679 1 27.791450373279716 14.401595192431978 16.339319332642233 0 0 0
3001 1 29.377933215501766 15.29367337691721 13.967474418176215 0 0 0
3255 1 33.71324651455912 14.388194930012345 16.395206244417167 0 0 0
2967 1 30.786605597053434 14.418623464080563 16.300512790256562 0 0 0
3292 1 32.15856402981028 16.928842069470996 16.446264585638744 0 0 0
3289 2 32.283670167961624 15.295053370444611 14.042415203103744 0 0 0
3543 1 36.57494451911113 14.41829336682541 16.35690114451933 0 0 0
3577 1 35.10060566749411 15.299645717538056 14.144351862114453 0 0 0
3580 1 35.183687211774604 17.07159370939767 16.37560618095254 0 0 0
3578 2 36.67200094695297 17.6801553707327 14.003168341457478 0 0 0
3831 1 39.59692787071547 14.280505696022136 16.349424773621458 0 0 0
3868 1 37.949056886738916 17.008103870891308 16.447173523740766 0 0 0
3865 1 38.02157616908731 15.430409618330035 14.074896224490676 0 0 0
3004 1 29.257360163947087 17.04336912058112 16.27451038003351 0 0 0
2715 2 27.85242578629752 19.46940834552178 16.418346053889685 0 0 0
2714 1 27.739049019741273 18.006853077868197 13.921158988189104 0 0 0
3002 1 30.74344796854147 17.817033620544514 14.079615563117345 0 0 0
3290 1 33.74744478635638 17.75694388278978 14.106616413218784 0 0 0
52 1 40.960166596719695 6.7175938969967905 16.381053974228358 -1 0 0
49 1 40.92327973199498 5.11382484797343 14.148377092448587 -1 0 0
124 1 40.987448608851594 16.858826398888088 16.430452754295796 -1 0 0
3321 1 32.02363677888296 20.259514107182294 9.387930775396601 0 0 0
3325 1 32.261179303315174 20.196145357036677 14.043406021414182 0 0 0
3177 1 32.26812416375208 0.027398190100466582 9.325450446058145 0 0 0
121 1 41.00693844551684 15.128417943008069 13.96708043125693 -1 0 0
2610 1 27.79991035495642 2.439615094021588 18.70775300210136 0 0 0
2900 1 29.289666829243657 1.7576775756715033 20.990177529499057 0 0 0
2898 1 30.76872334195031 2.758387109761536 18.7179684116599 0 0 0
3186 1 33.736456657935776 2.6337854590075054 18.812212417847345 0 0 0
3188 1 32.02531003835463 1.7275384081601997 21.042502830766182 0 0 0
3474 1 36.83136529264079 2.538017803428889 18.73119260549574 0 0 0
3333 1 32.25708378849515 20.256317479301632 23.388991610970123 0 0 0
3762 1 39.59338745022524 2.58910326922631 18.69988019330237 0 0 0
92 1 41.01162529864137 11.74769965285268 21.05667454922986 -1 0 0
3764 1 38.025782027067834 1.6132767683808555 21.164511431145804 0 0 0
2933 1 29.23440586524844 5.196216145453834 18.574953033087972 0 0 0
2611 1 27.793396839524597 4.181087626167176 20.952119586090966 0 0 0
2899 1 30.82367290978444 4.255995035537745 21.020906855892882 0 0 0
3221 1 32.1859706661109 5.166183557402066 18.71155366590842 0 0 0
3187 1 33.91427055648326 4.2814168102880625 20.946592206374024 0 0 0
3509 1 35.187988317588854 5.246383567554582 18.671950883661367 0 0 0
3475 1 36.718535393313665 4.244401244051424 21.090920890243854 0 0 0
3797 2 38.18054438736385 5.024245730170552 18.70256199321968 0 0 0
3763 1 39.595280267900165 4.269157726934303 21.11619939679335 0 0 0
2646 1 27.754224926517438 7.590317161966826 18.595132526772286 0 0 0
2934 1 30.829840882291702 7.686187474923877 18.671223874459066 0 0 0
2936 1 29.21045115484676 6.901827830680372 21.00619163855721 0 0 0
2647 1 27.883843959637957 9.251248978786847 20.998015669546863 0 0 0
2969 1 29.4003823940915 10.146583126803272 18.729525498916484 0 0 0
2935 2 30.690375144690947 9.271321580844564 20.99142832569763 0 0 0
3222 2 33.743201391025806 7.647150079068842 18.741621706872408 0 0 0
3257 1 32.155441901104865 10.182041496657453 18.735656312309697 0 0 0
3510 1 36.60395910746235 7.564933462344357 18.670326083875292 0 0 0
3545 1 35.24819230667002 10.240629291065956 18.581882566094478 0 0 0
3511 1 36.698339910772475 9.370018348244711 20.986197894167418 0 0 0
3798 1 39.598572146643214 7.584149305868561 18.714943136499397 0 0 0
3800 1 38.18497023704191 6.829826622587432 21.126676101625993 0 0 0
2682 1 27.915589797382978 12.510896084249325 18.74329120170553 0 0 0
2972 1 29.385568141305516 11.879899178507058 21.014659807721497 0 0 0
2970 1 30.686694117180373 12.7124909497615 18.59019267002196 0 0 0
3258 1 33.731899263731265 12.630309125698702 18.54625625840612 0 0 0
3260 1 32.12915951133228 11.769837682826616 21.125832212973904 0 0 0
3546 1 36.618609951407635 12.602305096808124 18.765215570066015 0 0 0
3833 1 38.135637849904604 10.170923508839138 18.709649612679236 0 0 0
3834 1 39.60055209162469 12.769645848253251 18.80610763854233 0 0 0
3005 1 29.35402325782145 15.392738130208263 18.629734435127922 0 0 0
2683 1 27.918884875642284 14.282201940857622 21.02056253208993 0 0 0
2971 1 30.798740094689343 14.555521406387653 20.95158899147699 0 0 0
3259 1 33.56361668257766 14.33790615692275 20.9559401143388 0 0 0
3293 2 32.23844313860776 15.362329376125135 18.64104611476644 0 0 0
3547 1 36.635213807313825 14.449843319981744 20.88834196617503 0 0 0
3581 1 35.079759962399464 15.1640029303591 18.70356965150226 0 0 0
3869 1 38.04754385332324 15.308722957345514 18.7046183981662 0 0 0
3835 1 39.54373870759713 14.477339842374839 21.057866325480283 0 0 0
2718 1 27.694276993827618 17.787274572550785 18.675670735276313 0 0 0
3006 1 30.802587312820926 17.84780991331067 18.760333370604442 0 0 0
3874 1 39.5242085434419 17.93093024244035 23.48029551458269 0 0 0
2719 1 27.850093200337277 19.330583787872193 21.091389531123284 0 0 0
3296 1 32.21685441892799 16.864868603712875 21.08414741234454 0 0 0
3294 1 33.60812246910419 17.67227862501562 18.656825401100253 0 0 0
3295 1 33.719757019778285 19.52567249971263 21.092691575329987 0 0 0
3007 2 30.523399246713765 19.438065236875932 20.970397134617603 0 0 0
3583 1 36.59849150350882 19.569830612890787 20.986241706982117 0 0 0
3582 1 36.40104101841126 17.695225089853793 18.775796195649562 0 0 0
3584 1 35.124801288392 16.920705565973247 21.224879622599182 0 0 0
3870 1 39.50578802459896 17.77141665411042 18.571723397554674 0 0 0
3872 1 38.06630700882016 16.88195529221364 21.110995532453288 0 0 0
2614 1 27.66631198955945 2.365203275138812 23.335159869008276 0 0 0
2902 1 30.624614602255193 2.4996876058884627 23.438667278332925 0 0 0
3190 1 33.695778072647975 2.6343398234408215 23.44958182010147 0 0 0
3476 1 35.229110631660106 1.640405062259127 21.22910310893385 0 0 0
3329 1 32.205322565345824 20.23942969778715 18.739006638192496 0 0 0
3478 1 36.701411304495345 2.698913459934816 23.513804841243886 0 0 0
3766 1 39.58093959695254 2.6792016106537564 23.471964030976054 0 0 0
2937 1 29.18040034775613 5.112591662007515 23.330392556313978 0 0 0
3225 1 32.17889959755996 5.090846839988383 23.38448695484218 0 0 0
3513 1 35.160877160696394 5.050741503500429 23.32248116208455 0 0 0
3871 1 39.63620440554093 19.47968061196361 21.079603906101866 0 0 0
3801 1 38.12334874009167 5.141962741308004 23.33800955731947 0 0 0
2650 1 27.713748246535374 7.572792595085046 23.400250275617275 0 0 0
2938 1 30.689592660661148 7.6988717933137405 23.291408078630475 0 0 0
3224 1 32.19735160969013 6.816082637240069 21.069156275295917 0 0 0
3226 2 33.67904519549347 7.527365209636412 23.3654618256986 0 0 0
3223 1 33.47805607183379 9.270055188995501 21.016970246465192 0 0 0
3261 1 32.16280787407774 10.085936377184185 23.35917143467211 0 0 0
3512 1 35.175839255623565 6.844634754113982 20.999119147419805 0 0 0
3514 1 36.636931034235765 7.630517653493741 23.3651731245372 0 0 0
3549 1 35.07717848231885 10.157515481693785 23.37405912940583 0 0 0
3802 1 39.67475787458177 7.715150037756536 23.16181863111966 0 0 0
3799 1 39.565925726636195 9.323125795005048 21.009085763332344 0 0 0
2973 1 29.3166165952146 10.022069655067074 23.374354970476677 0 0 0
2686 1 27.79985565027637 12.646007513625483 23.348554927642088 0 0 0
2974 1 30.60807706911401 12.780396514872503 23.277807093677257 0 0 0
3262 1 33.56948317356819 12.647156102373714 23.396068899239733 0 0 0
3548 1 35.00118736744296 11.68689073761837 21.067144434209037 0 0 0
3550 1 36.532493106704806 12.844621250945128 23.317518334070414 0 0 0
3837 1 38.09063348232795 10.264547893631134 23.267952999152445 0 0 0
3836 2 38.0693108704126 12.075633754622434 21.00701689333913 0 0 0
3838 1 39.62475469342655 12.753950176089543 23.382233409731523 0 0 0
3008 1 29.259526056254547 16.902405068201563 21.23749427597114 0 0 0
3009 2 29.419652116965224 15.236716863311564 23.408324502685392 0 0 0
3297 1 32.14260592085943 15.276560851405772 23.35016446674324 0 0 0
3585 1 35.08325617170707 15.282283859309494 23.454336089384974 0 0 0
3873 1 38.21827526049804 15.22399390020458 23.485417348879057 0 0 0
20 1 41.011291052388906 1.8185874761357832 20.99146985261758 -1 0 0
3010 1 30.838263846782137 17.739217277175623 23.3150377069823 0 0 0
2722 1 27.747968954710608 17.632707059903716 23.50638671329573 0 0 0
3298 1 33.794030166717384 17.77489181970835 23.44044504538145 0 0 0
3185 1 32.19354583710489 0.11024867785077597 18.604833885344778 0 0 0
3586 1 36.60588325662922 17.69583933514545 23.42356838894017 0 0 0
3045 1 29.31662289763944 20.23657934154911 23.467687041909087 0 0 0
3765 1 37.982757313227005 0.0026244159362221625 23.589720016525142 0 0 0
3041 1 29.342182532632002 20.172429492160212 18.704823401834634 0 0 0
128 1 40.848490518257705 16.888440586334895 20.947946828887886 -1 0 0
89 1 40.98438740749577 10.10365620359569 18.63876092633172 -1 0 0
3473 1 35.17222982217204 0.1470692162587913 18.744757989623377 0 0 0
2897 2 29.403661660207778 0.05644369144907115 18.700903896744954 0 0 0
3617 1 34.99547986015306 20.282061356915943 18.71976650733438 0 0 0
3189 1 32.29533500137065 0.14383605798777804 23.407397946062943 0 0 0
2618 1 27.844687866611885 2.5164375516038517 28.26222005502682 0 0 0
2904 1 29.33211814745125 1.6066667711495382 25.89046521386068 0 0 0
2906 1 30.703696981433975 2.548960402493724 28.173571651033143 0 0 0
3192 1 32.270549199377406 1.769772473935878 25.848304073515894 0 0 0
3194 1 33.75345535199934 2.569757471744041 28.21035791014188 0 0 0
3769 1 38.1081160087145 0.08502457490768148 28.040548149833874 0 0 0
3480 1 35.292414499004806 1.5347348900483355 25.764373184700023 0 0 0
3482 1 36.62592965626102 2.5121720786080206 27.990670390964496 0 0 0
3768 2 38.09216191141943 1.8131091739344238 25.726163037499603 0 0 0
3770 1 39.5961063818257 2.4584110833515167 28.013349017790564 0 0 0
2615 1 27.986656582907898 4.141261427766041 25.67216980135919 0 0 0
2941 1 29.384827193370015 5.01705113862282 28.05394810911664 0 0 0
2940 1 29.293014161136384 6.698790172064171 25.72016116919395 0 0 0
2903 2 30.75272214566474 4.170782227722721 25.790658287668595 0 0 0
3191 1 33.90518176691038 4.226598131550277 25.87888558311386 0 0 0
3229 1 32.1533140162724 5.1552701206258424 28.015273517929245 0 0 0
3479 1 36.719127794659805 4.22496862035156 25.89460647731791 0 0 0
3517 2 35.265226487394756 5.157557726561812 28.04066536911402 0 0 0
3767 1 39.54871691406505 4.28945553429379 25.768182127473054 0 0 0
3805 1 38.012752458425304 5.26687926202745 28.110768220579953 0 0 0
2654 2 27.9047065354395 7.565361226742977 28.090585895344493 0 0 0
2942 1 30.734060447155876 7.737281702539342 28.059537253017503 0 0 0
2651 1 27.874687511883657 9.1967237171652 25.8060320041277 0 0 0
2939 2 30.673231654878602 9.118575065183226 25.73832973165499 0 0 0
3228 1 32.02320017665657 6.704362508524015 25.54063890192756 0 0 0
3230 1 33.70087785764805 7.47425273465805 28.077632609158087 0 0 0
3227 1 33.57612457239522 9.272434369596104 25.77913106208342 0 0 0
3516 1 35.11689088977067 6.802456274538211 25.618194873957655 0 0 0
3518 1 36.575678022513856 7.7407107501648165 27.916659388112425 0 0 0
3515 2 36.57745508154573 9.35567503023128 25.57466541542101 0 0 0
3553 1 35.01851947622822 10.121005359740254 28.064119710707494 0 0 0
3804 1 38.26109985029468 6.980894160971252 25.57859236613582 0 0 0
3806 1 39.48824294676452 7.708689505364557 27.979159504152896 0 0 0
3803 1 39.43879824721334 9.42639846097938 25.592358771572485 0 0 0
2977 1 29.357556621664788 10.134079257274298 28.17781598925168 0 0 0
2690 1 27.814689206520285 12.658198214320992 28.096915907464936 0 0 0
2976 1 29.267349160805562 11.77100435532092 25.753357891438235 0 0 0
3265 1 32.19607158594922 10.228527566311143 28.169599151518465 0 0 0
2978 1 30.70119648155805 12.872211761168968 28.205602881150625 0 0 0
3264 1 32.104292225531985 11.931690928287356 25.82762729249324 0 0 0
3266 1 33.66973386282127 12.824536860348026 28.15467210971915 0 0 0
3552 1 35.04777813276367 11.967174529746426 25.698880566103007 0 0 0
3554 1 36.54340105850624 12.917006261541514 27.9859156541115 0 0 0
136 1 40.96232510646229 16.740149901045978 30.54562626893516 -1 0 0
3841 1 38.06070888883097 10.242723109437627 27.997011192420935 0 0 0
3840 2 38.01006098561098 11.896107144897458 25.627186166340064 0 0 0
3842 1 39.47475246174186 12.717551021066217 27.810019427460727 0 0 0
2687 1 27.876981506828894 14.44044597048968 25.748812505145832 0 0 0
3013 2 29.327668367004097 15.295887052328068 27.994173003990205 0 0 0
2975 1 30.659155909967946 14.326748807997038 25.62245769194698 0 0 0
3263 1 33.64519806327419 14.394951676360371 25.747678243723705 0 0 0
3301 1 32.17190886438076 15.389941575720986 27.953705833163433 0 0 0
3551 1 36.71897022009547 14.282424705789165 25.71803834820065 0 0 0
3589 1 35.07531324262243 15.302873513232184 28.010937501060198 0 0 0
3591 1 36.639405442969604 19.349997187843563 30.28156657153669 0 0 0
3839 1 39.5459395577995 14.356930986199211 25.67037095132864 0 0 0
3877 1 38.00896508032292 15.281211373130866 28.09708705923425 0 0 0
3012 1 29.304645008523536 16.879429162069652 25.710041131528364 0 0 0
2723 1 27.87383259832289 19.417186963421415 25.87592678596507 0 0 0
2726 1 27.808153823400392 17.748921309440334 28.157268645135357 0 0 0
3011 1 30.99681993275554 19.455504768975675 25.804927304440458 0 0 0
3197 1 32.331758389143104 0.1331148897409764 32.84839609774485 0 0 0
3300 1 32.27259588757064 17.081851507378833 25.704936259433847 0 0 0
3014 1 30.676911120615717 17.815597150222892 28.006327566191374 0 0 0
3299 2 33.72127552510769 19.434044575661556 25.652164961717578 0 0 0
3302 1 33.77570470273775 17.872913547373727 28.11685299476092 0 0 0
3588 1 35.08943624372777 16.946954747743767 25.824946177589727 0 0 0
3587 1 36.7299370730124 19.438716579179356 25.7471251662236 0 0 0
3590 2 36.566675927761075 17.576990967873428 28.137523382143904 0 0 0
3306 1 33.62426332195618 17.835633496976932 32.75182917153798 0 0 0
3876 1 37.93868049459592 16.838430067716025 25.723003300843335 0 0 0
3875 1 39.45188472768952 19.4509360796858 25.885780761469526 0 0 0
3878 1 39.47060084924403 17.704041956349702 28.119041672419584 0 0 0
28 1 40.92325175816235 1.653266228823458 30.40946757179376 -1 0 0
2622 1 27.75608076055008 2.6187296760621352 33.007315914633764 0 0 0
2908 1 29.23375427963067 1.6784490051908774 30.5490696958963 0 0 0
3337 1 32.25841853941839 20.185327917307106 28.11343236516551 0 0 0
96 1 40.94781959014133 11.775270350716212 25.576012263973983 -1 0 0
2910 1 30.70890475015748 2.5773762873331623 32.899022048077384 0 0 0
3196 2 32.115052476990115 1.7340860921410088 30.547836691364367 0 0 0
3198 1 33.789553098773816 2.7396288141264713 32.67504658546667 0 0 0
3484 1 35.17276183601634 1.7066599198060888 30.477423495040266 0 0 0
3486 1 36.767465688381904 2.694015956975768 32.8411473909551 0 0 0
2909 1 29.432181351473723 0.0671496035205078 32.85397832712349 0 0 0
3592 1 35.059623930672316 16.99305318632679 30.568394892062024 0 0 0
3772 2 38.083916362748006 1.5671618729994112 30.39181353484329 0 0 0
3774 1 39.62330878300123 2.5339360957202914 32.803197254352064 0 0 0
2619 1 27.789832852151488 4.263721731608094 30.600903951989373 0 0 0
2945 1 29.290376726582682 5.250825319365092 32.82012646382432 0 0 0
2907 1 30.84483690029893 4.222667045567125 30.573867396219498 0 0 0
3195 1 33.68097012094538 4.235551107803736 30.45946584608661 0 0 0
3233 1 32.22481530200061 5.179937056686944 32.87258701664593 0 0 0
3483 1 36.767218782798274 4.111878588617858 30.407997699240248 0 0 0
3521 1 35.2212827309346 5.1874425264883195 32.82861346424196 0 0 0
3520 1 35.221133997589654 6.672472052452579 30.374885134975777 0 0 0
3771 1 39.48844931823878 4.235975846605063 30.46620183734088 0 0 0
3809 1 38.11720771225814 5.195586202027157 32.77263513741613 0 0 0
3808 1 38.28455597634825 6.897547873422975 30.462275730191028 0 0 0
2944 1 29.360165819591924 6.951847641581321 30.391741707885263 0 0 0
2658 1 27.838214950131228 7.636591361059373 32.85371069600005 0 0 0
2946 2 30.702194749095895 7.677320964652424 32.79324533183802 0 0 0
2655 1 27.74281048325214 9.293713915126936 30.431178807361498 0 0 0
2981 1 29.28061414368821 10.235025526926107 32.87869418035374 0 0 0
2943 1 30.845055020414218 9.397099315457824 30.526852206759106 0 0 0
3232 1 32.12882546014619 6.908891495904904 30.417350071314367 0 0 0
3234 1 33.844224157159125 7.615553109740007 32.661210655361366 0 0 0
3231 1 33.63004473133829 9.472241338133983 30.307818702033185 0 0 0
3269 1 32.23176690620267 10.069544421278271 32.64739893081222 0 0 0
3522 1 36.782936374772625 7.701684361488543 32.70944914677538 0 0 0
3519 1 36.707190286010444 9.499142567733426 30.193661380737858 0 0 0
3557 1 35.21896116155694 10.206511935160428 32.607355015152955 0 0 0
3880 1 38.01464964972898 16.953658440532728 30.414345366624094 0 0 0
3810 1 39.63793535056192 7.609651017988531 32.750268369130026 0 0 0
3807 1 39.481407352966535 9.328216370386285 30.30667190302883 0 0 0
3882 1 39.53386804145955 17.941623801601676 32.73619545788048 0 0 0
2980 1 29.21457552481267 11.848574431173219 30.607277097222276 0 0 0
2694 1 27.83613896481808 12.671378303296114 32.731956384347946 0 0 0
2982 1 30.903279162150962 12.783165486169956 32.708215247361096 0 0 0
3268 2 32.30737675875423 11.932572775688143 30.40350847326896 0 0 0
3270 1 33.68389461540634 12.690206735454023 32.71392586153278 0 0 0
3556 1 35.17848123992104 11.950385484691095 30.281117270209574 0 0 0
3558 1 36.61460656238799 12.821852065252374 32.80032503019997 0 0 0
3303 2 33.804925944899 19.597622247518505 30.448682406489002 0 0 0
3845 1 38.16056207724358 10.322737823811288 32.70382983512925 0 0 0
3844 2 37.95364098194848 11.970268527729129 30.24334755459205 0 0 0
3846 1 39.479240171999415 12.686716491297924 32.64911712105963 0 0 0
2691 1 27.78984511118358 14.442166907816308 30.344980659906025 0 0 0
3017 1 29.316533206584545 15.349268913733857 32.68507917540954 0 0 0
2979 1 30.766354067092447 14.469702862872298 30.47534434031861 0 0 0
3267 1 33.66278459147047 14.463763432786443 30.512190387903896 0 0 0
3304 1 32.31494016204405 17.03799502828317 30.31935364730136 0 0 0
3305 1 32.340861385370616 15.22283960831313 32.93284858266017 0 0 0
3555 1 36.603528423877584 14.573277707116091 30.39428289601097 0 0 0
3593 2 35.20080415140978 15.250818299328508 32.807898317598365 0 0 0
3879 1 39.594370302208326 19.62302660838015 30.434371530210665 0 0 0
3843 1 39.49507517050323 14.319204805858718 30.416509279730338 0 0 0
3881 1 38.17278231985409 15.332727938974733 32.71083547816063 0 0 0
3594 1 36.554323723657184 17.722865656286963 32.84980978350449 0 0 0
3018 1 30.83609426291624 17.85384211286353 32.91463756514175 0 0 0
3015 1 30.93918755039688 19.469151310416276 30.495239058517033 0 0 0
3016 1 29.305935568785163 16.996407042876637 30.452998006011864 0 0 0
2727 1 27.946803464058014 19.563613537342217 30.551454987403943 0 0 0
2730 1 27.931632957275205 17.855185361609315 32.69874695841575 0 0 0
24 1 40.94341309534608 1.6777266856890078 25.63333620584666 -1 0 0
97 1 40.98355066687645 10.07758840574983 27.955126396429264 -1 0 0
61 1 40.96475380866083 4.976829375330732 28.131170061276148 -1 0 0
3625 1 35.1213548197104 20.290516936695834 27.98769810694865 0 0 0
100 1 40.82357796749299 11.623441510214626 30.436095422844005 -1 0 0
132 1 40.88058012520171 16.789489184999724 25.851075912472893 -1 0 0
3913 1 38.11131837410566 20.208449622692907 28.02598324631085 0 0 0
137 2 40.93167636736792 15.198606553987249 32.74944265734839 -1 0 0
2905 2 29.24430523055077 0.06656859404922738 28.241715021785414 0 0 0
3193 1 32.123953707825294 0.08550445350974774 28.299800845343697 0 0 0
65 2 40.94935734834077 5.121473768718872 32.63857080889672 -1 0 0
3049 1 29.345737842933133 20.217939483741084 28.1942961294322 0 0 0
3341 1 32.230202066515886 20.265570014120144 32.70582633272397 0 0 0
2626 1 27.80726504851944 2.5460179016379056 37.48197580724397 0 0 0
2912 2 29.278888542838914 1.7982849839868444 35.223633176550926 0 0 0
3853 1 38.04384208780304 15.164942494702064 41.93211150447543 0 0 -1
2914 1 30.69922233156398 2.6123538875041863 37.48739047720673 0 0 0
3200 1 32.15955498603879 1.66275433027066 35.13180108176957 0 0 0
3202 1 33.54719920437152 2.597795462682557 37.45934674029373 0 0 0
2881 1 29.24015096449545 0.03287189307129754 42.04338845227052 0 0 -1
3488 1 35.185006010933456 1.802974561069731 35.031734953074086 0 0 0
3490 1 36.628004238523374 2.5810418852509662 37.35907783814618 0 0 0
3776 1 38.19059520163396 1.6014401709945185 35.12190395361679 0 0 0
3778 1 39.632255374139696 2.3158496090829175 37.42814913398389 0 0 0
68 1 40.95166251177391 6.6203682679906795 35.12155525311809 -1 0 0
2623 1 27.750118044103623 4.402994653333901 35.05572667150037 0 0 0
2949 1 29.3678017418561 5.250623899167083 37.567016874531824 0 0 0
2911 1 30.736656091186642 4.255949185048207 35.148079410778394 0 0 0
3199 1 33.73337677184139 4.293602698513393 35.092171325528014 0 0 0
3237 2 32.19276840336557 5.0418184310884255 37.430762613222285 0 0 0
3236 1 32.23728700416418 6.806416358380559 35.099015999285626 0 0 0
3487 2 36.69328919764544 4.291967526338253 35.041491028650036 0 0 0
3525 1 35.21365296437936 4.993733601365158 37.44176241393866 0 0 0
3524 1 35.39987378744848 6.831747576074012 35.10201965060682 0 0 0
3775 1 39.44840333799026 4.007873076997277 35.16061200884021 0 0 0
3813 1 38.22563981178713 4.965810654882784 37.44484764351617 0 0 0
3812 2 38.11389551084129 6.707413252481652 35.15608992423893 0 0 0
2666 1 27.78614613656499 12.791147264852379 42.15046436992052 0 0 -1
2948 1 29.35513633440353 6.892918217810688 35.195641313640294 0 0 0
2662 1 27.789614996054613 7.620182803428678 37.59834811782535 0 0 0
2950 1 30.84889207083612 7.690540003528524 37.40837036960645 0 0 0
2659 1 27.844824410807014 9.489570026129327 35.136701217149984 0 0 0
3238 1 33.68131143753637 7.652236706171989 37.34699887016065 0 0 0
2947 1 30.73554115914851 9.45052532462674 35.13900050204752 0 0 0
3235 1 33.77789756784091 9.349976390585853 35.11000731638375 0 0 0
3273 2 32.191866726260336 10.112490102440727 37.4082475460897 0 0 0
3526 1 36.675113713716165 7.57202874738854 37.55633363924875 0 0 0
3523 1 36.78880327839375 9.345964755947065 35.162299988118626 0 0 0
3561 1 35.204028974534744 10.11573811818562 37.46476008095028 0 0 0
3814 1 39.65534385252021 7.654214913634169 37.37677861520706 0 0 0
3811 1 39.49641466884848 9.311790258936126 35.06764097873796 0 0 0
3849 1 38.164479913007376 10.209581533232525 37.4177694774598 0 0 0
2985 1 29.239071665555485 10.377089206197697 37.444616580096756 0 0 0
2698 1 27.754225825127804 12.733356462321856 37.399169789120066 0 0 0
2984 2 29.303759969426 11.932714014544926 35.20872729598919 0 0 0
2986 1 30.63355446944779 12.748302756715779 37.57501943444547 0 0 0
3272 1 32.29075807519953 11.823577269588553 35.08229040347686 0 0 0
3274 1 33.814471492740296 12.484546575982405 37.265288534165755 0 0 0
3560 1 35.32270712876209 11.901619419464286 34.96926691470149 0 0 0
3562 1 36.6878619322437 12.695915596543413 37.39393462080373 0 0 0
3848 2 38.11234286461563 12.002270423332607 35.1069057794071 0 0 0
3850 1 39.62968654475904 12.747476554505738 37.357330516086826 0 0 0
2695 1 27.82769943417236 14.439588751369872 35.1301134782347 0 0 0
3021 1 29.382020024797903 15.221816160167545 37.53770319867766 0 0 0
2983 1 30.680792976785185 14.379033943105913 35.1863947691375 0 0 0
3271 1 33.77033197416232 14.475729266934119 35.19372587757785 0 0 0
3309 1 32.15705892307146 15.283454185569182 37.55352448554586 0 0 0
3559 1 36.722501260999984 14.390947042118734 35.06369138517869 0 0 0
3597 1 35.321149646453414 15.312841383978013 37.54187150166522 0 0 0
3596 1 35.247598656990235 16.934947041775224 35.26922691609286 0 0 0
3847 1 39.5562444945511 14.270863711427165 35.142909571723315 0 0 0
3885 1 38.13069440072956 15.271251416238059 37.590316803518206 0 0 0
3884 1 38.1633014555534 16.833708113536492 35.23126803189814 0 0 0
3887 1 39.54986958268827 19.34806854912926 40.00498131424006 0 0 0
3020 1 29.2111138864281 17.01102856045192 35.165669966032944 0 0 0
2731 1 27.81709683753654 19.602158740934904 35.17981214965564 0 0 0
2734 1 27.800969214397693 17.82459091524346 37.44506605407477 0 0 0
3019 1 30.803797810553256 19.78548983827553 35.09107496019396 0 0 0
3022 1 30.687030252554017 17.795488238199358 37.45860480711319 0 0 0
3308 1 32.160141845163515 16.97694687276374 35.28261095150237 0 0 0
3307 1 33.62067004778788 19.506961062529594 35.18436898318885 0 0 0
3310 1 33.67105687283649 17.795937184378143 37.56665408336901 0 0 0
3170 1 33.80900107693665 2.605247531647458 42.146511223659566 0 0 -1
3595 1 36.66862589168889 19.333328603858394 35.127828513768755 0 0 0
3598 2 36.71019893461169 17.807687531134725 37.54669653889379 0 0 0
3883 1 39.660967329254035 19.609038340597188 35.16169927877632 0 0 0
3886 1 39.6348055191511 17.830665218288424 37.53589446461501 0 0 0
2594 2 27.883917554503597 2.60154162893213 42.00816602844556 0 0 -1
2916 1 29.34062494332976 1.8515126728171372 39.89652313588455 0 0 0
3278 1 33.72725544012502 17.650850853697353 42.10800109593849 0 0 -1
3204 1 32.309977525456524 1.6563747039800314 39.877723415801675 0 0 0
104 1 40.8808807749736 11.64005231027171 35.002782405984966 -1 0 0
2918 1 30.733520937583425 7.792584343296611 42.121023707411204 0 0 -1
3492 1 35.16749413922094 1.603855233759953 39.732691895098014 0 0 0
3780 1 38.11966923300436 1.7766183006503802 39.77917855481718 0 0 0
2627 1 27.966452036322714 4.387304013331274 39.92708445118194 0 0 0
3921 1 38.08816679689163 20.16551005109379 37.66811478529956 0 0 0
2915 1 30.83230162674626 4.252450355446882 39.73575593633858 0 0 0
3203 1 33.58395258240072 4.063143371384951 39.677995005329215 0 0 0
3240 1 32.28405013539917 6.665517212229628 39.798710679598436 0 0 0
3491 1 36.65976087236541 4.329904018262604 39.79462363057691 0 0 0
3818 1 39.65114336485823 12.65309752945934 42.092507830551185 0 0 -1
3633 1 35.1279989572887 20.250251041593433 37.49272630407032 0 0 0
3779 1 39.68876955761739 4.308059863124814 39.946528824926624 0 0 0
2952 1 29.272826391882393 6.921781864591851 39.93019897777332 0 0 0
2663 1 27.72110695938374 9.322536965353754 39.79496809223039 0 0 0
3275 1 33.714200777071866 14.219134320367425 39.75843939305905 0 0 0
3600 1 35.16118228759401 16.915272436021695 39.803584261323664 0 0 0
2951 1 30.68925459322334 9.492263513619324 39.79199169672764 0 0 0
3239 1 33.56563886232735 9.319140432298816 39.803396653943686 0 0 0
3312 1 32.10563621421009 16.846711933659982 39.79068092418852 0 0 0
3528 1 35.09049207265001 6.743109621716547 39.84396614136189 0 0 0
3527 1 36.67187032521536 9.353931694789265 39.960784948676746 0 0 0
3816 1 38.131744778192875 6.788305266549127 39.81791983424949 0 0 0
3815 1 39.532935750485336 9.354053465044887 39.88916483226975 0 0 0
3023 1 30.719382228942944 19.487498159785382 39.77334496731804 0 0 0
3458 1 36.6314187983936 2.6069047022497855 42.06969461041896 0 0 -1
3311 2 33.58488503019515 19.38791726040573 39.84086539570338 0 0 0
2988 1 29.045277458003124 11.834479935765467 39.705396834535804 0 0 0
3024 1 29.24515801213068 16.8404889640351 39.77082793443425 0 0 0
3276 1 32.23629173905137 11.834397514047263 39.621920095126185 0 0 0
2735 1 27.88949318086324 19.688967095478034 39.90042683257094 0 0 0
3599 1 36.543644507405475 19.352797441144038 39.98615905266131 0 0 0
3564 2 35.22815968154399 11.690888941060773 39.696023728159155 0 0 0
3563 2 36.634800418629524 14.343721272388056 39.70770946549282 0 0 0
3888 1 38.0310169286177 16.96565843085837 39.88356222990366 0 0 0
3852 1 38.24294574499632 11.780256342462176 39.77883086716691 0 0 0
2699 1 27.755186623766765 14.404306134042344 39.79613506705213 0 0 0
2987 2 30.798359649899115 14.223590441891044 39.722665898081296 0 0 0
3851 1 39.68507808252003 14.351371490448747 39.68733857806428 0 0 0
2913 1 29.307170729009282 0.1707570828877744 37.53778277138139 0 0 0
3565 1 35.24508703219477 15.076306787036383 42.05780805709572 0 0 -1
3489 1 35.231959348236856 0.015319399158751973 37.382394087268615 0 0 0
3781 1 38.06602998697701 5.1120326985298625 42.08444024399469 0 0 -1
3457 1 35.185043105125104 0.04553804086031023 42.181663958282265 0 0 -1
69 1 40.98789385805283 5.085556135881332 37.45490815549724 -1 0 0
3782 1 39.58552453651234 7.532179141147671 42.13130244679897 0 0 -1
3277 1 32.22155495647386 15.197186804886918 42.01910929772923 0 0 -1
3530 1 36.717258830108264 12.527107561442717 42.03570729441334 0 0 -1
3241 2 32.08124642662475 10.194613728445546 42.066300499881656 0 0 -1
2989 1 29.287978667305524 15.468434795616155 42.12268963000659 0 0 -1
3529 1 35.07920993179744 10.17448994255462 42.08208161480262 0 0 -1
3566 2 36.55717926250366 17.683409325704602 42.11891288859862 0 0 -1
3242 1 33.65080845591119 12.455522711048463 42.06313365276038 0 0 -1
2954 1 30.667100925532697 12.60733597120306 42.128826655654045 0 0 -1
73 1 40.98946206151635 10.131788715587467 42.07999721458875 -1 0 -1
3345 1 32.16978275733522 20.282877708235233 37.58114259737792 0 0 0
3493 2 35.11766358509108 5.049525441875727 42.01867890231833 0 0 -1
3746 1 39.56977193744919 2.5960652758862683 42.03607687564892 0 0 -1
2702 1 27.85569465544927 17.792960410504246 42.14207743435368 0 0 -1
2882 1 30.83401571528403 2.583456755807755 42.166054521864204 0 0 -1
3494 1 36.49696963648077 7.666080164734671 42.16276344197922 0 0 -1
2990 1 30.728026498800318 17.92090541937744 42.13945014486382 0 0 -1
2953 1 29.34660917651593 10.290587635558067 42.11260271311898 0 0 -1
3206 1 33.64678771648731 7.707264410064981 42.05557313081313 0 0 -1
3205 1 32.29177596006383 5.144360618410107 42.17985764101535 0 0 -1
3028 1 29.320078680025187 22.14443864085078 2.337240681235024 0 0 0
260 1 40.97147943380449 37.16513543439406 7.012617654134721 -1 0 0
3316 1 32.26637403584111 22.108647993859865 2.323070823355275 0 0 0
224 1 40.966466291670066 32.14180938296828 7.072027817536128 -1 0 0
3604 1 35.23016732753965 21.968880843096898 2.3178338191309433 0 0 0
3892 1 38.163350449201666 21.924732275567123 2.268847648327369 0 0 0
3029 1 29.332741566581795 20.465745527788396 4.749987746415399 0 0 0
2739 2 27.88770233434666 24.583953072418563 2.2812034919268456 0 0 0
3064 1 29.20103344874353 27.089727245236812 2.361984155280653 0 0 0
3061 1 29.22105604553068 25.43704480168848 0.050296938138686687 0 0 0
3027 1 30.85947502625896 24.561453096997237 2.3617569376192473 0 0 0
3315 2 33.7222545504213 24.41368091075683 2.285919510325043 0 0 0
3352 1 32.22530198574545 27.072697095356066 2.4577625258825604 0 0 0
3313 1 32.249804408397374 20.32001470149299 0.05059042981248098 0 0 0
3603 1 36.60792658956298 24.43216050402958 2.3110003501750263 0 0 0
3640 1 35.093260159251905 27.004074305026155 2.3088303692417744 0 0 0
3133 1 29.401980662870113 35.57067705993972 0.04398413085756506 0 0 0
3891 1 39.65050550685523 24.580792416646595 2.2998548264035215 0 0 0
184 1 41.00022191363251 27.17428967960552 2.273683765461214 -1 0 0
3461 1 35.19714707560793 40.498594737830125 4.724946579493145 0 -1 0
2775 1 28.04437398267938 29.861421838203434 2.3399253606908683 0 0 0
3063 1 30.792979317238345 29.753297162625476 2.300200018931457 0 0 0
3351 1 33.832028385195585 29.580919793633974 2.4655574028345333 0 0 0
3349 1 32.204594309661424 25.364262438165515 0.0508252500470205 0 0 0
3639 1 36.601635065772 29.63732971360289 2.2921287882773838 0 0 0
152 1 40.93424857265055 21.978082811532087 7.033774536623356 -1 0 0
3098 1 30.852000254954138 33.00734625885114 0.0031872908251517895 0 0 0
4004 1 38.13735887244749 37.26479788264347 7.027969111496981 0 0 0
3928 1 38.18900517787601 27.310910158670076 2.2923183786485444 0 0 0
3927 1 39.70725571162277 29.77125851417701 2.3761858215536695 0 0 0
188 1 40.79967465635022 27.12682645851837 6.981988383537613 -1 0 0
3100 1 29.280810741177653 32.29587920608475 2.287409628695099 0 0 0
4003 1 39.629003173090894 39.82873856768345 6.96192020198981 0 0 0
3388 1 32.40907426428532 32.139360845022786 2.3165348011590767 0 0 0
2815 1 27.77071087511026 34.77542760603816 7.034934134085566 0 0 0
3967 1 39.4943922782333 34.728913811803906 7.099877101338692 0 0 0
4001 1 38.01236440247146 35.51410257812251 4.704427083459375 0 0 0
3676 1 35.32372996776061 32.1199110267586 2.1663831953475006 0 0 0
3679 1 36.587225335383486 34.72659610645568 7.1263976398269175 0 0 0
3713 1 35.26947492109235 35.60480405788986 4.680952637031878 0 0 0
3964 2 38.12974230117732 32.10831991110218 2.3691589018631056 0 0 0
3716 1 35.256850238147905 37.342629523881726 7.077093243938914 0 0 0
3427 1 33.74345501228522 39.655974306845785 6.982634707345771 0 0 0
4002 1 39.4772754273609 38.179774950771765 4.648885475971254 0 0 0
2811 1 27.714909072645526 34.7609601378764 2.294423392710292 0 0 0
3715 1 36.73175294082386 39.77865354084417 7.0204080946275536 0 0 0
3099 1 30.85591070552031 34.73615322162178 2.4837110235142585 0 0 0
3387 1 33.79610094947059 34.57925347089439 2.328627860011081 0 0 0
3925 1 38.13785568173651 25.309394242364718 -0.009110470070411457 0 0 0
3675 2 36.609814950691124 34.734151920537826 2.399871227012004 0 0 0
3712 1 35.143168192521536 37.17084042864536 2.3033755036065653 0 0 0
2851 1 27.69569372893647 39.83495856659952 6.982597791993252 0 0 0
3963 1 39.32599935051046 34.629689762303855 2.3292593146074623 0 0 0
4000 1 38.09980545761602 37.1892182189525 2.33706181110165 0 0 0
2850 1 27.717601052624868 38.03392942448247 4.560759216872079 0 0 0
3391 1 33.75804800338931 34.7453158498461 7.033993963836005 0 0 0
3136 1 29.266588431515867 37.25190129180066 2.3867315290460622 0 0 0
2847 1 27.807341542520508 39.876181744825395 2.1640453930069836 0 0 0
3424 1 32.16308328293329 37.15803079715498 2.3922020066925853 0 0 0
3135 1 30.763200258476115 39.69613789466359 2.3676871804399204 0 0 0
3423 1 33.638898397686305 39.86669791693816 2.205083942137394 0 0 0
3714 2 36.73203317730004 38.1802847015725 4.591303886305832 0 0 0
3711 1 36.63652469252778 39.81187332879995 2.328229243132372 0 0 0
3999 1 39.490736168250685 39.70740978415529 2.1715869467208657 0 0 0
3103 1 30.778816793632362 34.80249582448477 7.055645604170827 0 0 0
2742 1 27.69667431097158 22.974887002130203 4.663782363160261 0 0 0
3032 1 29.256107145160172 22.123454789758778 7.059583692040016 0 0 0
3425 1 32.221877436046476 35.63338938515944 4.791593922989756 0 0 0
3030 1 30.79489864875343 23.007898112775468 4.65545559288658 0 0 0
3318 1 33.757043570046825 22.771278997756255 4.642861382847401 0 0 0
3320 1 32.15817540175573 22.043676816353464 7.028311613187109 0 0 0
3606 2 36.71587447115698 22.742712606583112 4.524669456184 0 0 0
3608 1 35.159608414112604 21.882491898208585 6.870384478284865 0 0 0
3428 1 32.258719828086804 37.2539982531402 7.0017467548367485 0 0 0
3894 1 39.61262145597329 22.750510402089574 4.43564130843668 0 0 0
3896 1 38.05620132763684 22.031934280288166 6.966771311310295 0 0 0
2743 2 27.75369646677814 24.56518034729211 7.10817353675248 0 0 0
3065 1 29.222554649217006 25.43260996688542 4.709048549187024 0 0 0
3031 2 30.696135002506825 24.534651833087413 6.936192028590051 0 0 0
3068 1 29.381694219466773 26.96931466088734 7.0696254076526435 0 0 0
3319 1 33.64321235892996 24.470121371930027 7.095408500078277 0 0 0
3353 1 32.30157880714462 25.39960010262823 4.635036327290871 0 0 0
3356 1 32.29980018955982 27.071365448347095 6.973806034569674 0 0 0
3607 1 36.57663953035725 24.41083783958654 6.782214391772275 0 0 0
3641 1 35.221739800036765 25.22273714203082 4.572475906941407 0 0 0
3426 1 33.771775517050095 37.90307033937505 4.647285224931881 0 0 0
3895 1 39.48124399093663 24.57126929378548 6.944684988507612 0 0 0
3929 1 38.07944426498723 25.326608506088185 4.723536443774792 0 0 0
3932 2 38.0435611677341 27.030689235807596 7.096630921206968 0 0 0
2778 1 27.964128444134857 28.111404162400923 4.6672956629197095 0 0 0
3066 1 30.769513751021673 28.07905554453576 4.598934508449795 0 0 0
2779 1 27.749606542626466 29.619233786097993 6.977143178336327 0 0 0
3067 1 30.5296668123818 29.65889259381126 7.015163454956628 0 0 0
3354 2 33.68127413746124 27.862716554897855 4.761295547215746 0 0 0
3355 1 33.56800836747267 29.588154580006186 6.958803772979373 0 0 0
3389 1 32.225337620067116 30.42797956559211 4.695872253760868 0 0 0
3644 1 35.14773501370356 26.984724986716255 6.883661382166223 0 0 0
3642 1 36.598993903945015 27.835174726539805 4.6381919611052895 0 0 0
3643 1 36.510562106997384 29.50575963613581 6.862085158922723 0 0 0
3930 1 39.572871323769554 27.90068383206973 4.718656237285979 0 0 0
3931 2 39.349194921307344 29.60259557483439 7.0040715959166 0 0 0
3140 1 29.273261973739448 37.217517872120425 7.056748652905016 0 0 0
3101 2 29.29530891197125 30.64139863576567 4.655264186711764 0 0 0
2814 1 27.728587866491214 33.04111016838815 4.600698566215716 0 0 0
3104 1 29.164024968969496 32.13768493801439 7.0814433753897434 0 0 0
3102 1 30.78744187510179 32.97107732000959 4.7767430552114 0 0 0
3392 1 32.16239440825412 32.11648232995249 7.093713051079693 0 0 0
3390 1 33.82549350218555 33.08937629771882 4.585423730648161 0 0 0
3677 1 35.13493711102159 30.431953858384333 4.622509288468357 0 0 0
3678 1 36.57999051382189 32.98634053326331 4.719094186138345 0 0 0
3680 1 35.025958346209165 32.1523456411651 7.021961379103718 0 0 0
3139 1 30.74226377973149 39.70869516108007 7.0221237787866 0 0 0
3138 2 30.764415018260554 38.05415730965244 4.745902369177943 0 0 0
3965 1 38.06943875427005 30.376808940491365 4.5791129213985675 0 0 0
3966 1 39.541390049813955 32.9896607699708 4.760398160328395 0 0 0
3968 1 38.00911612724743 32.1057318890189 7.065217672268454 0 0 0
3137 1 29.367816387223055 35.58525194187598 4.792574871028366 0 0 0
221 1 40.91277684337175 30.64000859888252 4.6905402595832815 -1 0 0
256 1 40.93642702276079 37.26960112219526 2.209442755060235 -1 0 0
2885 1 29.317430221647545 40.4973634762847 4.572917074827798 0 -1 0
3314 1 33.69232424873938 22.795346195737405 0.0042915952101266475 0 0 0
3962 1 39.610395725643976 32.89391663546644 -0.0067031411721534505 0 0 0
185 1 40.95997919810378 25.47637766577643 4.6679878583096 -1 0 0
3097 2 29.382460106157968 30.44460881826068 0.04101699881315718 0 0 0
2738 1 27.834930718156667 22.83396359096679 0.0029812311395727847 0 0 0
257 1 40.88877331567731 35.565860038139206 4.601699329081363 -1 0 0
2810 1 27.911535393925995 33.07385195318132 0.08279857805459331 0 0 0
3602 1 36.52204394464693 22.78434152051814 0.036851711469122625 0 0 0
3745 1 38.019423402918086 40.608101292416826 -0.01073028102451819 0 -1 0
3134 2 30.80709399905322 38.238779078402246 0.1482695220921086 0 0 0
3926 2 39.59964393943651 27.90344980679272 0.02774239548573658 0 0 0
3710 1 36.61374728726065 37.927274323541276 0.21205644091962014 0 0 0
3709 1 35.247942535721634 35.48348505808776 0.045383869059058876 0 0 0
3350 1 33.647676739603405 28.023279954308247 -0.028966432084637957 0 0 0
3385 1 32.15791162629879 30.492164601847314 0.04279158817370332 0 0 0
3637 1 35.180007075361516 25.39883703265852 0.04470760530264027 0 0 0
3421 1 32.31659804451942 35.62849074349281 0.07724012224396837 0 0 0
3961 1 38.0630484038446 30.408840530757054 0.00844715446987581 0 0 0
3062 1 30.67765607101056 27.89404430574434 -0.010319384984811109 0 0 0
2746 1 27.743329173441857 22.971289374841422 9.294093471456332 0 0 0
3036 1 29.189342960881394 22.03309908769677 11.627196324811768 0 0 0
3034 1 30.809176290596284 23.02242939953776 9.29970589861512 0 0 0
3322 1 33.64136465927766 22.746322089519087 9.312917127223802 0 0 0
3324 1 32.09174202706068 22.012686799527504 11.71073170305548 0 0 0
3610 1 36.470705077312594 22.878465975883035 9.341233942396748 0 0 0
3612 1 35.171101414625774 22.0645409404682 11.762683849739286 0 0 0
3898 1 39.498787089342166 22.916547162713584 9.39084529026483 0 0 0
3900 1 38.02654203992476 22.190821426400998 11.75955430484054 0 0 0
192 1 40.952732772330016 27.118786385965304 11.62300720168628 -1 0 0
2747 1 28.02900331655946 24.565611962283853 11.796057281394512 0 0 0
3069 1 29.371946797745622 25.356628830479156 9.31188783996301 0 0 0
3035 2 30.787923061042953 24.60990565880454 11.654517106959307 0 0 0
3323 1 33.55415974160941 24.57245253790615 11.722324974120879 0 0 0
3357 1 32.101448596711236 25.48539696257454 9.297823288842185 0 0 0
3611 1 36.44276354964656 24.6584301784234 11.82158316860018 0 0 0
3645 1 35.0882961404077 25.340582206971423 9.280033452450926 0 0 0
3899 1 39.38339136429652 24.739911377580125 11.62724532454579 0 0 0
3933 1 38.049489450025504 25.446072722687045 9.256611592166877 0 0 0
3072 1 29.246345967528395 27.09741048212045 11.745701877296312 0 0 0
2782 1 27.815648514725247 27.910805630512098 9.430278159585907 0 0 0
3070 1 30.640331378135414 28.0251606257223 9.273221745913247 0 0 0
2783 1 27.894625528952226 29.739217243422075 11.800870067299867 0 0 0
3071 1 30.79810677542194 29.86275360856076 11.815647099076907 0 0 0
3360 1 32.05870467494099 27.237494567472595 11.683511934409152 0 0 0
3358 1 33.62032944971823 28.007033953553254 9.228300009561545 0 0 0
3359 2 33.62254370803205 29.763710379189117 11.592748941115202 0 0 0
3393 1 32.124682310797645 30.546421354937557 9.40544959822767 0 0 0
3648 1 35.07514797442339 27.14314665941363 11.553587003818855 0 0 0
3646 1 36.607229501146335 27.946957735089008 9.34719320611572 0 0 0
3647 1 36.49006488639431 29.64591701953481 11.696353543786264 0 0 0
3681 1 35.18600857356287 30.529156259842274 9.417507467634124 0 0 0
3936 1 38.001858977931235 27.266438000602932 11.67571040680721 0 0 0
3934 1 39.58201853880501 27.935216654404478 9.448006272714158 0 0 0
3935 2 39.33726285772361 29.56284647558672 11.776240276190679 0 0 0
3901 1 38.06013056514535 20.335663267271944 14.139866909963471 0 0 0
3105 1 29.36663312153297 30.569670580833815 9.461789895996578 0 0 0
2818 1 27.852223394226783 32.991717840971646 9.468718232476132 0 0 0
3108 2 29.38511676923439 32.34549889638003 11.626876178288498 0 0 0
3106 1 30.7367577289 33.16250503689127 9.409416960261602 0 0 0
3394 1 33.6696643764021 33.168109096070054 9.39764896986324 0 0 0
3396 1 32.28317671417457 32.35969186623272 11.647824839202615 0 0 0
3684 1 35.11596080481095 32.25615494331013 11.7352073022024 0 0 0
3682 1 36.61677502045009 33.1593572163884 9.4828793415091 0 0 0
3969 1 37.965606982032504 30.43660222629784 9.357921451504147 0 0 0
3970 1 39.46339093846731 33.011313186732494 9.311608992660686 0 0 0
3972 1 38.09077871176615 32.152843623686536 11.75540367397242 0 0 0
3435 1 33.627663806670824 39.88344958773068 16.35707874523403 0 0 0
2819 2 27.95311869996162 34.607767756544746 11.623611664945914 0 0 0
3107 1 30.77470436427628 34.920371837743595 11.569570504399584 0 0 0
3141 1 29.188496613455353 35.48153068553968 9.312652102893216 0 0 0
3144 1 29.31635422652972 37.403766449133244 11.665997579722609 0 0 0
3395 1 33.66053795197634 34.94410028688127 11.730199964544216 0 0 0
3429 1 32.22497358731978 35.7192841767729 9.32526175465274 0 0 0
3683 1 36.55338245761095 34.79255397210685 11.700373645861719 0 0 0
3717 1 35.20201060536464 35.59716111872244 9.489351907598538 0 0 0
3971 1 39.42497253304332 34.77229445039423 11.701921067413776 0 0 0
4005 1 38.17265268300289 35.69974985798494 9.387027939700534 0 0 0
4010 1 39.633978386085374 38.20183720068086 13.981799660585516 0 0 0
2854 1 27.91392058707053 38.24949779890061 9.215116190137499 0 0 0
2855 1 27.854974378190203 39.91560858018131 11.687336934608636 0 0 0
3143 1 30.880724935303537 39.92789991059094 11.769949990965683 0 0 0
3142 1 30.728323594496292 38.215487085404675 9.43415578337145 0 0 0
3432 2 32.078232491465194 37.37290945684681 11.68459903588232 0 0 0
3430 1 33.66233220862041 38.17550235183502 9.277731259134848 0 0 0
3431 1 33.71147021955361 39.831758234549525 11.756089367175688 0 0 0
3720 1 35.060628465141974 37.361387154134114 11.769310094048508 0 0 0
3718 1 36.65419287004956 38.00883382311864 9.454532775988396 0 0 0
3719 2 36.67483982516968 39.802413015297596 11.724965136391791 0 0 0
189 1 40.965486996662364 25.35252088719868 9.236966944753993 -1 0 0
3613 1 35.160163492896935 20.377610553620464 14.10935392160364 0 0 0
4008 1 38.14048866985898 37.29552651551852 11.654356439165783 0 0 0
4006 1 39.688463647220495 38.006734369322366 9.221961124346162 0 0 0
4007 1 39.65497676650878 39.811847216916256 11.6469330157027 0 0 0
229 1 40.9145120160781 30.46981859188522 13.975377281045892 -1 0 0
2750 1 27.841919268981645 22.90725834106241 14.035749515325948 0 0 0
3040 1 29.273788737167177 22.088617164074353 16.39834276648073 0 0 0
3038 1 30.710222312422133 22.939213984804933 13.999057108826495 0 0 0
3326 1 33.65284374493183 22.899896822191828 14.223916546213287 0 0 0
3328 1 32.355520671287096 22.002798513487736 16.5273023013364 0 0 0
3614 1 36.44632908587598 23.03719456914702 14.269486678675655 0 0 0
3616 1 35.128036694913256 21.992108042078794 16.581559466849985 0 0 0
4011 1 39.69645487843656 39.90987495792688 16.43674191520906 0 0 0
3902 1 39.458067192032615 23.14681537052021 14.02676166512051 0 0 0
3904 1 38.107547006238214 22.055557484299655 16.47625404153878 0 0 0
3724 1 35.162745006329665 37.222555652535405 16.413724517512087 0 0 0
2751 1 27.82900344880487 24.513694449784776 16.440593399176574 0 0 0
3073 1 29.329127709915735 25.526974250131413 14.22140195163919 0 0 0
3039 1 30.804069984702302 24.48747225153683 16.46776387070982 0 0 0
3327 2 33.70905043438286 24.467998693629557 16.4327804389001 0 0 0
3361 1 32.17274175093078 25.301065323567236 14.082177280979641 0 0 0
3615 1 36.719542868712466 24.526697528452974 16.458529594410845 0 0 0
3649 1 35.045413215652346 25.46454480162907 14.089993089525636 0 0 0
3903 1 39.595117523693496 24.547607971607736 16.510414920355974 0 0 0
3937 1 38.02598366488899 25.556870716886262 14.06515842142962 0 0 0
3940 1 38.067501499660594 27.0610151291167 16.31259745082945 0 0 0
3434 1 33.5374660852925 38.090333606496635 14.033502499763024 0 0 0
3076 2 29.366144348307486 27.19877742126406 16.501596618315443 0 0 0
2786 1 27.786760665378022 27.91142854262766 14.160647424540898 0 0 0
2787 1 27.807301089374178 29.752885547676637 16.415589409367865 0 0 0
3075 1 30.85540031623161 29.614384341112515 16.424542009658136 0 0 0
3074 1 30.674421020202644 28.027573745044087 14.229651213050051 0 0 0
3364 1 32.24960074205772 27.01674857008225 16.373845130019824 0 0 0
3362 1 33.69783322186925 28.13283809787479 13.913693434753517 0 0 0
3363 2 33.697088531631024 29.635398109508834 16.37161787404934 0 0 0
3652 1 35.090065336637636 27.14570068032797 16.330396917065624 0 0 0
3650 2 36.42399147268587 27.95710805942244 14.011440216221589 0 0 0
3651 1 36.54248287726017 29.668496374354607 16.359760134152204 0 0 0
3685 1 35.1648101135186 30.514840346575088 14.072215367647003 0 0 0
3938 1 39.54022961006326 27.981729891533316 13.996496512394994 0 0 0
3939 2 39.54516312752023 29.627592461723857 16.343385248631055 0 0 0
3973 1 37.96916979142894 30.396441036882248 14.052531535146308 0 0 0
3109 1 29.205708000688936 30.479220655136874 14.09409271327944 0 0 0
2822 1 27.872246203415152 32.99808276981278 14.055153555087028 0 0 0
3112 1 29.416337908194997 32.12257841626554 16.38829356889619 0 0 0
3110 1 30.744312021359434 33.184207350462835 14.069802357568895 0 0 0
3397 1 32.17237610131587 30.575527845481496 14.115434686942917 0 0 0
3398 1 33.71390339087904 33.12365564965985 14.006765567796894 0 0 0
3400 1 32.34046261455269 32.14900606089428 16.432846881224876 0 0 0
3686 1 36.6549107275701 33.096791647879016 13.920942035878078 0 0 0
3688 1 35.01239103015568 32.17732621081995 16.428030230033002 0 0 0
3974 1 39.563128664400054 33.17390478918885 14.062802799930413 0 0 0
3976 1 38.0183700529972 32.3078174744683 16.50181798518182 0 0 0
264 1 40.99258982569652 37.30842901276989 11.537100136082353 -1 0 0
225 1 40.94876493551105 30.35637013682669 9.208014496005067 -1 0 0
2823 1 27.85447197807098 34.65905018580607 16.43075899097823 0 0 0
3111 1 30.802697500611377 34.77326112807621 16.353531743469617 0 0 0
3145 1 29.285190226301395 35.727950740041976 13.779842054744607 0 0 0
3399 1 33.83114801516097 34.79753684859358 16.43878672528618 0 0 0
3433 1 32.269657926229286 35.75599385589762 14.000373892413155 0 0 0
3687 1 36.68557342129764 34.90699755440855 16.291055703483146 0 0 0
3721 2 34.98023449140345 35.68134068928756 14.003098315730718 0 0 0
3722 1 36.60083772046958 38.024385726428875 14.07370690326795 0 0 0
3975 1 39.56025387642851 34.81674993709291 16.409360670150352 0 0 0
4012 1 38.086680828540906 37.33806108707805 16.407612875764436 0 0 0
4009 1 38.07664701404222 35.640262153646454 14.114367424663094 0 0 0
3723 1 36.724299846627886 39.82299963736205 16.492893940085676 0 0 0
3148 1 29.310277450287575 37.263746306511706 16.391724615981552 0 0 0
2858 1 27.909572603847614 38.15948426981147 14.054711265407354 0 0 0
2859 1 27.78492680791558 39.84585207658522 16.46872835173556 0 0 0
3147 1 30.80810771654312 39.97460134397312 16.313310211652013 0 0 0
3146 1 30.718021465009485 38.22416734451597 14.030138033828282 0 0 0
3436 1 32.26448167503549 37.37861474180743 16.43639047395863 0 0 0
3037 1 29.296547160041648 20.4022187945917 14.112122306466079 0 0 0
160 1 41.00505854075083 21.952809208813107 16.36382774495196 -1 0 0
156 1 40.82510465567513 21.97838957619883 11.784056942939246 -1 0 0
228 1 40.93002940257678 32.13083364108709 11.687915705291282 -1 0 0
232 1 40.840710477962006 32.212209521568234 16.35611747675928 -1 0 0
3897 1 38.080244189156744 20.31427802574157 9.479510849932906 0 0 0
3033 1 29.293800653158822 20.34051469449959 9.508015563057873 0 0 0
3465 1 35.29283099146395 40.491150916273256 9.477167309640347 0 -1 0
2889 1 29.344052149068503 40.593408992242814 9.418427864407521 0 -1 0
3757 1 38.29523811211736 40.607768684491596 13.951262082741703 0 -1 0
3469 1 35.35232879114479 40.56194792932454 14.170874719396632 0 -1 0
3753 1 38.10912879003283 40.53508935844266 9.471189307145568 0 -1 0
2754 1 27.84908474839444 23.003898594970384 18.73042305225473 0 0 0
3042 1 30.78623635292826 22.96559577107256 18.574984566079376 0 0 0
3330 1 33.742024740380685 22.895095762656315 18.82364039825909 0 0 0
200 1 40.89261787063787 27.185713476117645 20.99721734427466 -1 0 0
3618 1 36.68885410060668 22.965474132820273 18.904507530776037 0 0 0
3730 1 36.59772514653338 38.038571123584425 23.62100144822244 0 0 0
3906 2 39.52302900278765 22.826672905182406 18.79072477214229 0 0 0
3908 1 38.15500313968801 22.072287529222475 21.084854431769095 0 0 0
4015 1 39.517408901394944 39.78143208849681 21.286277908322344 0 0 0
3728 2 35.15210001039146 37.13454024942781 21.103022341655834 0 0 0
3077 1 29.337681560255096 25.386943241231464 18.712452869980545 0 0 0
2755 1 27.864837198918146 24.527501555111847 20.985010059155172 0 0 0
3365 1 32.171475866824295 25.413088919591303 18.73679837290112 0 0 0
3043 1 30.72137875914344 24.597042249351716 21.16134717059094 0 0 0
3653 1 35.114950509078845 25.564136335130442 18.56887955541792 0 0 0
3941 1 38.04223193942856 25.401268733373 18.774957800169954 0 0 0
273 1 40.99092427130958 35.48322885665168 23.457482732955715 -1 0 0
2790 1 27.762944093724496 27.81986805641946 18.800802271102032 0 0 0
3078 1 30.61184490498484 27.829405659651066 18.78425733583072 0 0 0
2791 1 27.727725376505777 29.53718200325678 21.095838443946253 0 0 0
3366 1 33.58626039219627 28.018980304656935 18.64275264763071 0 0 0
3368 1 32.193863046108774 27.1662044557976 21.097495577206875 0 0 0
3079 1 30.58562313186216 29.633627572522187 21.012670389775366 0 0 0
3367 2 33.519431777748366 29.568644619781097 21.05088012127116 0 0 0
3654 2 36.58534170998547 27.995388082897303 18.659820949380716 0 0 0
3656 1 35.18272035710129 27.255560571613834 21.04975151838725 0 0 0
3655 1 36.69934542381188 29.637629214829158 21.008486741490785 0 0 0
3942 1 39.49767566030244 27.993996025006506 18.642258796327557 0 0 0
272 1 40.932190340976774 37.26415440312608 21.197463501962474 -1 0 0
3113 1 29.141711627938033 30.432918028273928 18.71684217263048 0 0 0
2826 1 27.901523881698363 32.85304536254053 18.698671050269486 0 0 0
3401 1 32.29177781289814 30.516845466690352 18.7069575337184 0 0 0
3114 1 30.78950970927983 33.034765498456345 18.77827913255222 0 0 0
3402 2 33.610990976006065 33.12642165479139 18.787663950384896 0 0 0
3689 1 35.13343021425576 30.474813510200736 18.717671150267986 0 0 0
3690 1 36.505028820027285 33.040538875611176 18.66013032535638 0 0 0
3692 1 35.21352851651373 32.102170686003895 21.105320732909735 0 0 0
3977 1 38.0697795909473 30.526428672207842 18.617820265098974 0 0 0
3978 1 39.45419991232183 33.13681881906088 18.848606534683107 0 0 0
233 1 40.925026304155615 30.385138785446678 18.72492803459577 -1 0 0
2827 1 27.8456694438889 34.5669025447279 21.023350560936674 0 0 0
3149 2 29.253019971433545 35.592136607019974 18.723089644780554 0 0 0
3115 1 30.667020129013334 34.61768878671259 21.044553945589644 0 0 0
3437 1 32.18530347131271 35.50572471909428 18.733531389554923 0 0 0
3440 1 32.207869937411935 37.19890353205114 21.004152974817377 0 0 0
3725 1 35.07897142153019 35.701239951456046 18.769031168385496 0 0 0
3691 1 36.6609658465422 34.666463377332526 21.042880409286113 0 0 0
4013 1 38.11314365552924 35.569461348417626 18.709181588785146 0 0 0
3477 2 35.107079361993655 40.5411550554627 23.519992118989876 0 -1 0
2862 1 27.936191719416126 38.19341221221663 18.64845364831533 0 0 0
4018 2 39.48403275942599 38.09415143619932 23.4687965675742 0 0 0
4016 1 37.97957711415421 37.24635749491523 21.107637397449547 0 0 0
3150 1 30.81913923627572 38.00221167727691 18.74530967137897 0 0 0
3439 1 33.80877656423969 39.812843708416615 21.126870372767694 0 0 0
3438 1 33.72098291918713 38.15835518778561 18.750229378194696 0 0 0
3151 1 30.664615678707445 39.75726171939499 21.020347670206196 0 0 0
3726 1 36.62151395546112 38.08200128475587 18.795494960977695 0 0 0
4014 1 39.573964505849865 38.09817760618695 18.813633961227104 0 0 0
3044 1 29.417051384493487 22.06934818338364 21.01415342090199 0 0 0
2758 1 27.887247070569174 22.85224719265542 23.492928020990572 0 0 0
3046 1 30.794629051197948 22.84341211721446 23.51490183542009 0 0 0
3332 1 32.09197711808792 22.031897565044485 21.04877410075602 0 0 0
3334 1 33.74596880102541 22.974976756981533 23.308836456574255 0 0 0
3620 2 35.159733336422875 22.034519720852252 21.100599110201397 0 0 0
3622 1 36.6463652432035 22.79933916017543 23.5203888191515 0 0 0
3727 1 36.457786137145085 39.64803699509408 21.23599156462143 0 0 0
3910 1 39.52725143217912 22.90177273624353 23.425331006355385 0 0 0
3621 1 35.32914630995644 20.340144089057457 23.406494123560435 0 0 0
3081 1 29.353359434082762 25.42883277065307 23.38445656820523 0 0 0
3331 1 33.74755589781644 24.641620225908124 21.147910605131724 0 0 0
3369 1 32.19994265767401 25.593522478929906 23.45626980081109 0 0 0
3619 1 36.57204979111699 24.666896905436765 21.204083022219603 0 0 0
3657 1 35.29376309118769 25.42532232474838 23.509790621673705 0 0 0
3907 1 39.70194977331193 24.56875371534132 21.099826855893056 0 0 0
3945 1 38.13919434881759 25.41336585053305 23.44861239832305 0 0 0
3944 1 38.07460123572916 27.066447222995112 21.042335967535482 0 0 0
2901 1 29.149577897073634 40.574724162159555 23.391955181555854 0 -1 0
3080 2 29.33903523203789 27.206476087687424 21.07057275823605 0 0 0
2794 1 27.833560157439624 27.819005882480695 23.527236692696185 0 0 0
3082 1 30.830273259686578 27.995408395658284 23.445066448571716 0 0 0
3117 1 29.34084615626377 30.572134300225198 23.478357795774045 0 0 0
3370 1 33.54925038311021 27.98436256228207 23.43389184136875 0 0 0
3405 1 32.21723959768145 30.61579758328726 23.48357358773579 0 0 0
3658 1 36.5305762340644 27.87657040805548 23.540500557593337 0 0 0
3693 1 35.1164918239031 30.606900682241793 23.412048761446847 0 0 0
3943 2 39.52513195675111 29.467808834585995 21.04880078164325 0 0 0
3154 1 30.725754460835656 38.04136458721955 23.46035041250812 0 0 0
3946 1 39.5635620607018 28.04022364054235 23.358945768065418 0 0 0
3116 1 29.31875039388123 32.093548196982184 21.154030162730574 0 0 0
2830 1 27.81087260232803 32.96965380336797 23.598715616238422 0 0 0
3118 1 30.635233860820204 33.14124569204583 23.41761397016034 0 0 0
3404 1 32.22362436148819 32.129152845894254 21.120385553650245 0 0 0
3406 1 33.7376991005953 33.16188340686096 23.54211869791227 0 0 0
3694 2 36.540288406592055 33.05645479850577 23.399120915531956 0 0 0
3980 1 37.97286357534703 32.08149076528323 21.177017364752416 0 0 0
3981 1 38.04363100390021 30.48439258641794 23.42303294762541 0 0 0
3982 1 39.45603388659149 32.8204785338816 23.61813289549724 0 0 0
3153 1 29.277296101668945 35.53939087663254 23.469269729330858 0 0 0
3403 1 33.75966093533048 34.684689021653185 21.1055637672543 0 0 0
3441 1 32.31844107003695 35.615592207401896 23.495929022426182 0 0 0
3729 1 35.208200355476976 35.532841126331206 23.510805874179788 0 0 0
3979 1 39.506903140294575 34.82435911545231 21.057083050971965 0 0 0
4017 1 38.25911450169269 35.470592950089774 23.48594874922333 0 0 0
3442 1 33.72181096919048 38.204467259634484 23.38201650358343 0 0 0
3152 1 29.214816421477156 37.09851694747707 21.06278728728851 0 0 0
2866 2 27.662769676076753 38.0833048587133 23.264306092190083 0 0 0
2863 1 27.842235663960498 39.69207115817968 20.889686447102502 0 0 0
3905 1 38.10641914583173 20.377377135251248 18.84103885503392 0 0 0
236 1 40.81847027209213 32.256931152136644 21.135198135258857 -1 0 0
164 1 40.96234735143801 22.029499853001642 21.034892032542974 -1 0 0
3761 1 38.16325524293744 40.5896150755204 18.85573800027931 0 -1 0
165 2 40.93749905337403 20.353712353442077 23.350554629344625 -1 0 0
3909 1 38.13086956080491 20.320139636990124 23.44459476702055 0 0 0
2762 1 27.852783681303702 22.80921510473494 27.982425980724255 0 0 0
3048 1 29.273921680310234 21.97848177443872 25.819399056100266 0 0 0
3050 1 30.880901953545248 22.6979299840452 28.10534934542889 0 0 0
3735 1 36.49201080482713 39.84149632413378 30.50231122003259 0 0 0
3336 1 32.34621978609609 21.973980088944334 25.645360793905468 0 0 0
3338 1 33.702792503793646 22.908684123753105 28.045557313767098 0 0 0
3624 1 35.05218750372621 21.986337174922948 25.723851677819006 0 0 0
3626 1 36.62383154354166 22.67305333173843 27.97872405387315 0 0 0
3912 2 38.226782065964194 21.947833172194116 25.67073280563931 0 0 0
3914 1 39.446236103015906 22.81014990200881 27.98214336539563 0 0 0
281 1 40.80170064599539 35.51207181478823 32.86738393853122 -1 0 0
2759 2 27.853505451183707 24.444031649735727 25.746579188364624 0 0 0
3085 1 29.268411612500945 25.360711510719003 28.10437942957125 0 0 0
3047 1 30.770263452485803 24.47290446399981 25.82729601313811 0 0 0
3084 1 29.32930037978608 27.019085296552266 25.85124411103682 0 0 0
3335 1 33.78301695155696 24.615333606077964 25.83531843492404 0 0 0
3373 1 32.15054631841664 25.39111649355456 28.1490624954291 0 0 0
3623 1 36.74575802692522 24.49341628073438 25.752724148715508 0 0 0
3661 1 35.280901198492515 25.484165512277183 28.14311939372919 0 0 0
4023 1 39.41500806661634 39.84248584067955 30.294452916248204 0 0 0
3911 1 39.45787192441399 24.576987643601758 25.72550153018272 0 0 0
3949 1 38.06652757028862 25.552455562328287 28.195460691130418 0 0 0
2798 1 27.77669975807346 27.84827583481967 28.307600801686572 0 0 0
2795 1 27.809718877361547 29.476258292508668 25.824973341401247 0 0 0
3121 1 29.356825595397964 30.495945696148862 28.241503077266508 0 0 0
3086 1 30.856118707308323 27.97154259284908 28.30691198020553 0 0 0
3372 2 32.25964811590338 27.10292269027022 25.89184802177695 0 0 0
3374 1 33.7957618075051 27.82134290690989 28.091351911175696 0 0 0
3083 1 30.714585019509048 29.56194206782813 25.8493168778182 0 0 0
3371 1 33.59402939741781 29.649481497843613 25.815650526733037 0 0 0
3409 1 32.147027097081114 30.406703048930744 28.249214573495546 0 0 0
3660 1 35.16962795862076 27.121115827105523 25.81911530656519 0 0 0
3662 2 36.60451200342666 27.994241797554025 28.20244349580501 0 0 0
3659 1 36.572801890187215 29.589112204600923 25.894789091286402 0 0 0
3697 1 35.253253434708455 30.42287149039242 28.198037329021922 0 0 0
3948 1 38.02079669836828 27.243238887905814 25.899395530149267 0 0 0
3950 1 39.56972926258836 27.93605596028734 28.147857133460253 0 0 0
3947 1 39.57536268514071 29.814726108527054 25.828244922510716 0 0 0
3985 1 37.97325228014574 30.52908559753883 28.294718550943287 0 0 0
2834 2 27.911778313988176 32.95938232084617 28.22998419069079 0 0 0
3120 1 29.398955201684632 32.15211395227617 25.92489102922493 0 0 0
3122 1 30.74473797028455 33.17336732452299 28.310326591784307 0 0 0
3408 1 32.332606065703715 32.22216157927858 25.78069198663925 0 0 0
3410 1 33.71558524858513 32.997511671669535 28.097876425374032 0 0 0
3696 1 35.11551307594546 32.21853908171041 25.830735114072713 0 0 0
3698 2 36.43930765335978 33.079603291509514 28.282382937233017 0 0 0
3984 1 37.95447575972926 32.09878703003732 25.817455929638793 0 0 0
3986 1 39.398072460475376 32.93622562943892 28.22438458636952 0 0 0
29 1 40.906696205030265 40.57425872267184 32.92093925919722 -1 -1 0
2831 1 27.818303862162406 34.59536644683592 25.79601396566951 0 0 0
3157 1 29.348534760082135 35.517593291100304 27.948781825332492 0 0 0
3156 1 29.27905024656251 37.344313468237836 25.70626990773375 0 0 0
3407 2 33.71964892768483 34.81626121305142 25.851795206368056 0 0 0
3119 1 30.831836703518597 34.65459315933139 25.760022571168196 0 0 0
3445 2 32.32165952117478 35.63104808680973 28.168405496390445 0 0 0
3444 1 32.21039719290898 37.23049166844896 25.77921070850955 0 0 0
3695 1 36.51526623182236 34.4985584264453 25.799684956060595 0 0 0
3733 1 35.063582282982175 35.631925891117014 28.158447671271993 0 0 0
3983 2 39.52030759903581 34.66910219165457 25.818289647339064 0 0 0
276 1 40.88388073120497 37.26769824227343 25.79045984855534 -1 0 0
4021 1 38.00076420795891 35.57094483615711 28.160949726114303 0 0 0
4020 1 38.09276294347813 37.1893205007705 25.79854875132557 0 0 0
2867 1 27.926997590191473 39.73620895139125 25.601737633947202 0 0 0
2870 1 27.929362489154826 38.102687812028115 28.02830711561405 0 0 0
3158 1 30.787222538508804 37.9286623014691 28.247416140432005 0 0 0
3447 1 33.65284193072864 40.05714364591889 30.505551720411802 0 0 0
3155 1 30.808084298382024 39.89998521961865 25.893564571491662 0 0 0
3443 1 33.61220871959441 39.89966659577706 25.75467570950304 0 0 0
3446 1 33.72109670721805 38.19410826481852 28.1632619674215 0 0 0
3917 1 37.996701209809025 20.345156940343482 32.79109091233773 0 0 0
3732 1 35.137841735094064 37.337515662638474 25.800346658178444 0 0 0
3731 1 36.68179798257957 39.82518897999065 25.85614666301275 0 0 0
3734 2 36.606857873495855 38.12471907501336 28.191638065331354 0 0 0
3450 1 33.900125816505856 38.18000929743325 32.87693913947081 0 0 0
4019 1 39.619292828908016 39.87420503517569 25.646212034673514 0 0 0
4022 1 39.531444169912426 38.18209349078133 28.107901114127944 0 0 0
3162 1 30.90739199387187 38.13056572760747 32.86689695549843 0 0 0
2766 1 27.992721286235657 22.92448711370018 32.76352951108734 0 0 0
3052 1 29.46387425794147 22.010672473958106 30.47158699764022 0 0 0
3054 1 30.82059357056522 22.869506892832536 32.800929912379885 0 0 0
3159 1 30.801445965432414 39.806450366104684 30.46733009165213 0 0 0
3340 1 32.41016244976434 21.973604489158593 30.37549899304511 0 0 0
3342 1 33.8714756590295 22.951265925372628 32.76300870973769 0 0 0
240 1 40.925907809734134 32.24746706341661 25.915996957901896 -1 0 0
2871 1 27.908496715823595 39.793947828759805 30.543091093075535 0 0 0
3628 1 35.209420023174545 21.920872445701825 30.455233068556915 0 0 0
3630 2 36.53654149816793 22.94907141612278 32.816414153274614 0 0 0
3916 1 38.04234516799948 22.032021919336966 30.394993015323802 0 0 0
3918 1 39.381255809013 22.918027745250576 32.70706732972636 0 0 0
3053 1 29.337264783773918 20.38870258050822 32.80508444840795 0 0 0
2763 1 27.960465512688256 24.472335894484555 30.477230346941354 0 0 0
3089 2 29.40218317077622 25.378573771209886 32.81346104043015 0 0 0
3051 1 30.967297406796128 24.6508831197218 30.49916852260697 0 0 0
3339 1 33.81500647425561 24.57868586590025 30.405451789547627 0 0 0
3377 1 32.23038188866595 25.579930566431543 32.797804127107 0 0 0
3627 1 36.70706674387 24.59979532227205 30.560071763383796 0 0 0
3665 1 35.23822956256489 25.442366005429044 32.861510950710056 0 0 0
3915 1 39.56490351216155 24.546750910138382 30.41099716894874 0 0 0
3953 1 38.01570570224819 25.369997471419506 32.9465869997668 0 0 0
3952 1 38.14410789127714 27.150327102546587 30.56235545664569 0 0 0
3088 1 29.213368354524647 27.059640927542272 30.725716478237196 0 0 0
2802 1 27.693841339296107 27.876422437483495 32.868197730439114 0 0 0
3090 1 30.738111053312483 27.960588774410972 32.93291687808391 0 0 0
2799 1 27.9104506930533 29.53235698119205 30.515147968445728 0 0 0
3087 2 30.66508415221375 29.72074525368856 30.65916471023011 0 0 0
3376 1 32.32198697592519 27.20996316015095 30.54161922251205 0 0 0
3378 1 33.82344759260288 28.05263782440769 32.95039715465387 0 0 0
3375 1 33.75243635847823 29.734402584583588 30.738470345620193 0 0 0
3664 1 35.239327514901 27.125910304859048 30.475983682569527 0 0 0
3666 1 36.59920049342485 27.985533775840974 32.92872724236706 0 0 0
3663 1 36.6423491907355 29.592377163986026 30.642517656921516 0 0 0
3701 2 35.047760809166654 30.51044684845821 32.902918811246224 0 0 0
3954 1 39.6755192665956 28.00605466151519 32.93537940786147 0 0 0
3951 1 39.554479988251295 29.706691155431784 30.606042357691358 0 0 0
3125 1 29.2743730242164 30.482188273180142 33.02673263966527 0 0 0
2838 1 27.84828941644898 33.10489076952252 32.69890858855305 0 0 0
3124 1 29.4479955034956 32.22326969868613 30.58780451518699 0 0 0
3126 2 30.774674761362018 33.01723061716914 32.90855293916856 0 0 0
3413 1 32.24037560450864 30.52171156889896 32.825660604054605 0 0 0
3412 1 32.20716574233796 32.10571816580402 30.579765824592425 0 0 0
3414 1 33.729943380239746 33.12423803111368 32.90746503024646 0 0 0
3700 1 35.121598894787994 32.09704811381496 30.557102933794724 0 0 0
3702 1 36.64674127997395 33.108439240126046 32.886712761894074 0 0 0
3989 1 38.118007252669614 30.51544644116911 32.91205945428403 0 0 0
3988 1 37.90530634156446 32.21872573925005 30.525080811705973 0 0 0
3990 1 39.46238332330099 33.034446884895516 32.74264814577173 0 0 0
2835 1 27.9035262738969 34.675450323844174 30.453305603971764 0 0 0
3161 1 29.30832694240589 35.57172580573144 32.84804513578755 0 0 0
3160 1 29.3834312364797 37.310451756273046 30.474214781181004 0 0 0
3411 1 33.71714709453109 34.844451579381676 30.494587512805673 0 0 0
3123 1 30.79800345381152 34.67875544854424 30.46459182006878 0 0 0
3449 1 32.22632512580363 35.59641843607074 32.92091687824568 0 0 0
3448 1 32.31602417379318 37.2720450686038 30.54259673501277 0 0 0
3699 1 36.619103916973664 34.65807010561656 30.583351845728235 0 0 0
3737 1 35.10947185809786 35.65621993940616 32.84239744775995 0 0 0
3736 1 35.144909804980315 37.38837759931173 30.493553897407985 0 0 0
4026 2 39.66194742123445 38.0799943297973 32.749296235129414 0 0 0
3987 2 39.51651477640458 34.76149005695787 30.47662231921617 0 0 0
4024 1 38.02246889450512 37.242086148297965 30.51115118659905 0 0 0
4025 1 38.0990568714153 35.56245482939741 32.654051176244714 0 0 0
3738 1 36.82549677835952 38.11575825367282 32.8625025258339 0 0 0
2874 1 27.776634122605504 38.13078843545152 32.7040281515623 0 0 0
277 1 40.86218611372644 35.6080522116418 28.097124734456298 -1 0 0
241 2 40.97087319910964 30.492872926904564 28.185075772192068 -1 0 0
3629 1 35.12527926578995 20.380444026013322 32.92091518057854 0 0 0
204 1 40.983306236352696 27.091980232186867 25.92904180903913 -1 0 0
280 1 40.896862690618235 37.189057070507246 30.475143639906037 -1 0 0
209 1 40.995337660926005 25.39113450816498 32.985577962617775 -1 0 0
244 1 40.92696981608433 32.15616378887381 30.491582667595615 -1 0 0
173 1 40.993487213554225 20.37004116158277 32.745311589820666 -1 0 0
205 2 40.94771647555291 25.268376356751258 28.16307606158992 -1 0 0
3773 1 38.13659582350487 40.5164281765647 32.72681065801843 0 -1 0
3481 1 35.1396534038243 40.52191022543601 28.11759871017829 0 -1 0
3485 2 35.170306226234516 40.62291624912889 32.78384657991525 0 -1 0
2770 1 27.551379306953237 22.901730291918273 37.60801709323511 0 0 0
3056 2 29.304319491495583 22.005454708979972 35.21650476081954 0 0 0
3058 1 30.717291245046553 22.93954573781488 37.46024811481915 0 0 0
284 1 40.96073906686534 37.23130663704999 35.16867292841955 -1 0 0
3344 1 32.30645259878108 22.144873285569865 35.07359942598999 0 0 0
3346 1 33.73564442777583 22.90626402441816 37.4495430685422 0 0 0
3632 1 35.22206825412844 21.98725963431818 35.14714647981115 0 0 0
3634 1 36.800363706465596 22.724641526615535 37.474201297862905 0 0 0
176 1 40.866902997041215 22.04634501652372 34.87548877884991 -1 0 0
3920 1 38.01488907105083 21.804750005447552 35.12914075560841 0 0 0
3922 1 39.47980049116625 22.727634765046208 37.598242730885495 0 0 0
288 2 40.96811694230493 37.100031550887955 39.811843266862155 -1 0 0
2767 1 27.83018368436057 24.494573933384494 35.15414154382695 0 0 0
3093 1 29.402110846833118 25.422813612387934 37.49506448476044 0 0 0
3055 1 30.681453603637745 24.6856993867228 35.180538652033285 0 0 0
3092 1 29.180295761914984 27.11869339860559 35.09972978983008 0 0 0
3343 1 33.67127619931514 24.723338446056662 35.145926319274466 0 0 0
3381 1 32.31004619156314 25.371834841592293 37.52155695241929 0 0 0
3380 2 32.14434756987269 27.154423033007717 35.24951274071642 0 0 0
3631 1 36.64016642082192 24.520868274730784 35.119464466430976 0 0 0
3669 1 35.27696010943282 25.360095508768772 37.448228955506664 0 0 0
3919 1 39.59432392394369 24.64113617800636 35.1952406248261 0 0 0
3957 1 38.22086206653532 25.34221312108902 37.61901388246675 0 0 0
3201 1 32.196453714628866 40.59772759128167 37.54873118724903 0 -1 0
2806 1 27.775265434115777 27.968916070795938 37.45456337388236 0 0 0
3094 1 30.83762967428477 28.01708883283109 37.64002733617452 0 0 0
2803 1 27.78849368658647 29.700932925988536 35.18732000843574 0 0 0
3091 1 30.711614999657808 29.689767982062914 35.15638447936621 0 0 0
3382 1 33.68892334135964 28.03363997929865 37.607509916838744 0 0 0
3379 1 33.72283657268128 29.79816672464281 35.19510491172016 0 0 0
3417 2 32.13861704688367 30.547291261137083 37.362015802424374 0 0 0
3668 1 34.99600040676121 27.01339043621794 35.22311717573388 0 0 0
3670 2 36.600012407017076 27.82022770701391 37.50966304766036 0 0 0
3667 1 36.703277331217734 29.736597192799884 35.237203939219796 0 0 0
3705 1 35.22623447787302 30.46262892275723 37.48199686441142 0 0 0
3956 1 38.188810487521366 27.17127534078031 35.24277884441978 0 0 0
3958 1 39.56125337272212 27.965585114330235 37.641256654730526 0 0 0
3955 1 39.54519583006798 29.758683140050387 35.30570496381254 0 0 0
3993 1 38.04871458131219 30.42981278149651 37.618707678382776 0 0 0
3422 1 33.779831978535384 38.12389610549038 42.10161509315704 0 0 -1
3129 1 29.271101759620272 30.60018708479219 37.41608024688155 0 0 0
2842 1 27.7795060134984 33.16782196212281 37.53609764722555 0 0 0
3128 1 29.330633124753 32.33659070280873 35.04170154415345 0 0 0
3130 1 30.806739510778318 33.109185012882286 37.493163819689634 0 0 0
3416 1 32.24449811649019 32.19171403218641 35.08901194058771 0 0 0
3418 1 33.69180680619057 32.973346907904705 37.424239792135495 0 0 0
3704 1 35.31790193554756 32.18416622725967 35.11284934366868 0 0 0
3706 1 36.59954813986471 33.03107423221735 37.564998635308804 0 0 0
3992 1 38.07927012319858 32.08850167254387 35.301162705618815 0 0 0
3994 2 39.60760364241574 32.77260920754726 37.52496440198206 0 0 0
2839 1 27.763041495488647 34.862555719631466 35.25792023495391 0 0 0
3127 1 30.897588209966997 34.67890229856978 35.23751527420373 0 0 0
3165 1 29.238577531159798 35.652268479159005 37.55466587169268 0 0 0
3164 1 29.522267963026646 37.2005935487926 35.15388313864496 0 0 0
3415 1 33.8147860182624 34.746405410060426 35.20481379852862 0 0 0
3453 1 32.33398097129679 35.548635701237735 37.549344782951565 0 0 0
3452 2 32.30155842460973 37.31087292917826 35.25053993766032 0 0 0
3703 1 36.630053033687545 34.734109430537046 35.088949382371425 0 0 0
3741 1 35.23698570346735 35.531163178620496 37.468460090744145 0 0 0
3740 1 35.23325777198957 37.27761154841929 35.10171468501239 0 0 0
3991 1 39.5132173181873 34.5299945470456 35.33126404512794 0 0 0
4029 1 38.116462338024796 35.58201255437185 37.56233239037556 0 0 0
4028 1 38.1923908885616 37.13351819932977 35.15250833877879 0 0 0
3638 1 36.60512602840911 27.87122060046975 42.154322552450935 0 0 -1
2875 1 28.004223315165536 39.77287384278623 35.16558208618206 0 0 0
2878 1 27.85576858974238 38.1539536429936 37.59132168313227 0 0 0
3166 1 30.879940754678824 38.07042550886153 37.50550401773004 0 0 0
3163 1 30.843819416386868 39.74393880333917 35.32359514417374 0 0 0
3451 1 33.687264940884404 39.96433248374425 35.113594140678046 0 0 0
3454 1 33.8024286949431 38.042681647861656 37.380255968299515 0 0 0
3057 1 29.21104709789537 20.427657994860056 37.55570083719845 0 0 0
3739 1 36.50693840189193 39.8283856900171 35.07868902628679 0 0 0
3742 1 36.774524970027976 38.19091103850139 37.498297699346324 0 0 0
3777 1 38.026778989788525 40.60443751459759 37.38102890022753 0 -1 0
4027 1 39.59860040433113 39.74467363533662 35.22950917273841 0 0 0
4030 1 39.59553490913604 38.09607325467069 37.63258830806493 0 0 0
3060 2 29.273896641866937 22.000625130710624 39.80475926742865 0 0 0
216 1 40.96327097442816 27.06316692080361 39.882389048794046 -1 0 0
3348 1 32.22569128920856 21.898756228506475 39.794568070605216 0 0 0
2846 1 27.860927452216423 38.19870437095728 42.08719086364143 0 0 -1
3636 1 35.1018157888752 21.92346879066911 39.85975066703547 0 0 0
3674 1 36.53689984533797 32.90173643524767 42.18080746397804 0 0 -1
3167 1 30.892113092831394 39.777835958584575 39.85730649885883 0 0 0
3924 1 38.00994362204626 21.8831503360226 39.914432143931116 0 0 0
3168 1 29.531000478985366 37.261831631847144 40.00249000146678 0 0 0
2771 1 27.91746593348957 24.684239367317495 40.040716915470966 0 0 0
3059 1 30.745511449528934 24.436638892703762 39.83138946755343 0 0 0
3096 2 29.24477260346123 27.129152407989753 39.6910757678287 0 0 0
3347 1 33.90540282624144 24.589132243782625 39.80090094306816 0 0 0
3384 1 32.2660393747114 27.077752148107685 39.89610145238868 0 0 0
3635 1 36.71850596767664 24.463786874480405 39.86386042098259 0 0 0
3672 2 35.19113440271433 26.974134914040082 39.805337471503265 0 0 0
3923 2 39.488871657479635 24.50483454949379 39.85499086598177 0 0 0
3960 1 38.026039489696196 27.09785037828128 39.82700647903805 0 0 0
4031 1 39.5710168100107 39.803933623246536 39.804044373695504 0 0 0
2807 1 27.984761756265556 29.64107286596053 39.96532339753567 0 0 0
3026 1 30.70276262186029 22.64364313502565 42.1237388109263 0 0 -1
3095 1 30.713934405522313 29.759400027630093 39.83361169582822 0 0 0
3383 1 33.68095796161402 29.572410262864544 39.79127821430406 0 0 0
3671 1 36.43117786300345 29.529185082362044 39.785828365479354 0 0 0
3959 1 39.68308131323404 29.68329268298124 39.878571635388305 0 0 0
3455 1 33.90298429821751 39.82457273111456 39.67727875042853 0 0 0
3132 1 29.16987459708341 32.276784216550325 39.96458171386926 0 0 0
3743 1 36.741602545029096 39.816328520307614 39.88833107078699 0 0 0
3420 1 32.28825015878148 32.19432183310678 39.78869186689128 0 0 0
3708 1 35.20748999613316 32.1376604533008 39.744445028246226 0 0 0
2879 2 28.109894555759766 39.884774110654725 39.79617766432862 0 0 0
3996 1 38.09923398903465 32.08644561714743 39.83298522511819 0 0 0
2843 1 27.76869470989189 34.81155577711078 39.67398496722083 0 0 0
3456 1 32.42152444090069 37.180604579236125 39.773541038305204 0 0 0
3131 1 30.639674411524442 34.69934541222563 39.83374161480046 0 0 0
3419 1 33.69856247415441 34.63451949593267 39.869739299928 0 0 0
3707 2 36.761743824680835 34.61745115001224 39.7578272735106 0 0 0
4032 1 38.17446470169193 37.23803869797304 39.84927843631724 0 0 0
3995 1 39.667536941492344 34.55230415779507 39.74120293390322 0 0 0
3744 1 35.38085027599706 37.17006755020895 39.82877754926362 0 0 0
3673 1 35.01688954666394 30.610542440627253 42.11926878768516 0 0 -1
181 1 40.9030360303312 25.36939350843786 42.13795398302407 -1 0 -1
3169 1 32.26982048351898 40.580229880110785 42.10511627869194 0 -1 -1
3998 1 39.511257703160645 37.96304336096934 42.14004233805997 0 0 -1
3890 1 39.470403980569614 22.69136260792649 42.083409159828626 0 0 -1
253 1 40.96050899990646 35.521352516654815 42.089896240855424 -1 0 -1
217 1 40.96975704738805 30.403627270517916 42.11608234375418 -1 0 -1
3386 2 33.68145889172868 33.03094706951906 42.130303245387005 0 0 -1
3997 1 38.07992808449268 35.378847427107914 42.076423201278956 0 0 -1
2774 1 27.93163458903231 27.894669780036025 42.15391108827052 0 0 -1

Velocities

292 3.159895377883843 0.4743377056765009 0.5810132553193087
8 0.5865852907975888 -2.3699987743002873 -0.986934016146217
580 1.1413391448832568 -0.8128384733615788 -9.32029812190523
581 -1.782098999033879 -1.1318696596365163 0.8635389743199109
866 -2.037879367381051 4.485754878709572 0.8065335923306295
868 -0.6621131852797141 2.872339332441043 2.0529921382437433
77 -1.9523233896388572 0.08935058830059699 0.5757179984060138
1153 -0.7375565779250963 0.0036089941160414624 -5.0380768060118095
1156 -0.47097895765227926 1.389431917488991 -1.505250592544938
978 -1.4499735391189212 -4.764476928175318 -3.3768144585218853
3 -2.890613805574938 2.555011052392255 -2.04418732679854
1266 -0.4273738303085679 2.288109267122535 3.45670599699418
328 -0.9199753258355481 -6.4625422933388315 -4.894451740324888
291 -1.3279682288892767 2.407837285699575 0.619034954759249
76 -0.5231945489946613 1.550410985636454 -1.686016197986917
579 5.111514809782195 -0.833240800159293 -0.6830086137245742
904 2.3715743723235665 -1.3584564162322759 0.6715720902647061
869 2.473050585612064 -2.61826027136263 1.088775328185174
867 2.987420496019071 -7.97039390544922 1.5158355871953964
1155 -1.6777167127742756 -1.2006062943187836 3.390849693596351
1192 -1.5100279378971766 -3.529321102506096 0.6677988105480567
112 -1.8963848423626675 -2.568029856909473 -0.018102946361340255
1013 -5.458888804317343 -2.586754493973368 -5.59321041660054
39 -1.1847994580820276 0.08063304467829754 0.46909856502229047
116 -3.4118610855242606 0.048770026999549757 1.333672877455953
616 0.8646432936107505 0.4471303296520847 -4.090515234487399
327 -2.88833713701299 1.577050258183802 0.13669838577309182
293 -0.13910623526200383 -2.9935359919941686 -0.6485963346563899
615 2.274995080197466 2.6871920652884826 -0.7696279953908877
40 -0.46788135240287665 2.3801862797993247 2.2808689250561924
903 1.1237693167205096 -0.14552640584115387 1.8584914503532561
1191 1.1950659154394356 -1.7633931239428562 1.1751838291387964
364 1.4457175594772183 -3.8509593339261943 3.986365567147978
403 1.5245414784034692 2.9692396149982696 8.073847142537767
577 -2.636112950012109 1.5229558672810346 1.3578504058193088
402 -2.4611345384484413 -1.941836868231135 -2.4036428555491303
652 2.5616675535247073 -3.6849926778492232 0.2881601151499438
940 3.1179198746013825 -0.41766501327348865 0.5041787538667516
1228 -3.208842738522764 2.383129482629765 -4.59132468123623
865 -0.031322858087994856 -2.742248755678311 -2.777772696998987
75 -0.846180517662261 -1.4450726139554277 3.1126272499464602
363 0.8428599112928373 4.688431110772297 -2.3682815669894506
651 -4.578566516296079 -1.172055869705538 3.5171672799426785
976 1.667102576333711 -4.750519190866402 -0.3225810139046271
939 5.157344457740933 2.4092212309337033 -1.4710142285551886
1227 3.977208455166694 0.9998982320789227 0.4167637608263804
1264 1.03439193938639 -3.7152159993758596 -1.1241883271070316
690 0.7658864590016989 0.5038721833043474 0.20021501724801657
400 -4.64753352909882 -3.591507546979902 4.820814329101272
111 5.622698881418466 2.635151321328025 2.4122085527847084
692 2.3105545152676235 -0.30737858782978605 -2.8230401656509954
688 -2.392661402834675 3.9537988473902583 -2.3622239356402366
399 0.6867401537363405 1.725267885484179 -2.844833477882369
115 -3.503081692808792 2.770483654383773 -3.234152510506001
114 -0.2791524391441283 1.8643827713216532 -1.6452081374918222
687 -3.1594254734035854 0.6592075556737876 -1.7945724018155924
975 -1.6825178180981548 1.9602326921684836 1.2164922654264623
1263 -3.60802727265349 -1.5244608845174619 -0.45731649478814684
6 1.9118472958185235 -0.10480907560799005 -1.5805219358269518
296 -1.3425678447233782 1.4032145824815638 0.07962393310925134
979 2.006390286215948 -0.24732130486427656 0.6149208754185469
294 2.4925337920907498 4.869872899441163 -1.686996557005701
584 -0.38460421502950676 2.287511703744088 5.132064359356189
582 1.2900904847731496 3.727151835025813 -1.8837125630744664
872 -0.046876417332239975 -3.8962310330738594 -0.2667987280025851
691 1.7389760257542957 -0.6709941270923403 1.7978118919471917
870 2.168012558708926 1.7788067963973646 -0.05697294905145415
1158 2.659208612299656 -1.0361675404516353 -1.9227233096048397
1160 -2.2174038432226464 -3.517472655105289 2.3284992969740728
149 2.5203186111993108 0.7859192702160731 1.8615889479177568
1154 0.8470205744329695 -1.0560624740142117 2.193645612036426
7 0.7166109979312556 1.2546333376421857 0.3837912613454651
329 -1.4522241981155228 -2.0884539625737877 0.8775995732992352
295 -1.858682538416904 4.074427245409765 -4.592767093715124
617 2.8165880510738206 -2.7374717130403114 5.078674100011812
583 0.06967926396337759 0.11154648239673277 3.8614366376101175
905 -0.9934619235289719 0.7621689425953543 0.2516270662067083
871 2.7856268500479695 -1.5839100246606947 1.3249957355944977
1159 3.6102874303137145 -6.75962321790304 1.7118548438398615
1193 0.004546330535540087 3.1915777620186687 -1.158790376128917
1267 2.302374325471123 -0.754734240214087 0.8319365636846087
332 -0.31303924478402634 -0.3012740280956139 0.12984017629861944
42 -0.040652224108757865 -0.9376564844881293 -2.5044918871815725
43 -3.436664088799032 2.795095443424772 0.3055651754306617
620 0.672622355394751 -6.097845586845985 -1.7043286327461868
330 -1.7374186547089072 0.4324508966575291 -1.2551269674291485
331 -5.53810098590447 5.170847686004628 0.6485820103466884
908 3.281184269322242 -1.9391386667327222 -2.0910055792168074
618 2.3972125218086 -1.3280023687894145 1.9121692382264903
619 -3.7528777685714934 3.220049746182829 2.101271228719315
907 0.6449192992086891 -1.576656586219812 -0.26181730489587907
906 -0.7217196854744554 -0.905296410377709 -0.13112412431193793
1196 0.3053692847446085 2.714266722015162 -6.0371793543974
1194 -0.7565735240605576 0.2715391198322279 2.5314181293372906
1195 -2.889641369858135 -1.9142295851628652 0.11340632898771902
1229 -2.3222023378696295 0.07158147937093617 3.4802122956468593
365 1.9635992513235578 3.1234049057036097 -3.6061597244803867
78 0.460090065425506 2.156191651026442 -3.417514258423374
368 -1.6488937994522 -0.009263157430618504 3.828228549810484
653 0.4907055286271807 -2.557738694680416 -1.624452043990733
366 1.777671718889239 -2.3187946158504755 -0.879733139177353
656 -0.9687726049339723 -3.201883842762393 -2.7317642249722143
941 -2.12214624512607 0.12210350984613882 2.5887654266066313
944 -4.214894723850141 -6.296523734513083 1.430886525033883
654 -2.504225006322416 4.0247634673402315 1.5797568969097684
942 3.8593098017389074 1.9102816956563797 1.135384336207199
1230 2.3354662419262495 -4.2037404146808175 -0.03401550021155696
1232 -0.8882247986867063 0.17694399520907442 1.3218316759591908
79 -2.0100663011319093 -0.4176051487584669 -0.9656708567798574
401 -3.7352114596602055 0.6905382501014732 3.03285454112453
404 2.1789151428323814 1.2866704811724912 0.6674311105304427
689 3.2571902635751417 -0.6286326548674895 -2.7624509420337313
367 -2.869812865669017 -1.82517176087031 1.3110025686023732
977 0.18389426620528285 0.16282998574204982 1.3813645888349868
980 0.3718732981036107 -2.1627724625489324 3.8725576720346386
655 0.8336844486767552 5.41244141076803 3.8415829771864884
1265 4.552994539338143 1.655360071810811 2.61168113024166
943 -1.3595203458869178 1.489433889579334 1.242946097490198
1268 -1.3712510192767837 -0.11768898864512704 0.5907593184761749
1231 -1.4864160506842672 -4.339072010336043 -3.100404403020742
4 -0.9958229934994912 0.8490534556038137 1.8151077756293343
685 -2.18458442783327 2.419208737859012 -0.45721201389769983
614 2.8896395355222966 0.9024299289968956 -3.229108203511464
1009 -1.4601935934687602 -2.165493512824377 1.986022885816294
145 -0.54142908521058 0.3203819128095347 -1.0352501076900276
1190 0.2342725920356992 -0.4515170068492986 0.748880115477038
686 -0.23365193923126212 -0.9509952708688142 0.6862646856232241
110 -1.6461718970113954 -1.7304838817368728 -1.863345824492064
1225 -0.784647345029319 3.1110907525747473 2.8653231792831004
10 1.3910717391785665 -1.822184573560871 4.342066960691807
300 3.21816264784435 -2.228126195065534 -2.255443478199086
733 -0.04395321212179622 -1.0259253976514164 1.9572706275238796
298 2.270575270549607 2.5340365945857095 0.09812841256122955
588 0.43900711998860664 0.5179585141809662 -1.8511958136072644
16 -3.1381777610976873 -1.7158360227695006 -2.9666011565563393
586 -0.21110214599045124 -2.1721606133761524 2.0385120878719003
876 5.123091832654939 1.3516429135731194 -0.20931464165115019
45 -0.28038647494387847 1.7415310634981827 3.157418712123212
874 -1.6777119403195457 0.4367735272730878 -2.7641426019544277
1162 2.3677081638223534 1.160116723679981 -1.980235313960608
1164 0.6088902419287714 -3.716573497846092 -2.8415344644546856
11 -0.0034782471896738585 1.5736960610964326 0.7048722041643245
333 0.47510941627551906 -3.579792028575227 -1.2887141538116944
336 2.6150725608345073 1.7372956172324052 0.294637727811769
1276 2.349877118362368 2.9500414908242214 0.8826279139096502
299 1.9637933391880515 0.8491690065668345 1.0263744083369666
621 -1.9805978453712663 1.571860331018144 2.0362648671583843
587 0.8991749470383806 -3.3238713781656144 1.6574108857551022
909 -0.4658542341283163 -3.5464420229598956 0.3252852856857598
912 3.897368935731895 1.5954630098108533 1.0770763387256193
875 0.6478258028250493 -3.062380258316666 -1.1057029423045621
1163 -0.30759661319926196 3.190599951809614 0.20440034706669896
1197 -1.502279146871886 -0.4217440422971378 0.5154984051513645
1200 -0.2809650359688356 2.515831787527647 1.2543363906706004
46 -0.6912383513839578 -1.0489005624932972 -5.831725824855379
47 -2.8176618988134314 -1.0483138126094425 4.597727358668848
369 -0.768929694427835 5.022362980783378 -3.8795201172585982
624 2.6201468721775325 -2.29443510976563 5.324305413864334
334 -1.309789306857759 0.27540403932481206 -2.846676635194997
335 -0.9777854694782805 1.271929364037989 2.5173948483084057
622 -0.6563176685530628 0.34969078039122803 -2.218461040696224
910 -3.1021805126339177 -0.40968208475848095 -0.8439547020816478
623 -4.370611323379482 -0.4822751481414775 -1.4193843302358706
911 1.4861747395418574 0.41051890156826515 4.661122021278102
1198 -0.2916402505812026 -0.11878923807124467 -2.5911714983588965
1199 -1.0717336781205589 -5.67982251308726 -1.3157153860817274
1233 -0.5304197007450561 1.92094953517833 0.7573834225536967
372 -1.3134603066089745 3.9122450805309392 -2.198321271822214
82 1.2163027035905742 2.4150562979666823 0.542536731626173
657 -2.535485067091456 0.6071760568953395 1.7823076853724198
370 2.0531905016915846 6.975722058355138 -1.4648529990077175
660 -3.1632851681206007 -0.5961629728613048 3.0670052327196435
945 2.52220064716814 -0.48092213510354825 -0.3406662883156204
658 -1.9137167000116004 -2.8246866426443633 -1.8069824900129896
948 -0.7697586156790259 1.864886355105377 2.8225739816708857
946 0.5254132841349837 3.432000261755059 -0.8457224490253566
1234 0.03475484918449243 -1.9250714120612766 -0.30690290134115883
1236 2.6629189127259427 -2.3700595582108557 -1.5837914945332465
585 0.8286143154220085 -2.338208456216439 1.8276958896397877
83 -1.6802210216303541 2.133132933912303 -4.635121926219882
405 -1.2112773200247064 0.27985513182172483 -3.0726457663916316
1274 -1.2903906306391233 -2.4536015105708473 -2.6750457418034985
371 0.25862324022264316 -1.015059584057552 -1.8643142310160972
693 3.3504641538773274 2.1045522395928433 3.5069172377397773
659 1.28588904659785 1.6861501817944748 -3.787695460955304
947 -7.543631505148186 5.2847415131603555 0.7878635550243922
981 5.059995838142923 -0.8930344692911096 1.0388587293828664
1235 1.27593439067166 2.3159402036380916 0.5634477784597686
1269 -5.604807856563338 1.1983196047523892 -0.10740238267899638
1272 0.810672385263343 0.8515584617326095 0.12479837511041468
408 2.7873511126990484 0.6566476094728705 0.7453280568428144
12 -0.9494841191437113 -0.20234620183332713 -0.468452332366755
118 2.2478030560176174 -0.9873783014152359 -4.174001626422927
119 -0.6374545158345861 0.2749257845307894 2.1247087232407527
696 -2.1301149017978243 4.763776561543046 -1.5893743474919713
406 3.4671829629870587 2.83454528863633 1.9752437742190065
407 -4.193786508572694 -1.4578012294982599 1.3437484220182179
984 0.8070285894766277 -1.4189882734727737 2.6462491924589138
694 1.1744386503847586 -1.9060053284632397 6.00268070618836
695 -1.9925864823873711 0.60712635975244 2.025817036118831
983 -0.5157391192439191 1.2094389518922546 0.10879161159551556
982 -0.5396513496634259 1.272167396596513 -1.6240463102579064
1270 -6.984926682259999 3.121877268350626 -4.322762434332956
1271 0.9540166650639755 -1.5165105279843036 3.411417603405265
1165 -0.7548412399201417 6.395323575960396 -3.133399233944361
700 -0.24245578500767961 -2.9949276256488617 -0.26014708782596396
14 -2.478619440237551 -3.2192307348717173 -0.8009852263738831
304 -0.9229004980627502 0.6188577357025832 -1.5653776997325475
117 -2.2935743630883834 0.30955343550286907 -0.7781869163689129
699 1.3580108952907142 -0.3463834858544576 -2.854354596960859
302 -1.1593055708142306 2.0213342819466975 -2.9570993788148288
592 3.616704317557545 -3.5424780938548737 -1.5949698420913074
590 0.3010724097525343 -0.9544737621885162 -2.1182306806232085
880 -0.7371033400672533 -2.3990758602122892 0.15905723291727247
410 0.9375214448959435 -1.1357562240276946 -1.7891890532220585
878 1.4658189628618095 -4.788936171339614 0.07183694180602297
1166 -0.30686322517712944 7.114358369380411 -1.3033329404929512
1168 1.785908927451763 -0.17487318845118982 -2.2846062039813337
987 0.40688500248590326 -1.8794504135536176 0.5715869561061734
15 2.265530307589031 3.7062975864605816 0.32737924474260915
337 -1.8309057796226802 -0.6545696485936827 3.7791070571186607
1275 0.3801604019096322 0.8534802242845616 -0.045156244929972486
303 -1.419349191252755 -3.838316435805046 -1.263062895592199
625 1.4215934042409426 -1.582764567538722 -3.4787802491369626
628 -0.5135499771164242 -2.484898632493486 -1.490104194171863
591 0.009273890884020291 1.6921408845134938 3.7790570240787447
913 0.23470929792177098 -0.8784966750076048 0.9529106949228522
879 2.2914008990197794 1.0558479332280295 -0.6279707134235263
916 -0.3229296719105447 -2.943280354721041 -2.0133022736913713
1167 -2.114321372312601 -0.10897804545706477 -0.06919038821094001
1201 3.397356202022122 1.9153498730221226 -0.3904954229581919
698 2.1609868031585133 -3.6124684869699464 2.8431098961076398
340 -4.424353941532205 5.7572400806005115 -1.660937154838552
50 0.8970445786441795 -0.2957701951823281 -0.9363096187387427
51 2.779099595664202 -1.776302706352232 1.935883604692012
986 -1.4509970065578173 2.376613177448958 2.012048167050175
338 0.5124433037345324 0.8822474350627707 2.8348968029056896
339 -0.15706126987830296 0.8089753652499594 -0.12285325105978
661 2.1588489831952775 -0.4206282368403163 -1.0000076026123277
626 1.682286459095123 2.8479369621821276 -4.172402720220853
914 -0.7504718534455265 3.1800841913700753 -1.7232765360791191
627 -4.6226016185682415 0.13058344580478484 2.478982422127528
1204 -2.6237398427093583 -0.6397482726344478 -0.4485141469214009
1202 3.5049472567387743 -0.6373624719173193 2.8271921934653825
915 -0.7693325376259935 1.3767748425898891 -2.92365626039423
1203 -0.8667179065185995 0.32076428105462673 1.4108355338582348
373 2.0616061445369396 -1.6495027796353654 -3.934124576336406
86 1.3147261934855223 2.425889695501661 0.4565230416511363
376 1.408443130290993 4.046106945351134 2.1117389672641926
988 2.7074110662811157 3.1071313146442576 -4.767209687823241
374 -0.7613694721504145 2.761382860851092 1.5492994774532638
664 -0.5426060081055143 1.6246982128171559 -3.4874204885270608
949 1.0179880860850554 -1.2956453292431687 1.1330862880838233
662 0.22057863881148412 3.2098927861956574 1.6915701919406545
952 -0.05472551280927562 -0.28730189690822255 -5.058062818588087
1237 5.216518824056238 -3.414387699886992 -1.3909473119683313
950 4.199758531547915 -0.914764031874863 0.16962345220951716
1238 4.161400200008255 3.4395248432974896 -2.260505642978372
1240 -1.0922030052000402 -1.8629500673477948 -0.5643400261520624
87 2.2250859534544256 1.083308484960742 1.0302005997808372
409 -0.20214466835647862 2.310617672231195 1.6497696492181089
375 1.7871080128405057 0.8255700096223669 3.39354398168657
697 -2.3985399492511514 0.7246844786313394 -0.03999025620534515
663 -1.7850604733468123 1.836695821744087 -2.347925846428175
985 -2.5930103295449554 -5.773387805714138 -4.605850060020877
951 -2.9408671569271148 -1.258240794735948 0.3610620887611082
1239 1.9593261448051222 -2.2083781077422726 -2.175659092890012
1273 3.6206357497272745 -5.361740216861778 2.664524635299323
412 4.063166591488808 0.39477041899487614 -3.01502635035925
123 1.4712162683681322 3.7049264779424464 1.0035823791877376
122 -3.004056892446084 -4.702326728750076 -0.8865441963944616
411 -1.1572580705609241 -0.9652049012122459 0.6264771761467571
153 -1.7879618549926029 -0.1870293538921584 2.302018208706309
88 0.20643260562514673 -0.2827180619713176 -1.486641756514257
13 2.0679894859539596 -6.986087573453816 2.9266477620614864
120 -1.36985107587645 0.8100766597113321 -0.5187431423281197
297 3.887280886815242 -1.7277820545934988 -5.568300191859294
1309 1.0306519488457762 1.841291077691774 -3.8736409638945295
873 -0.07467158551291127 6.21799037338998 2.8380410885478256
301 0.2112128443260356 5.648693097973553 2.1680238863284402
18 -0.8154634932706681 -1.0194633162806273 -5.928225145754155
53 -2.7215207183965595 -1.8598716729727225 0.7732352453895358
308 -3.127356618137322 1.8284103596894452 0.6631754796331017
1282 -0.22984740570012246 2.965670997638937 1.2775697019770758
125 -0.7477358959141183 -2.052279602601532 -4.7926639334099015
306 -0.10933539398010834 1.8400356496261479 -1.9558090880041423
596 -3.7769747805893243 2.6189902985872653 1.9797239892212442
594 -0.14161625218555318 1.0006152088596745 -0.9407035809259565
882 2.2807967648297085 -1.5113150996132851 -6.608698109322794
1170 -1.5811844106166604 -1.3506232904409505 1.2668383643451764
1172 -0.32037283720722864 -0.9944906991989412 2.278319525080091
57 1.97044727010075 0.7783184239774751 1.079722836936438
341 -2.4433521649574206 3.410229006018619 0.45252606812639734
19 -1.5406293211339848 1.9876619571407397 -3.7909966252603104
994 -1.5719507621728603 1.774887763664158 2.900692525603523
703 -0.4624406844375553 1.8940799379348154 -0.6679379763922408
629 -4.491495014641678 -6.161531899976607 1.145547524996206
917 -0.2780206763747873 2.6919341861983597 -0.09592422508951422
920 0.9305263306950452 -2.8762565454789035 0.9768028936489668
1205 1.969382713525972 -0.9481694249682793 -3.6767446533528862
1171 -2.51651500561716 -0.5277797268635277 1.0297295157205386
344 1.8112351792909849 -1.8137059162837332 -1.2499877439266256
54 3.50293428493228 -4.506360677008667 2.73765727067475
55 -3.986769864607055 -1.355566260790151 -0.40339990260451974
342 1.9278624506852557 0.6347184089555631 -5.541120470197462
632 -1.2241447970842718 1.6305930860664923 -2.5576115574247917
343 -1.1769272088945117 -3.854424849109365 -1.0497300779293324
630 -3.172827899521136 6.005059259386484 0.01085184714513735
918 -0.3381403651772097 -2.711395683041364 1.12711145017963
919 2.5199287120936726 -0.15122149430887524 0.8030932227956229
1206 2.466998961120157 -3.6873043616849066 0.5378728751323831
1208 0.2838369583549359 3.3371683920293416 3.1334160692196753
1207 -0.5574816155754361 -1.19993307039439 5.158341994146096
377 3.742757384419042 5.2049526604365495 -4.250381008740638
90 1.625011596796151 -2.3000379293738256 4.1903805528450855
380 1.6871820960471486 0.5794864104291498 -4.9762884660039255
706 -1.47869964535227 -0.008475523996948476 -4.509749187089386
665 1.5782404027250894 -2.6181203180793937 2.574698237360329
378 3.5143441772007757 2.3720471393677935 0.31898245583239215
668 2.4329592068997528 1.8183195489811 -1.8738879704982934
953 -0.04226158866061643 -2.6449236807958845 0.9242186215565322
666 3.295152513551525 0.37360882079666596 -0.18844523814819308
956 3.6104127771612737 0.6708186698205361 -1.6613176141506947
1241 -4.0928535927781935 3.5917692790465825 1.9873242534592832
954 3.3026928950371275 -2.6793102673780256 1.409250955100053
1242 -4.9904129434047855 -3.748747308210003 1.498860656636219
413 1.1486973511803114 2.3265964406692246 0.7063386240208639
415 0.8900755383084139 -4.2575434779289605 0.46074843469995175
701 0.23029080614893846 -3.6119010222179364 -1.8344836961865274
989 0.614129917868699 0.3005285359121752 1.0766869997648068
992 -1.7050560753198531 -2.013293733301166 1.9681979205252462
1277 -2.0099218037032998 -0.4380888324815105 -1.4461920527260248
126 -2.2053974259308373 4.255048294864761 -3.738316519581847
704 -1.5849673344815558 1.5376328775144203 1.280183558732782
414 -1.10091536757951 -1.917781998442512 -1.2653772002632324
418 -2.592681783163209 -2.6693317787913515 -0.9695228366877877
991 -0.2984016143795473 -3.8967847112840674 1.433522156336233
702 -0.6913336178947995 1.3097315769132383 -1.319372642691159
130 -1.7876229408806268 3.552026500977154 2.4262318964202176
1243 1.7352889368334865 -0.09579412259809258 -1.6813466181157974
990 0.335065326941177 4.5519845393528495 4.150769636418163
1279 -0.8367971315886901 1.400111715824029 5.941826474400901
1278 -6.611040029119007 0.10475968941055423 3.1416434161873514
22 1.6602274396407326 2.2467915147086623 2.3927474522402625
1281 3.9117374892070553 -2.2981832053947064 0.20201426437185457
310 1.6269282452928835 -2.3069033383693553 3.363014026577699
884 0.005611554668053635 -3.1466260644665915 2.097283366335002
598 -1.9782701290909575 -0.7224754039952763 1.9262769267995807
886 3.3643122436096426 1.687523715784136 1.552049346682681
1174 -2.0633128563211103 5.32690905628061 -2.692312243995888
345 -3.4271781317384074 -2.0984148759401653 -1.785527657756398
307 -2.554988179502829 -1.2732505124937141 -0.725085123382739
633 0.748969755706736 -1.0536779811055477 1.8423683473678076
883 -0.4187939688280022 1.8383465367340397 2.1614896829394135
595 -3.6106707644520175 -1.981980594759792 -4.473705580346802
921 -0.6189778562435313 3.385384807326136 4.207364706164701
1209 -3.4016846944490498 -2.364857076374802 -0.8884046589177437
58 -2.015435213446262 0.9583766898163609 2.427761317305208
129 4.422799732464864 0.9298463513809844 1.2384516830185461
346 5.62081205977925 0.043978776683534594 4.118673164882049
634 1.6126486871170902 -0.5993356637193273 -3.1487097266258837
922 0.764194887384552 -1.6209344997532047 3.2472821530634066
631 3.8576645255574187 3.0736299524556476 -0.3051669420731707
1210 0.4864317860928047 1.570900649952491 -1.3812614212526342
416 -2.283262980722722 -0.21163679015943837 -2.1375966188256488
381 0.6479518464584366 -0.8219562586690691 -4.287963588801454
94 -0.8204417346784957 -0.22330297317883663 -1.519005403180727
669 -0.8309955670769708 0.8013197189835465 -2.677026023520045
382 -3.0546446058190266 0.8139088814659124 2.2599193569173193
957 0.9585324542342458 -1.3691442901372686 -6.216036324288948
670 -0.8084501096863518 0.7852018615375128 1.0648600157931514
1245 0.8801770548193057 0.42497755596261966 0.9174608963305659
1244 0.5868042081734809 -1.5980049556406632 3.1561487088047535
958 -1.8032984464202397 -0.681335792361941 -2.0573722652795405
1246 1.9662617195686347 1.1846380793318465 -4.8289483136298434
91 -2.070172124427902 -3.6701273447269314 -0.4238144355052659
127 -0.3036016761231356 0.4228651296797171 1.9592137555780746
417 0.05039685351936284 -1.2123312563094406 -0.4917732027216727
379 1.2719248265353864 -0.4195682280696452 0.4979847958461882
705 -0.3118423847959704 -1.0154876464976315 -3.2348841072026815
667 5.601218209193584 1.4185643264506917 -2.478281197105144
993 1.9868675195719812 2.2753738384133038 0.9849127479583472
1280 0.8999931535968876 -1.081932578875484 -4.819796596478919
955 -2.7443366720757383 -3.4497909464980423 -2.021978587992263
1313 -3.348937057502979 -1.6594238725224937 0.06368535375650558
17 -1.6213452655433722 2.3041342606254465 2.114755021174433
161 -1.076949694234662 1.3607873656996265 -1.5833384084802449
449 -2.6587259102624885 1.077141372671196 0.5050867817344855
93 2.143296538906242 3.0596623482476857 2.1137602068151886
1029 2.9398882549575487 -6.624748081974812 4.323600753462152
1169 1.113916367031835 1.391095216021902 0.2343163800121286
741 -4.492509891718609 -2.4227651085246933 0.15158369229092816
593 2.0997426247418716 -1.7958300743303253 -0.7482557365227535
56 6.084908957668879 -0.4415380513398121 0.85029782158173
21 -1.2285834103790232 3.0214181092613717 3.1037776962801584
737 -1.4823975769718565 -1.9704353367107748 1.5439408231453884
26 0.9044450780397462 -1.2612361740175888 1.743020953301445
312 -0.21163468617503228 -2.6013082401539593 0.8504874769603971
133 -5.285064851641903 0.445275344888553 1.6597901450098447
745 -0.3151522284623589 4.053094889516137 -2.6723188729460623
314 -0.83678571647025 1.4080373797317958 0.3866014951591878
600 -0.49162121618549165 0.2918364833533977 4.0799401918706595
712 3.5467527488895656 -3.4034052336742704 3.930413519987762
602 0.36379307850350784 -2.303252458369851 -1.1557693573417893
888 -6.302222634083303 -3.130044531622359 1.3582213061449728
890 0.07851583055222874 -5.244021313557742 -0.2506738280460184
1176 1.0723759782796023 -0.03271164420692148 -0.7681178730874859
1178 2.7607084748264055 -0.6365026812552584 -2.974358262569251
423 -0.23550482002970188 -1.0822866755554121 2.3155537646880036
23 1.6115514145062635 -2.4128483704433856 3.859136916813883
349 -1.5539109923549361 0.5539136327886028 -4.503528470664216
348 1.7470033010250345 1.6553259241050648 -4.356769208685545
714 -0.11269664110747417 -3.2059566319671298 1.9553958386471662
311 -3.030560115909265 -0.44706130434008157 -0.9627646632659248
637 -3.56644831003702 -2.7964446177596924 -3.256624761639882
636 -1.0972749316198034 2.9609882939460754 -3.588244181518723
599 -0.4080972755254865 -1.9576484305331263 -1.1192002808841885
925 -1.5400397449522505 3.3838907393113358 0.9634441723116122
887 0.7476508997618654 0.14923340242408234 2.4101401939102414
924 -1.1630650985679132 1.3615866197267459 -1.069227546602591
1175 -2.6560501050600647 0.14974901274029245 4.170133063429648
1213 -2.4022583882243196 -2.0048411404341815 2.715503077870058
1287 -1.0007326446383966 3.3162313293617096 -2.1714519659456517
62 2.4924409160539427 -0.4649449595563143 2.5311411738193215
59 -3.7029791963563556 2.2578824390526395 -1.5403274463893422
385 -0.610231279137835 -2.6579902359957357 -1.8949931144677377
350 1.2341490641935902 -4.855740191376612 4.159638091725834
347 -0.08088385958216186 2.5199895725578445 -1.219642468455778
673 6.331836942931292 1.191909895598612 -2.166536489678431
638 2.5429951921771803 2.6079305989457224 -2.170938324119843
926 -1.6038758103556898 4.585290478020607 -0.4446363326101821
635 0.7639041588995678 1.4371946237592916 -5.0155337249937855
1212 -2.430809110723496 1.6595682855360148 0.6300410653038494
1214 -1.8284960358397164 2.6376218260135356 0.45814574786961704
923 1.9938761386553747 -2.952164458651897 3.795110034995297
1211 2.5611266245592477 -0.7615860330039487 -0.7129391572355872
1249 1.1726186968944807 -1.550208291978391 -0.19097684158564338
98 -4.780997007021514 0.5192772674491348 -0.8029417415481234
384 4.193138628863832 -0.1053255937222363 2.463102947976817
386 0.13955834460713756 2.574075334896183 -6.592288495481751
672 -0.5527640592734397 0.6237216345659385 -3.6009244993696563
961 -3.638125458438023 -0.17470012994289782 -0.8798732155750362
674 -0.5961498277712242 1.3393835139188839 -2.337690725196608
960 -1.15547031094922 -2.6057525078843216 1.869849403119166
962 -0.5156840701392775 1.1732374453650753 -3.174588765335541
1248 3.3035480416814553 1.122460573987617 -2.4060064298625137
1250 1.69729332814964 -0.9991246714526193 -2.411142621515537
95 -0.021270852839360074 -2.059959857221911 3.619956511502997
421 -0.6526961273585882 -1.9047086279729737 1.057372757311261
383 -1.640934927516261 -3.1039188673219273 -4.550957193749035
709 -2.0711322771918277 -2.252325783294999 -1.3400714613246922
671 6.303515444670444 -4.08788604479621 -3.6358825139111484
997 -0.7825269227636366 -0.012353279313764554 1.3097219840800547
996 -1.5158081622405917 -3.670581684443205 2.1527563109682637
1247 -1.754994447267833 2.1880906867013796 2.1589381907825587
959 2.6581439667472804 -0.891663539787716 -0.8784469672289289
1285 1.5436132093057022 -7.507996487687292 0.1919035029518975
1284 2.816563363557719 0.7013384615604202 1.8852690718268825
420 0.031423936726554795 3.617311328459618 -0.9256797471761306
131 1.5273862892327892 2.102194908732938 1.7898150260381758
134 0.6064018611468912 -3.4996440082118956 1.499611508530648
711 2.6932142459149664 -2.7919029232957753 -1.1914096325516337
708 3.497997339457819 1.646793015121246 -1.4080128200719975
419 -1.5861182051636638 1.0892720118786219 -0.8335040840624763
422 3.224097563128297 -1.4982941973189743 -2.114879945747611
1002 -0.9794104837271798 3.2771099452420143 -3.111731586696791
707 2.2229292866228403 0.25426808564540065 1.945497619174021
710 -0.069405796453147 0.8514755126000104 -1.2037032097586633
426 1.5090483915480255 2.0210529336558 -0.4457715053390839
995 2.4686808453927913 1.1883457072301593 -3.567584172338022
998 5.416093027683679 1.6736402890868307 1.8666169157797246
1283 -2.3808872519284 0.7168928010780108 -3.3655668964605976
1286 3.1315169564512284 -2.603418429498283 -2.814021082518421
30 1.4905130617969906 0.6873951474064691 1.526492108977464
316 1.4733758902284244 -2.163878943617636 4.064144045331197
318 0.37049101067151535 5.654023364296411 -0.24786822278554319
604 -1.939247806215045 -2.530110662054484 0.2748969579335315
606 2.797909061987593 5.8345071557472155 -1.502692809618599
892 0.48889260905903476 -3.005715381251633 -0.4197484574110679
894 1.5737074655088414 0.1108742672556528 3.068702151780601
1180 1.3888676442679857 -2.998696219913895 1.7868582956315893
1182 -1.1570344701763333 -4.554898901735556 3.5690309479294333
27 2.3766600314147746 2.799113328999089 -1.2678961494564318
353 -0.17492842979704787 2.1059866444430186 2.060414268883066
352 0.9453353672660436 3.789083754740198 -4.206692764772196
1290 1.5242016819334196 -2.837356981072005 -1.1018816240355178
315 1.3527288777550075 -1.2809225024167754 -1.9466297026729642
641 -4.213083284351126 -4.184581948259345 2.118104313902213
640 4.2838241079434844 -0.6138559577701245 -1.2369027953791978
603 -1.8343813435354352 5.243379398902081 -0.960120629215044
929 -1.8676350793126866 0.2730073687911817 -1.6635255649769782
928 -0.681981664037571 -4.881736970564169 3.683511896715932
891 -0.5023403517488912 -0.991888322170889 2.585263040510736
1179 -0.1761707456855734 -0.7792229822380764 3.2925796272006473
1217 0.4019545103395938 1.0057986896265203 -0.520493029131332
1216 0.7789254606253813 -5.186467901679736 1.9204851814263957
66 -1.2440471091233862 -3.463476737300546 0.10049010382651458
63 -1.0971554655897884 -0.3927430687389965 3.194648247323905
354 -2.7741077888762375 -0.7767582681586906 3.6378721516078536
351 0.07099623262082842 0.2483046582984672 -4.241614300194071
642 -1.6710564937731183 2.7758138607186327 -3.085153367368671
639 1.2805289567065936 -1.7003339815746799 0.5444499627359399
930 2.031897855894639 0.6509190205559094 -1.4690171974572281
1218 1.954559619432497 -3.9247589346079246 -0.8738020197685382
927 -1.5415422722189656 -0.1177321916344106 2.982187689415009
1215 -0.9705609085495988 3.336936158902341 3.2520656727446253
389 0.21878019087381043 0.2828779735321569 -0.17145810077012757
102 4.60626846884053 -2.1307417143237726 -1.6470440366062538
388 -0.41067939386694935 1.0447171830562798 -0.7345009589111857
677 0.828769488851972 1.7612402434226109 2.545496622526966
390 -1.6631233047099485 -2.992888734796338 1.830107830053547
676 -1.8216305023075303 -2.572971451647474 -3.7087463281660114
965 -2.809910790184503 -0.1998260515265994 4.071080516516564
678 2.207359359525254 -0.5083927223011582 1.015457776514826
964 0.45687092182716665 -0.6620952665832478 -1.580136682792528
1253 4.444804651288834 -4.193890764559383 0.8051886885654653
966 0.32673535968319134 0.28085390436354446 1.1954907183158343
1252 -0.7812345662245144 1.9030573253588525 2.0120844085017655
1254 -3.1370826383925907 -0.4586070658894991 0.07339931668617718
99 7.005670792207011 1.0020530693379353 0.41900351103827543
425 -0.8353758008306937 -3.6150832740041756 -1.885262266244983
424 -2.288286631599327 0.11267271912147252 -1.4006572866711415
387 3.7997344133582462 1.1868259777486114 -0.8514445306387709
713 -1.711541439609655 2.8402509407441054 0.36006574012884784
675 0.08127945687654584 2.617180304275385 -1.8457307519343655
1001 4.776672955115865 -0.770256474536549 3.0575549565856104
1000 -0.5321836071443534 -2.1122205091986914 4.1612871269433676
963 -0.16916337522493122 3.3919616390484792 0.01705610689107663
1251 -4.555300304649887 0.5037049246274122 0.3241550227691387
1288 1.4626719033410347 -1.0012849993030275 1.33999436026571
1289 2.045019602453255 3.5915500660528483 -2.65241291156782
999 0.6001435707662885 -1.9404750788498981 0.3776410525157628
138 -4.7044185676421595 -0.5510516414302684 -0.7481574753323976
135 1.51125621157007 -2.7496398812452774 -0.11435679996547014
101 -1.9688878753655041 -2.9363672444385434 -0.6807903147733478
64 -0.1371342020358383 1.0569098655020523 3.2043480140921594
60 -1.3534926130857166 0.9414983443725748 -3.7043050127118855
25 -2.6696687880762884 1.6072744483468273 2.5632180825667055
457 -2.702751675780477 -4.943756531446352 -3.7349851412433006
461 -5.032262793109774 -0.8915448498372346 1.6216691341538814
1037 0.47497357848110816 2.0298042431169656 1.6444197267911134
1033 -0.26755006860397407 1.936218070587057 -2.649237481637656
34 -1.5075114798656495 -1.1195809042429465 -1.5737778468120605
320 -1.6516758867255448 0.49311749192183285 -0.4625877616427245
1189 0.5090232600896236 -3.4041541965147086 0.25460012927228626
322 2.2654232732580506 -1.1682007732927577 -1.6794205992718605
608 2.028834688660331 2.0251978313243515 -0.028846557978777557
610 0.043223610026691554 -0.9739272772536803 -1.8602367062265408
896 -2.248027370179817 2.7824565954462037 -1.8126852176163355
898 2.0649629298768413 0.10769918021214837 -2.483995989497459
1184 3.669619323278705 2.851073635347697 -3.420111412323997
1186 -0.46806248438052384 -1.5540814037229262 -1.1923413587725629
1261 -1.5037738125098885 -5.227512946250422 2.6758314563870917
31 1.1941268011820199 -2.9121991977990827 3.9913230512736466
357 0.9680773597906718 -1.091721986330983 1.526354743217817
356 -0.18603361119516582 0.7209053629435179 0.6143065616550396
140 0.17106230198303907 -0.8996159648687354 -2.578595128856419
319 2.135284422022637 -1.2421178065949712 1.2923640794436062
645 1.1254408232830164 2.0778046868430695 -3.964462333966868
644 -1.6997482215646769 -2.819005009654239 -2.779990895134418
607 -0.08256281002673686 -2.743823776360671 0.012834191363493236
933 -5.019559930020047 2.952499757494004 -2.2350123713174264
895 -1.6597242141808946 0.19171975477118952 -0.1744929386552762
1183 3.1863366840532104 -2.3976584998897352 -2.141016298645976
1221 1.5356692186385148 2.0966446307973383 0.14329041639096585
70 5.793773336030316 -3.7705071328206654 0.4047306537245597
67 1.3866325182634345 1.1383644146981056 0.5966989451451942
393 1.798244938621311 3.1743224448071503 3.04061665954278
358 3.0806889821545655 -0.6012881464571458 2.707647425618558
355 -0.7893988821145417 -3.6326995827760267 1.857909839528372
681 -0.28074629186146255 -0.742471282465705 -1.2561362846196797
932 -0.4715309015117395 -1.2017674119900486 1.7223992149284466
646 -3.4684164426542448 -1.5018262233393818 0.9307516039886065
643 1.4179984063635025 -0.430682970518879 1.6688347702963182
931 0.9886790855033839 3.721713045118563 2.8556188292613025
934 2.906916005758267 5.275463209548641 3.0808131989273893
1220 0.6549025151909117 -1.2369826682787197 -1.2560070089832502
1222 0.02786310186213004 -4.560502767676209 0.44805531549759986
1219 5.072222796739527 0.08571222728403372 -2.552215307174026
1257 -2.0448521696001722 2.928082368285441 2.7543444768492025
106 -4.620031741676167 2.8626585079240594 3.547758914002779
392 1.0951428354426136 -2.8759275083729827 -0.04341742508391243
901 -1.2373449487744055 0.9935217254934198 2.2248687074416855
609 1.2182588572588806 0.22237531315322867 -2.0468611580470952
394 1.32093757726063 -1.8566661394532769 -1.3941692625719122
680 3.234098150624294 1.8153725662662692 3.508586323459492
969 1.2253635889509527 -2.3992453136705105 0.7011465371666631
682 -0.13271799376047203 -1.2885440335254306 -0.9269402923219519
968 -1.681437621359286 0.5421828867524754 2.905850455360224
970 -2.4145949204424815 2.621768266701943 -0.8130444784884195
1256 -2.807964624626794 1.161454711509956 0.05318690378024847
1258 -1.049264609744014 -1.7634544259109262 1.2167892202679853
1296 -5.272897644590404 0.9397983047077497 -4.049277767636401
103 -1.5905428567397728 -2.592596975097566 0.015979476743963016
429 -2.588018459621413 3.9801819143390746 -1.6421639849163574
428 -3.598796628848954 -1.5414309447670769 0.17871788764571328
391 2.8352870609590743 0.35563786307060674 -2.3488625110398202
717 -1.9031602863853925 -0.22702217911975783 3.138377787351183
716 5.346971437074481 -1.5828751507877665 -0.39540778716365793
679 -3.430343209037543 -2.741297732325367 -0.3400805701131985
1005 -1.3844815060989826 -1.0375554743657904 -4.414060333567217
1004 -0.6759318895374535 -0.5267839729206554 0.27124649538143153
967 5.548857893513842 -0.15114095361868135 -4.236284232148468
1255 2.2404173028465153 1.8947789133138966 -5.892300125776665
1293 -1.0987692704073493 -1.4076353029062285 1.5516281742105251
144 -2.896892558163601 3.9221063507453944 2.8669190793985693
139 -0.1054245911224268 -0.03550829797439596 -2.934884164306698
142 -1.4572135242658826 2.330740111495042 2.3117194049664924
72 0.06119361916993241 -5.3065870016133 2.1552640654147868
650 -4.080611663944521 -0.4010734455995593 -3.4003822488714888
427 -3.4340040111441787 1.517542860935606 -1.160105961133388
430 4.117975634665784 -1.9458899545030033 -0.48068673217900687
715 -3.7118909112046654 0.21778785857321872 0.6561642315946148
718 5.789145994426649 1.6655701330869206 1.1374298336414304
1292 -2.362480026980137 2.5976943237932906 -1.6275454426396931
1006 1.2185492493347045 0.43251245142855244 -0.28864002799374433
1003 0.9573197665301241 1.9708455181826192 2.9024445347165444
1291 3.325502106607377 0.2552814391230444 0.7903927621499458
1294 2.0511079302919266 -0.7883617002500484 2.064126768015766
324 -1.1557364304364313 -2.7639520812315417 6.040803170975602
465 3.709830783878379 -1.0532318769499633 -2.173702963353208
938 -2.0090582011760194 0.7292209107091118 0.06806791027691832
612 -2.8302088840760846 0.6485224961712583 -4.404085657063378
900 -0.7130716638001247 0.9764104154512715 -0.7822835562947927
1188 -1.0647868424939446 1.2549781221230825 -0.09929126628816273
720 -0.348649254522787 -0.36013050048339634 0.12080090300248159
1185 3.219683283835159 -1.24072946216568 -4.752291398169621
35 -3.2444048102743177 1.7732978872642662 1.5246178559736243
719 -0.24946354740406043 -0.5629179693945889 0.4567718332134888
323 -0.6536955183537193 -3.186090409050051 0.6339841070525785
648 0.14848222348122672 -1.429011315315754 2.5683346706372094
611 0.8868444309619639 -3.433820248553004 -0.40207098297870564
899 -0.5967927663841666 4.811121735622402 3.3102114725231186
936 -3.0525591856945216 0.7850662592792019 1.9081624557929127
1187 3.378199155147512 -2.6788122160166434 -1.3816860302989686
971 0.85663797567976 -3.322053991464988 -0.23931844247384088
37 -3.449303352228748 1.2152855493751242 -0.25155271459397516
360 2.4459704253106973 1.6023546902083698 -0.6145759605243457
71 -1.9974008856113448 0.8084622238737064 0.2871562624039609
359 4.111095367465565 -2.4797158626909646 1.3898153969000178
647 -0.4349192825800471 -0.8512859805796978 0.7736325413290108
683 -1.2963021171225313 0.5903348397838588 -0.6376828704022941
1224 -0.3897918340985273 1.1070732716534881 2.6899416495921367
935 -1.2952188007806065 -0.16113298842928003 -4.486301932774114
1223 3.4934686528999253 -0.3574273482543355 -1.68339778067872
1259 0.06424727871437054 0.6767861922178751 3.6470337683262772
395 2.5032057020195935 3.187948325295094 -3.0731773907365865
396 -0.07568748361225391 0.37413835775460474 0.700151562494407
38 3.862928892743679 -2.2118254089714973 1.3593202707598078
684 1.0538047231966516 -3.4666667994391855 3.413981391792763
649 1.3499815061155478 3.529176948696076 -0.5917152003834514
972 -1.2671851954323756 -2.5593461078056365 2.6110892502025367
431 -0.7869762827326203 5.15466616120765 2.0393344653597
1260 -2.260044952784764 2.8216099774487935 -2.665700646633113
143 -1.2191334499062543 -4.078188153860182 -2.762269126260661
1008 -1.6377512017983697 0.5668384351152194 2.1944222006192247
1007 0.4663255841013181 -2.3654507778304166 -0.502978980687915
107 -0.5828078150392316 0.8110581982641107 -1.8546299960634571
432 1.0935113529535356 -1.1470930649917364 0.49333352771886746
1295 0.8429785505506161 0.20813427296255388 0.07975134882695702
109 0.6620676755163223 -4.025518341696614 2.132411808540327
937 -0.4340707205414526 3.3196169414696675 0.006348479840754836
897 0.10461126885126305 3.162304162791529 2.7712003219898644
974 0.6321945810743524 2.9402128745714156 -2.2808869214155436
973 1.4176537915207645 -1.4290814043991233 -0.004580370485827096
33 1.6166293242558558 -2.0382872190872905 -0.919939680463864
36 2.51915707666518 2.2136900304378826 -1.270890430786176
397 0.7491573548471466 -0.44632734315480366 4.612018569436328
32 0.7627881626959884 0.6802509272385421 3.4463636170190233
105 -3.0709782941745525 2.1262658274171446 0.8504109517389179
2 0.20275858572527924 2.8657360178875555 2.927701339835191
362 -2.5977067597970356 -2.3010004121586496 0.5940992614839893
290 -1.1146899852639787 -0.7033273328002719 -1.7524319083020958
141 -6.558406808942849 -1.7938258056108498 4.315120936569666
613 2.9089810716921902 0.9359843920080426 -1.6086504172476772
74 -2.360008813929327 1.2095367027314887 1.1529841537428451
326 -2.5076217286214937 2.509649079802643 1.9951544240458312
398 -0.2877358141001842 1.2872436461508943 -0.4615977159796887
361 -0.1956028097595691 -2.8354492247944947 -0.559859942298042
325 3.385140686663116 -1.3779549821325228 -1.001039219516238
1262 2.8835659809150176 4.135125283812428 0.10434575795573467
1226 -4.2253083247393 -0.9426039130614777 -1.6022094623054817
902 -1.1107927549640493 -2.839953990703023 1.385130524065315
289 0.6283700472644979 -1.9068490913335092 -0.4981354811480088
108 4.27625733144198 0.2866830522952046 1.1027164958257925
177 0.9931590674793628 -3.9619663413179023 3.5793878549316043
578 1.34221284765137 1.2642495004936647 -2.2739296860115994
436 -2.4030638844877608 -4.059553430472463 -2.8838825193472175
1333 -1.191394359713554 -1.4668971716215533 -5.761076304413009
437 -2.03392792235138 -0.36325506702524973 3.2558615680254723
724 4.4681618434310355 0.31506774490227096 -1.317591174405745
220 -1.0795671643507811 1.9101865246283414 0.18205144239447849
1012 -1.5842504753406705 0.57507276814361 1.2457597434122596
1300 -4.508372040171576 1.9043296053566983 2.2066437931555383
147 -4.871320506024969 -1.2516605037723796 1.0232858510757203
435 0.7115951611040429 0.2660261145296668 0.03566928044681682
1157 0.4574327648806357 -2.248423753722554 -2.409971711536331
723 3.7697989812589987 -0.8623105254811327 0.5269115249216336
1011 -0.30141642723527323 1.5432240948174762 -1.4597749821479213
1299 0.3805906126729325 -2.9209368795232193 -0.505208477455169
258 -2.3285461868113027 -2.8785993638607716 0.9269030183325145
472 2.564870375669532 -3.7271516614544247 3.182274037902807
183 2.3030764388652294 2.741714126303807 0.5999826961545551
548 8.22016979220687 0.15963955602898963 -4.973957431891223
760 6.4002949848031605 0.1830125365034612 -1.6436925688904331
146 3.796321094459158 2.4458973590372612 1.1735784357321248
471 0.6416383382951962 0.7718123614967126 -0.5193557660388731
1048 2.571099287232459 -0.3577881055081572 -0.8516947394550078
759 -2.4515004731113166 -0.7603717529031114 -5.29680806018932
1047 -0.2081223157899708 -0.20081143926191086 1.1866355398877486
1336 -3.7991762742267525 0.4003862116010873 -0.18919511700825423
1335 -0.3724519842934334 6.3627717027947455 3.3830016468267696
433 -3.2268292703657444 -1.4899468065213024 1.1460647827438701
470 -1.26233971835224 0.6760375573770475 -3.6319252155991575
508 6.2726501956799945 1.4758521649327423 2.0009584333493713
1411 -0.4207010816611122 0.4752778690321378 -0.13741243951933685
1409 3.1674424499545593 1.06718479508212 1.5999947440968099
796 -2.123942183261954 -3.6561897219924577 -2.7375206348981767
1084 1.797257039353507 -1.2546035280890753 3.446490655746245
1375 -1.4423114786985 -2.213497994735782 4.694093778446089
1372 0.1675082084787489 -0.27563481093323855 -2.7977832273691723
1121 2.189345560271786 2.0673691327685324 2.185866856285047
1087 -1.5186333716011526 3.8175301455574893 3.044638185488943
722 -6.324540643923102 -3.272845371536558 -1.6350300638201873
219 -0.5440828682126616 0.7472967494184694 3.550822840057514
544 -1.6870057972710149 1.1213683117965785 -0.21971883448464513
507 -0.30958854407854053 -3.401152876582903 3.3269208660878715
832 -2.3176334064322526 -1.3045442829714147 3.276166569023139
1124 0.4237122210104134 2.138814921111476 2.002442766906469
795 3.1551047327321915 -2.0684334070321055 -2.0873743112614904
1083 1.166165115044675 -0.9740268181278396 -3.938385987727896
1120 -5.923789938599956 2.717797915819331 2.923065469273706
835 -1.5725582047477784 -2.3124705913417913 -2.7129486700046566
1371 0.35519968204528446 -5.356259079392108 -1.247546647947697
255 0.3363869737536427 -0.9879240063328232 -1.0279292623113512
1123 -1.3077327087020085 -1.9026792515315631 -0.6613805782192972
799 -3.2758085341285295 -1.185808776274663 0.4740347861516652
543 0.5869013465404567 4.1209902418164885 -3.7071100284316407
259 -2.1964266347575685 0.6154605268910492 0.10451420137338005
1122 -1.0244640250679555 1.9834172070338003 -0.5444759665409046
831 2.101751632441783 -0.3626202923567909 -0.0579682224837265
1119 -1.4199238554210813 -1.1103665896241426 -2.037396745475142
1408 0.21465628407769136 -0.6891384709718145 3.8612986791221835
1407 -0.9368663116418251 -3.178245939601583 3.1193019314514823
836 -2.5425779042497036 1.280559885460588 -0.619359424593886
834 -0.5295855595090329 1.9764522573109886 1.1445309678424056
833 -0.8124522977875639 -3.421795654519751 1.9706542980286512
150 -0.669826975451766 1.252049337808905 -1.356755986118284
440 4.265626467097627 -0.8248027193564342 1.9500300040719505
546 -0.9760666068309232 -3.7847262711505363 1.4406849961307666
1410 -2.0199251367803233 -0.5465781790399715 2.7212088724626646
547 1.1142218933865233 3.5595832643189778 -1.2361452817044214
438 1.7180404901629132 -3.6928034559909095 0.5580215767509672
728 -2.274177867149168 0.1670893459308999 3.6947671840456993
541 1.3275286656114083 0.8565866011000964 0.524435825383194
726 1.886780954641003 3.414336856023777 -1.092332431618181
1016 2.6168831683193634 3.350765643238193 1.1658395567133168
1014 -0.8620095338824494 0.6352714326545698 0.22384189521147116
1302 -2.082851007247237 3.413748020841112 3.6298660299298557
1304 -3.1392780579459343 2.400898504102953 3.1332817794569885
151 -2.088880170595593 3.279940630180673 0.7750551192394364
473 -1.6037055623187373 2.3455178097562337 4.737709948770328
476 0.9982170356618715 2.961314159379695 3.6812075684388157
439 0.23762674722896263 2.1714818019047195 -1.650082927277013
761 0.42570377930703507 -0.790168128311472 2.355566852441171
727 -1.9457253591636707 -3.307409762354973 -2.9933783572759842
1049 -3.263140198528901 0.2555069579098394 -3.0032281000388377
1052 -2.415177129460061 -0.6285597514305246 0.04567703320862519
1015 0.2181313559715949 0.17297750339159945 0.23494964627249046
1303 -0.9308876871131275 -6.363697165710876 -0.6534457244062761
1337 -2.7605523659423823 2.1519762818740973 1.37455671741705
1340 3.73988166501341 -3.903722502898807 -2.0369055347613827
186 3.5868611780188293 0.9477362680945487 -1.553365271852207
187 -3.239071990359284 -0.6550328748204352 1.940716667927774
509 3.129574717761414 1.847611306566415 1.7681189551209269
764 -0.510718043417046 3.777024502334527 -3.2882859376779328
474 1.8315149991874733 0.47113914577385674 0.45244585245597824
475 -3.063369990544498 3.6173220496092346 4.625529107529126
762 -2.3191321564780547 -2.1777391733791664 -0.9442487662193357
763 0.42537007709790364 -3.399108359801725 -1.0699969157189706
1085 1.1282754064016414 -0.4008697507315458 -5.028781981116375
1050 -1.4104415090434015 1.5134708339553906 3.0005416737038457
1338 2.18282743439728 -0.2884661914658954 1.085221183954951
1051 -3.54559282839023 2.8221138559376615 0.8317552030774946
1339 -3.3962584092118613 1.5503297548655417 -0.6878769898167175
1373 -1.85195651593241 0.4149785110295385 1.6112869173914717
512 -1.104181300464023 -4.639681845778314 1.1546657572227752
222 6.088192663265195 -0.3888449023886961 -0.45027945141487513
797 1.1508631369109876 -3.249220577453642 -4.725533243514135
510 -1.5450834785262146 -0.3846309208348101 -2.4023582057417396
800 -1.4134673690350419 -0.7161366652127797 -0.7667416357232483
798 1.8297217719085932 -2.9560967466831745 0.2508953944875115
1088 -2.5243926534702545 2.566610527995813 0.30842099302314163
1086 1.8843583475737635 -1.028037040888471 -0.15475018596060788
1376 -2.4113026175407777 -2.8845299366556176 1.587862800786851
1374 -1.8242046084599757 -0.7428107089561252 2.1472445567232565
1412 -4.285052774001053 2.5151561706078542 -1.972571513858411
223 0.4094972904907029 1.508885360692277 -2.7066564912327773
545 -0.8649281719403714 2.2874652932577595 -2.0078495478918614
511 3.606251330305001 2.4120910947653953 -2.173565349674398
542 0.767093132457872 0.23539403741837153 -4.4125619868978205
1046 0.4318458679449488 1.0937514766137757 -0.04155954996749763
725 -2.5372843635947833 -0.07392466884803406 5.841977520722232
1301 0.8571975611738066 -1.4993230308333152 2.3717550786215913
793 3.3692133440289407 1.0593323785456226 -0.7320745722785014
148 0.22483711899696182 0.4123831828217356 -1.1326432251428336
505 0.48960541932072166 -1.1941652918630354 2.2744738283947865
1405 -1.5949646936343094 -1.4277833899572516 2.7174566327948235
829 -2.4818477346062613 -1.7684600341474155 0.008198050920412245
1 -1.9468983163147542 -0.17042775988145412 4.024001163357645
794 -0.1166857557379444 -5.342493715569175 0.5634738209325734
218 -2.6434352745934424 -1.9707914827590725 0.6601633874697557
1370 -0.9995416567029899 -2.2555855128113804 1.1455093682825912
757 -2.75559337693196 -2.286230163681632 -1.4798253949507187
154 1.7834398100602005 0.164991449325299 1.532535284960673
444 -1.3993183160554092 -1.0565606588742773 2.2948543291379337
1420 4.888197645930724 -3.7316307202880448 1.4900243831186484
1131 1.5078758292474512 2.893813825496232 4.282962300959139
442 2.9173261743564325 1.2767329809803032 -0.3766222292468843
732 2.517239029921775 4.5809650107513304 -2.1923577812498336
265 -4.5912818763991 -2.411716948425918 1.1133539449364642
730 -4.613759976550895 7.776453746504887 4.521357990853527
1020 2.5759587639726655 1.1446835710915286 -1.5334505283025548
589 1.0064606001683358 3.1968202025168706 -1.2343042831552744
1018 -2.656056064253491 -2.674196455831099 -2.903921596185826
1306 1.0039378473498555 -5.128809546202296 -2.295639809075888
1308 2.5395967806101427 -3.833322146866044 -3.056234370186993
155 -1.2069588296837903 1.3287561918193975 -4.234502602723539
477 -1.5791099547188094 -7.050463609867142 -1.9346693339774106
1418 -2.1496640170828805 1.1164434747999505 5.84421657964324
443 0.7635306889051681 0.9983029598691279 -0.03954023117007862
765 1.3456843965174248 2.5244302035680324 -2.238436456729672
731 2.7537415063667647 -1.1041785206030539 3.4794471478415714
1053 -1.5047934812503863 -4.699180366336451 1.0856329426960942
1056 -2.6076476649986264 1.9388441541528834 -0.5642533759626138
1019 1.7944344109300023 -0.6872356367878946 -1.3582077552521443
1307 0.16604552671576847 0.5689107248878263 0.08135210397539985
1341 -0.47346462785909177 1.9743269943850423 2.717083733090377
1344 -2.288381820734525 5.215581203407329 -0.03129072116417707
480 -2.1294903482031318 -3.9046670208512433 0.5685033137983194
190 0.9144670876219432 -1.948711521462444 -1.1894533274469214
191 -1.1703019283265232 2.196761173008903 -0.04715898739014401
768 -3.17561120121276 0.09236651157766168 -2.525620856227388
478 -0.18193966744734344 -0.012042579241475709 -1.4841657076295518
479 1.3345281384512964 3.0176667109876374 -2.2760595284574725
801 2.3633676303616378 -3.110580623697001 1.3825548627469781
766 0.2969383105556693 2.370998369024225 0.0656096062551712
767 -1.6662889423121119 2.7610758226102674 2.799842014238195
1089 -4.202792189844218 -3.6683137583894743 -3.2343993116265186
1054 -1.824381981617003 -0.8761422857406213 -2.7053514432215455
1342 2.1599226348784994 -0.23888163944676932 -1.4095833813003524
1055 3.9882684974800706 0.08557610258927287 3.1451906890557457
1343 1.6389584142909637 0.3012039028451304 1.0330347761974819
513 0.9883826363430317 -0.7744249883860137 -1.0600777628704872
226 -0.19341967554191725 -1.086279636543954 -1.9642346434008464
516 -0.29009116757782566 -0.8590480214115885 0.751433212669162
1419 -5.1199033958817095 1.6639996481590529 4.452052955723496
514 1.9593291220342737 -1.9512218283242302 -3.5591243077471484
804 1.4103489840352423 1.2916376009139996 1.5974367368066338
802 2.7376812795194305 -0.29171193416410124 -3.0766906789091997
1092 -2.48630055733004 1.3592745530977624 -2.7154029665601658
1377 2.5894760483789976 1.5474063955809227 1.2983826258888675
1090 4.57956007446211 2.560589659250662 -0.5226143912714445
1378 0.3825202570588333 1.904696557448334 -0.885061571519277
1380 -3.2949533217336215 1.0413531683655772 -1.29169632721956
227 0.26332972944100447 -1.781457554447166 2.0673012569937064
549 -1.78765336578926 2.6175237624019942 1.993687051488094
515 4.780529861877368 1.357596794145777 -2.0554897654635527
837 0.15930324648254782 0.582416355839354 4.58508111960087
840 0.7742678226788188 3.4243816904651374 1.733579679834622
803 0.692411974291441 1.4428610300434705 -3.590432697119502
1125 0.43880217620907547 -0.6932567190936172 0.461746400740072
1091 2.480744107374351 2.409774602478303 -0.8704951125979032
1379 3.1227690112933177 -1.057256821468017 -1.2755838286272285
1413 -0.865706998815674 1.4089484411681061 -1.6079284062681065
552 0.8084746304612531 -0.30073802673632494 6.985130326514554
262 -2.244650768614086 -5.880308472082005 1.2425088702566762
263 1.670179497565666 -1.0573742292520163 0.4456543415940416
550 -0.5394630789076078 0.31884346992189194 -1.5263984196636085
551 -0.46999238731061227 5.922375764952505 0.18768523260350287
1128 -3.1297907952973194 0.00583483564198693 0.3839802225347327
838 0.09459861937893162 1.7409366407160825 -0.24669098293036776
839 0.39566184297771845 2.7062752890777433 -1.1705081935668482
1126 0.9560909570405851 -0.32013041432723993 -1.174228495417182
1127 0.9598266136832497 -0.26042196938997864 0.9721328486664019
1416 3.6561606238790865 5.851763353099664 2.3629372704498577
1414 2.0616723478814536 0.8353046755093831 -0.33400354579856434
1415 1.2839579541925283 -2.5190606415664085 -0.39263904237144986
261 -1.7047114002214416 -4.4991469964090305 -3.3911823875490197
158 2.236962427116529 -0.17960513111197374 2.570046601274852
448 2.5658027626200193 1.8445569142375904 -1.8878691758689812
193 1.0660544371497251 -0.9541669987297283 3.8712492276831
842 -1.6422350600434898 1.5533427184988937 -1.24037694437002
446 -0.3000882532774617 -1.7926193730047668 -0.3160869143478544
736 -2.950292877036942 1.5003444614865267 3.793078948260867
268 -0.4978727485674632 -7.152250591669716 -0.3233637123073257
734 -0.9530380902712641 1.4846070549191126 2.190435983991767
1024 0.7974773646702361 3.5055422512225025 1.83862590817781
1130 2.976817747782393 -2.4556125834165146 1.282142756193636
1022 0.6623264716535525 -0.44428982743159195 0.13780298391532228
1310 -0.03953675999405734 -4.380739465912928 -1.3104838116510629
1312 0.43279521331587184 -4.034112152697212 2.2208620471669516
159 -1.449037435354839 -0.8113650077890676 1.331820871709084
481 0.2069132005630344 2.25716172602207 -1.5793539427465693
484 0.23184616841785807 0.915002042087764 -1.6888421720271434
1132 0.3006081344785036 -3.952323059971421 0.30519055764281305
447 -0.38848714041886045 -1.6868886041815905 2.3792520177838563
769 1.0998425611303937 3.4014358211583224 -3.02012512210288
735 0.41510076760461245 -1.5459148814597494 1.3761806773960323
1057 -1.517063748222072 0.2643647195525257 1.7474814162360721
1023 -0.005559375195544694 -0.3252127006422953 -3.8052335130491537
1060 -0.9795896924459094 -0.8369458198420888 0.8945902840685707
1311 1.3458286788066884 1.3606401115550695 -2.867149265407324
1345 4.084890788877785 0.7274008752845811 -1.4392726378589198
1348 -2.0475381858634685 0.04642208704442489 -3.026499794967684
194 5.71250254765356 -1.1705260224566274 2.183213494542264
195 -2.399480496620532 -3.6484343622123183 -0.2845546440733249
772 -1.8039865983140244 -3.1036689981233874 -0.19951007328456483
482 1.737292849434677 -2.060954650472278 -1.2955580572500422
483 -3.4900709000343664 -0.5046725832270207 -0.12868710350493984
770 2.4842908218593376 2.8571672032932027 -1.1443035175360283
771 -1.0424887166680445 0.5562095234370777 -0.5732022400841303
1058 -0.6556681771491473 -0.11129812295218029 -2.567185084450772
1346 1.5821172507021604 0.2267661695482428 0.4481944783339255
1059 -1.4644689320782007 -5.188189726623661 -1.494481635990191
1347 -0.7184478849875677 -2.895346825286124 0.1683784383547439
517 2.6452065864051972 -3.3868684066555264 0.4870816987580602
520 1.625567799635263 1.9270526792809617 -2.6104912449237676
230 -1.0379345257455035 -4.25727677492407 2.530841026972157
805 -1.3072896261555036 -0.5524712002033996 2.1928622455476696
518 -0.8072443819544016 -3.2245265373198286 4.421233248819341
808 0.4644814418009986 -0.20813098371834657 -0.9187964149876363
1093 0.713669504949753 -7.004782776852828 -0.2655393559359084
806 -0.1007668646320388 1.1628650994957634 0.5613106093104181
1096 0.7601454300133811 1.1618631658316518 -1.9408444137943834
1381 0.2877758543962786 1.3611663010190291 -3.3762887507316637
1094 -5.176091335005434 2.553977384284986 -0.7250741456299028
1382 1.5339186056314424 -3.5835976602469692 0.9412135997436719
1384 0.5631230873348417 1.4650293096842868 1.2067170857745932
231 0.1411143987402509 -0.27154001523362914 3.5841640097992786
553 3.4718869038204727 0.904368619086424 0.9220094575636076
519 3.0206178468580642 7.097265991754137 4.211142677528451
841 0.23107457514710206 -2.218200403761057 5.108410888685896
844 1.0435732651959115 -0.7367398653077171 0.35415640687978445
807 0.1750144771146073 -2.3162435043916747 0.4304457417311979
1129 0.34293579213950476 -2.462344081664032 -9.497602548549798
1417 0.13353795146533645 -1.688960817974364 -0.30252583205925027
1095 0.3509100300745504 -0.3839031844074643 3.1290615543071527
1383 -0.0654131833422607 -0.3944017133121192 1.098027387584401
267 2.809029631549035 -0.8351088195758068 2.099730705350025
266 0.6151375912390643 2.007679807224355 0.10248438679055548
556 5.554477357883227 1.7561138018173084 -3.5977117116130897
196 -1.8978549250042873 0.33160959409338986 2.009233223606275
555 0.8266151204457229 -2.212040794085969 3.44456325082338
554 1.3507963550023512 2.0949242976580975 -2.519454932470973
843 3.025634513172009 -2.43814931208678 0.36209438335873456
877 2.8375430320322255 2.0763312497129403 -0.6917410204200717
1021 -2.7788500781668426 1.0279402389792163 1.662693354003865
1305 -0.40717616112657723 0.4819407808722113 -0.2657301870793395
441 1.7588915035887194 -3.3031451762665487 0.5265328384785479
9 2.3212551237946073 2.2654211961750677 -0.7681798447881252
729 -0.7580888422878471 -0.3346120767989961 -2.4356875619145764
445 -2.0388556429915465 -2.203280586761786 0.1114989443035762
157 1.7910819723184173 1.9578381163750207 -2.4932621908696855
1017 3.196060113916237 1.0193774811021628 -2.1753154061302187
1161 3.7567337599174597 -2.90341921950394 3.5667800978449677
162 0.10962342247700943 -2.349428543947866 2.0803640703287405
452 0.741478007170688 2.033902058233685 -4.025184185601537
197 1.8035227309895676 -2.757653237562196 -2.5370763223556825
450 0.25051278816635086 3.591748565458305 -3.645584519022753
740 1.802197321662377 -0.6779162393863445 -3.6583829968008357
738 0.21874986295624854 -0.0025719339649494214 0.7987783131259633
1026 0.06889567740299893 -1.3500657493210177 3.131434598430031
1314 -0.6115782835102493 0.8149385314297237 -5.328401889292707
1316 -1.443227195832394 3.086848509542924 3.1858354286823025
485 0.7050111244816413 2.3756913628523466 -5.693135032426793
773 6.81959417054774 -0.7268047207669107 0.8024783691941381
451 2.4204936170759224 3.5345359814447654 2.265300110718687
1061 -0.6115046286359498 -1.1367860409023367 0.6674883881600282
1027 -2.586404571363408 0.4450337096449382 -4.548964857300445
1349 -0.8588976869599685 -1.721643252934634 1.8177771190362695
1315 0.6606577843059259 -1.6826939381657522 -0.45921919535035055
488 -1.471367305167308 4.596027868777914 1.2553360095386716
198 -5.398218276600779 -0.6678713796183708 -3.9302426332532825
521 -3.4818644841620983 -0.007454029199484026 -0.3292967712198597
486 -0.12869329554315967 2.58081374113857 -4.38848227532499
776 3.804420828969039 -1.4825676835020603 -4.4255168217637415
774 0.20068976384254827 -4.711933450366937 3.691389117189432
1097 -2.7935678823563914 2.5875062607884174 -0.07115833929334815
1062 -0.7271456046429325 -2.899363207250919 -2.776531523775134
1350 4.164082201977067 4.404386249717301 -1.6663844615486154
234 -2.19445861706174 -1.4163882131234609 -1.2869571769532129
524 -2.2822983109963424 0.16883437883458974 -2.735786387056352
809 -0.26412913595768217 1.2159757864491774 0.593427332801277
522 2.7656566555140047 -0.5732150681475922 -4.495102438644138
810 1.2012384409432775 1.1044102686872301 -2.2859272751395863
1100 1.7647282272558114 1.5189339745782156 0.2383744890694334
1385 8.644827372031001 -1.1229215292030719 0.2103481797379082
1098 2.096801924665048 -0.7683752663949828 2.656265656020622
1386 1.0346563148650478 -2.5127711847422622 2.1560593409170434
1388 4.510984648549655 0.29866668789259143 -2.117831971033085
557 -0.7829742657588273 -0.3184771043375674 0.014211198909577678
845 -2.0923566962710187 -4.814115379542548 -2.181700610116665
811 -0.9844033681362107 -1.0543962844969366 -0.2737400880880365
1133 -0.3304259299939536 1.3186746643075427 2.5521163997852723
1136 -1.9327695930629067 -1.0483638944797966 0.48854767308302743
1099 0.1616220188624649 3.0279380626531758 -4.302789795098585
1421 0.408096524661494 0.35230187877594843 4.927281395284805
270 4.367873957569886 -0.4942602626077227 1.7081801793856497
848 -1.4568771678510182 -3.7172541502683103 4.3297332922875045
558 0.5994044696429311 1.8372443329292847 -3.0756620460497652
559 1.7705386899968973 3.5649874842604317 -1.0351512622935402
201 -0.6108899742428517 -2.3634973897304343 -2.3949954320907674
881 -0.48449101798124355 -0.5536392201986533 -0.3928526252064101
847 1.2791395629372617 -0.27147422131050797 -2.86318735517655
846 1.292106928004858 -2.7546090353538375 2.011373709761217
1134 -1.1284404683732217 -0.5487324365026509 2.4497207793288944
1135 -2.3555054041946204 1.0900678658357472 -0.3745936175458222
1422 0.2315133228136873 2.2257847571073075 -1.366042793202093
1423 -0.5094516023847664 -0.12046201826564243 1.5127233145829182
1138 -2.736420684520135 0.5973323785726055 -3.231504974738645
166 2.5621946086495986 -1.0111407511778066 -0.19324316684164575
454 2.1672404355756973 -5.631204617716407 -1.1225720516374569
1426 -1.2264057833191622 -4.059059437476248 5.598259315672571
1028 0.21165613349309567 -1.3710467921930327 0.29432393276652313
237 -3.264980396206476 4.537024511249177 3.6082313178378023
742 3.61182568369721 1.2848559399117419 2.1149993362462784
1030 0.9719818969520317 0.22338946842014845 1.2948206381559613
1318 4.509811203465909 -1.4890358330088376 2.6343620500568283
163 7.471177179549195 3.470220543230135 1.1771903521205038
489 -1.147782399233353 -1.358031794951535 0.5112314269144249
777 4.917922318645764 -0.5244195813765563 3.2486859122692042
739 -5.681409175121435 -2.4134031899616644 1.2179558394353658
1065 -0.011212245944875134 2.410424144837617 1.00682227301668
1353 3.525736342898133 -1.1318917589671305 1.4337225560154998
202 -0.5516556734808649 0.5446684054953864 -3.389304199571233
199 1.570515940509029 -5.518547597948191 0.8915901384649755
490 -3.9748754979077514 0.4989415311639417 0.6714552189068043
487 6.499020051011232 1.6546162058806981 0.8003296188830825
813 0.8096660667716526 -0.4194811372888936 -1.1498400900110348
1064 -4.815082702795809 4.041184867159902 -1.7650394637454554
778 2.1474014976137292 -0.6481345393095961 2.808832044171165
775 -3.171496389356141 2.0808373465030607 2.357257364193479
1101 -1.4969545545773724 0.07876397008167019 0.5949388764034823
1351 -1.85397041051807 4.739265551872502 1.9633336966384836
1066 -4.991203368486473 -0.27448769692323316 -3.546387859306051
1352 -0.09352469203763125 2.297844572996397 0.1287172513481805
1354 0.5243216252449235 -2.38544650683109 -1.454769206015895
1063 2.895780847988312 0.6096887163108367 -3.643342621368431
1389 2.43256081371299 -0.246266438160559 -0.8910274499465424
1424 -0.4633379858837386 -1.5506180898259039 -0.8666312897311096
525 -2.534213193486779 -0.8100438255504574 1.1709809309922852
238 -1.524442588857432 0.3711412748506962 -1.2652374334848808
812 3.7741158923509612 1.0128044594543286 1.271652770446872
526 -1.0943339993619283 1.6061186596557218 -2.4838251386544035
814 1.5619233262876835 -0.07782752171928828 -2.168837108085108
1102 -3.1868914200870733 -0.17273679375446332 -3.239912809515441
1390 -0.5836817073969462 -1.3187213187512843 1.3724592260906125
235 -2.299247291187226 -0.07021070497204598 -2.248869509834103
561 -5.216527725663379 -2.0850298737769832 2.5141683119583718
523 0.5439776342852999 -4.079123213614428 0.8086602135665205
849 2.104254070479357 2.243655580313379 0.17665213729620227
1137 -1.782499246295271 -3.798391618301627 -1.9223293867725848
1387 -1.3534362605166557 -0.25690304464425356 2.391598842369204
1425 -4.614320057332625 2.318164186912715 0.5498562179439545
274 1.269648215029572 4.500909294190025 0.40394514034651635
560 0.6875871102863631 -0.6935140108841098 -1.5322275137198165
271 2.7601314040781353 -2.4869415899529463 2.135189004204849
1025 -0.3711192602032578 -2.2214328054088126 -1.7587667723918394
562 -1.4318120850092124 -2.35314478432056 0.08327248519264584
850 2.3012521210423182 0.4386677880081988 3.5832344635390725
885 -1.4989581336580033 0.3513372061814477 -0.7486624909241602
1173 1.3810393532860872 2.265625352479288 -4.882380402984012
305 1.419995488484649 1.2970189483994137 0.08584218195310213
1317 -1.4172398666696173 1.1952511733842721 -1.8321736400048283
269 -0.28170841041597283 -3.7318441459966682 0.5008791654846707
309 -3.1405575007580384 4.77383887211081 -5.127307244021043
453 0.2233623027141505 -1.5886237891263584 0.1629205518397714
597 1.4883975240909733 -1.0007167038356966 0.5069945291867692
170 -2.134860861662926 1.5065232837184872 -2.433225164057923
456 1.0157072978849375 -1.6517620955613244 4.533490034760899
601 -3.5890012531473943 2.0222285070812944 2.1990562314786284
169 0.8859380451221816 -0.24687605980498814 -3.666040728319039
458 -2.107349497335841 -0.5165780889328402 -0.5248312520609103
744 -3.118090917357895 1.4139684991511854 3.247626466881509
746 -1.1259272247154204 -3.574918259809046 3.208225699967639
1032 -2.44266794677019 -0.38661000450612854 0.6980971317540122
1181 -2.689102251391799 0.5929311067220789 4.271063621323071
1034 0.7539577145949624 -0.7219271446844203 1.503099462732817
1320 -0.4382938338350011 -1.6009496730739592 -0.19594837995829756
1322 -0.13631919699297776 -1.5910787758029292 1.859766479787101
167 2.740679312173512 -0.6378323645487181 2.286685119406812
493 -0.38343855332681265 0.2743409442618804 -0.3103815780654099
1432 1.839729617994807 -0.24514241930500932 -0.8000177822541207
492 2.1959862108900285 2.661611501733354 4.160966839483163
455 -0.7459299439303664 -2.2142796618531286 -1.6054703073096754
781 1.8119735931052177 -0.32549084113731297 -1.7984821784045084
780 -6.361565499899149 1.6041364292758356 0.9388433828965999
743 0.7826334602982616 -2.277932559072595 0.7177996109205023
1069 1.995311658111875 3.4355564298086243 4.451256511290577
1031 0.655588563836051 -2.2628371811486767 -0.33185344745112144
1068 -3.744120074228419 0.9524068629379061 -2.547858165462352
1319 4.500922294866358 4.327435985317569 -2.1687575392319367
1357 -2.0625352068716425 -0.5141247460886081 2.656575035558306
1356 -2.93229636538858 -0.9709839402621036 -1.1927043899385952
206 -2.013438635081104 3.807109773271323 -1.7100493220438076
203 0.23699953948672178 -0.8186014519657367 -1.2824165081784424
494 1.4978826093098203 -0.8498631911797613 3.328985472240684
491 1.084356554436078 1.1145465913316666 -2.5365374792080493
817 -1.3266537383729666 -0.653576026657245 -3.3466069806351633
782 -2.5361780714307365 2.7393799867469464 1.5867991316379004
1070 2.791815916693129 0.7575718256759344 3.278771666360082
779 -0.18427788302012377 -0.5323628071742521 -0.07817553478949034
1358 -3.102216855875654 -1.1763701733147094 -0.20844575542475866
1067 2.3364980051235227 -0.20255469364823847 2.0100629559564633
1355 2.5230415652886387 -2.824441395569695 3.0056514117988957
1393 -1.101718540683129 -3.4232278381726005 2.356014294140959
529 3.1035694826579556 -1.993980191056745 2.813287537851952
242 0.5247296684425226 -5.326163344677022 -3.024936397098821
528 0.14833139839847462 -1.36697572148399 -0.05537907416827835
172 1.2630989997943676 2.4984570314248904 -0.32944895793737927
530 1.0409839905605776 -2.133984285689307 3.0069616100033305
816 -1.2112284123202945 0.1094901757201945 0.6875409129574417
1105 1.3002978474408176 3.1683782170624566 1.1466384656197934
818 -0.5598454878669463 -3.583314676675319 -0.8600229260830324
1104 5.777894963767507 -2.0878072010619957 2.436167992430771
1106 3.5646070507040064 3.805489796811101 0.08499939620954326
1392 -0.3311820427108065 -0.5876680927772633 1.2554006414238494
1394 -2.9418888318122005 2.6231644935179306 -2.263692085486349
239 -0.16014402723773585 -1.9297164035831356 -0.7949958503732613
564 1.3425251976631718 0.8260347550610462 -0.7741870554559248
565 -0.2508506668959249 1.8888370323492099 4.004402168487106
527 -2.9747233680446024 0.519834724038509 0.7360752713038242
853 -3.1306697313503657 -0.27039888651964916 0.0793878900796168
852 1.9880773025178196 -5.0591523522571515 0.1339207782992266
815 -2.124854467456658 -2.0724832962004487 3.3808202825694527
1141 1.7822389593800994 1.521229071179425 -2.956454874262139
1103 -2.6033352716307308 -0.7953442086266425 2.7506906264066138
1391 -3.1556988269934774 -3.869831734966447 -2.282456673663383
1429 0.2888231082388696 1.0457798285600437 3.698949705630472
275 2.621306652215108 3.3335167492258084 3.616729835366447
278 1.6331850853912522 -0.3478565518400427 0.761033488321906
1143 2.260507416793068 2.380822267108443 -0.03566020362522376
563 -0.36364271060289277 2.4887799499771024 -2.0590586128862247
566 0.08016236719359307 -1.246719302306099 -4.453212160296309
1140 -3.5693878927365197 -6.064564656090085 -3.117229700939997
851 -0.9222988075331842 -1.0485129809828067 -1.969855044060705
854 2.1093767501574607 0.3249647564041226 -0.18184348067453782
317 1.3211176641673774 -0.8056053757787831 1.7567487281729877
749 -0.6286232983183597 1.354961975910796 -0.23048213354254912
1428 0.6250684981119063 -0.8748651797855643 0.884193729598206
1139 -0.6602693740586988 3.115798652465658 -2.3280851254340087
1142 6.759608933334108 -0.6530705308267077 0.24796451378610526
1427 1.4246972320861024 -1.2475896784008262 -1.5696519354679577
1430 -1.1607165668885224 2.5720486534107554 0.43831867975013866
174 2.747277466128214 -1.3811999692119417 -0.8922271868704317
460 0.7688477276611547 1.8091579389921244 0.2120237211592537
1434 2.4728581250523516 7.259463048880891 -0.36123567416295244
1321 -1.0556007413210822 0.37226991227879397 1.5367540602974932
462 2.031323319236214 1.3564661771731799 3.4735635724132052
748 -0.018916249815466375 -0.043832596335457975 4.804918994286054
750 4.609966508987756 -2.038130696031384 0.12842063847509627
1036 -1.023547222129731 2.7141151969656767 2.744979517181768
1038 -1.469865950533265 -0.7729261475181375 1.2942810983527786
1324 -1.5903442995588501 2.8902524748055978 -0.799970456213392
1326 -1.0686751672157686 0.09564418833113511 -2.9828414965241596
171 -1.8942354521516944 0.4144907642035212 3.564963064569906
497 -2.7169165173555836 1.1932484452007548 -0.37547417122062343
496 -2.047235627915977 -1.135583693471091 -0.30895318443724423
1146 2.221902445141646 -5.109804473620979 2.1841652092981394
855 -0.22753245420167165 3.2575759505453425 -1.083479280471015
459 1.0251657002076981 -3.0217966941176226 -1.7180526378846768
785 -1.9999692611924407 0.40940266865977504 -0.9319151762463488
784 1.8651466872717752 0.7057926943577514 3.000600084504675
747 -0.9507125727284386 2.1296431887803275 -0.46724096642586355
1073 -0.1141187432134767 -0.1318192454561877 0.9444485697692903
1035 -1.5264336354580796 -0.37085762706786407 -1.9659864716768864
1072 -0.574885223744432 0.9437910115767795 1.8095737351542247
1323 -0.9878471132275969 2.5599686800269046 0.08496967309488694
1361 -0.9733387051808886 1.0643756718645367 -0.5174036751792455
210 3.0391152415582887 -4.377356049807402 1.5732914922384456
207 0.39684495264101044 -0.8708378371151292 -0.7175178202779983
498 -0.04446149157658964 -2.054157225419759 -5.085240692420719
495 0.17583193237873188 -3.933416268872698 0.9904786010426696
821 0.0848923331680544 1.4948426448902385 -1.2392436744690791
786 0.0020217241991534185 1.8514745701112696 0.7681820809996456
1074 -1.2222026187031294 -0.5623279104279253 -0.8794711324320028
783 -1.598751832571294 2.18408138601597 2.391053528412469
1109 -0.7521439869412928 2.610366776689139 -1.777846182236485
1360 2.3629450520555118 0.03389469347426602 -1.9187363190723805
1362 -0.6269149690657417 0.6658206163285912 2.9305043020156516
1071 1.263378051055207 1.9746579034334284 -1.8985543545921035
1359 -1.7512277639644709 2.230137299460142 -1.3758061355393845
1431 1.997019236784707 2.78938453410082 4.4499964559205925
533 -0.32928978010311455 1.1749853309306024 -0.7118208910439139
246 0.31240967976921147 1.0847519367645748 -0.4139639732445932
532 -2.6682295721023284 -1.5839425566893968 4.3106930111114945
570 0.9386272012202623 3.3128566206980765 -1.425930222041705
534 7.502500650467751 -4.1059964091462415 3.17805501509607
820 -2.0829546569281483 -5.717062802367081 -1.4074713378676202
822 -2.4689685033480746 -2.458758826724148 3.198745799860411
1108 -0.45449418734786545 0.8342740336222655 2.075062474936042
1110 2.497019714872446 0.45380780131817405 0.5180940124262012
1397 -1.2730627155743854 3.692356466143863 2.081190927281328
1396 4.743757086640443 -5.7462360238100745 -1.5258807407545405
1398 -1.6433129478878856 0.622003460217027 -1.3310410490427265
243 -0.7874498460538375 -2.6383317772245767 0.9536982892239346
569 1.8287666368125155 -4.311025863853466 5.762910030224955
568 -1.1231626153302865 1.609184553745288 2.671014275214973
531 -0.12715113764898067 -3.1935849134497762 0.8947063842256867
857 0.2867326004184559 -1.489872542265299 1.8010664103665412
856 -1.2731205732047601 2.1857435710457183 3.660964398976819
819 0.3686976672408559 1.3773109183270456 2.9635631813471957
1144 -2.8255628460581232 3.086850647349228 2.2541002147187355
1145 3.494927479038412 -1.8395230036005787 0.821350785889388
1395 4.8679847228962885 3.1903385636034094 1.2504573024879087
1107 3.4163916738156215 3.0033630329473233 -3.1307651697164083
1433 -0.3950192662695556 1.8026328668517033 -0.19141269850067483
282 -2.2197419069949573 -0.5652105591638874 0.8658628047914249
279 -2.377493013287886 -3.9818950606416585 3.842900059969954
858 -3.7848935929408625 0.20257374530758246 -5.242285414188042
605 -1.3312634323944366 3.6049792015769597 -1.1424588031957463
168 -3.7430626136620977 -2.744668314343395 -1.0037477664164107
567 2.366189289650618 0.9623333624482908 1.5357294363152512
208 -2.351416541173392 0.827708128402619 -0.41689380892405886
245 -1.8282071452650837 1.3277381206435523 1.2336282952519113
1177 -3.4329365569500885 -0.5668741416159198 -5.743609064213544
313 -0.4368821472797247 -1.6341714100769507 1.0162390338935423
893 3.058968517220859 -3.5295898547371833 -1.2723072757758225
889 1.8493526557215956 -2.9211418365254 -0.36803854041944023
1325 1.4007266502774978 2.008832008018463 0.4101553771452575
178 5.717111991562353 -1.1207680768023316 0.31073573971755614
464 0.7950969721843802 2.2639674555152345 -1.0269141586424806
1439 -0.2332884797006156 0.3839600924960042 0.18624618574753674
466 -0.2705067827421677 -3.716305163712016 0.6274640134303828
752 -0.8824776126018431 0.9124588657225116 2.0619828012803567
754 -1.0991117544568976 0.25938672017977066 1.9688414891449189
1040 5.858189213955025 -1.1547317472537832 -3.0100165010798756
1042 2.285934511870098 -1.966824218720712 1.5969256235104015
212 -1.4260108549490804 -2.2991597609853973 -0.10559908473568583
249 1.5299430974405956 -4.069179391866898 1.072711395880961
1328 -2.66926596591305 1.3240842117923943 -5.643837856489659
1330 -1.3199259835766757 -1.2485158292313285 1.8860493470299622
175 0.23890970276325896 2.4047021435568254 -0.900504177909845
501 3.7196115637989307 -1.5750128711013294 -0.6726107656607212
1151 3.4028377198221267 -3.260654236571562 -1.9805249544730348
463 0.6829991498466569 -1.5158468862089116 0.23564154860471462
789 -1.046937521940264 -0.45855787462999176 0.4843729793604877
788 -0.17529807151873086 6.00529695466042 -0.3682947882638913
751 3.777440632182507 0.04664174914986975 3.1516813715190874
1077 -3.7049548581632004 -0.0476093330953564 0.11515229497874706
1039 -0.10121195581729647 -1.2519604502669446 3.921889911926221
1327 4.96675492270847 0.259441292485763 0.710501414621316
1365 2.1360468719169603 -3.1085600466951937 -1.1059238238211593
1364 -0.34254360270723877 -0.9113598828396914 0.12653664162257935
500 -0.4675866157538893 -0.3661019092035778 -1.2571101858651685
214 4.318278457997377 -1.9217001738329236 -1.8736439343779734
211 -2.2512835643204268 -3.856905511762993 -1.750340988098282
502 2.3630883539001353 -0.4227919364383345 -2.9048157473347778
499 -0.1438302379551067 -3.25030307980702 -0.017316865394473174
825 -5.055945003245243 -2.2564693844405284 -0.2598775908702497
1076 4.070845368443176 -6.022243992839681 1.9330851130429674
790 1.8642830094774696 -0.8528357046758348 -0.6755139020688421
1078 1.806734563647885 1.2807842927170028 -0.35004119088421065
787 -1.3380593842742179 -0.7121879290740015 0.7439228719013665
1113 -5.32382887293557 -2.44954439098639 -0.5114506808961333
1075 -1.8070735669100162 1.6297873081958 2.5700975941293662
1366 -1.3219061288822724 1.3866304576822734 1.4135035730878205
1363 -2.6813710658824794 1.1256249710415924 -1.375040450782912
1401 -1.1676203381412118 -0.2418281937267666 0.12740259203969242
537 -2.579887306248329 1.0832439506537925 -2.7832350985757497
250 -0.5282936336682835 1.9269235639017523 3.327268147627035
536 -0.12917626970387522 -1.5542684016345973 0.7722609139050318
321 -2.3240973619609875 3.0709132101125087 3.923121548811512
538 1.804545541242611 1.526154411240476 0.3787676952529881
824 0.37291549847487027 -1.7177598161095535 0.3867996467527331
826 -0.7686522890192111 -4.03453036222398 0.37929661474579135
1112 -1.6913839555680916 -1.630772631343862 -0.9727738934483587
1114 -6.981449170017002 0.3135960473163927 -0.9588618122030272
1400 0.1711651853770044 -3.2761938500721537 2.647131188943442
1402 2.7954034423489933 2.0793938114450903 2.9089755216279167
247 -0.20001244857044295 -1.7659653706027436 0.14857936817284817
573 2.874527750242802 3.3467481855885612 -2.129379836780761
572 -3.914142993103712 1.946917898787647 1.6105233145038718
535 4.3535447310428195 -0.25472868195919274 2.7776748798134023
861 0.6537538996742013 0.7430714902484533 5.319077169316074
860 3.6301276189576264 -3.5216972919063965 0.5881350801490705
823 2.601315160340218 -2.0824375872797214 -0.022270129245758538
1149 0.7445853852011767 1.220928528051686 1.8317455832346405
1148 -0.5717251509693554 2.4408984617867864 -2.2118726236304935
1111 -3.6585260276928873 -1.6637664350961865 -3.5393447873035533
1399 0.3860963852751265 -2.3617245140148406 1.121215330348116
1437 -1.9149051702004662 1.3945137895916302 -0.5308865605071346
1117 0.5301785026446368 -1.757018921339574 -1.8239561352800355
283 -2.3318749686458182 -2.024493302332514 2.4218165818848574
286 0.310613268273862 1.4278148005461184 1.35988258035178
863 -1.7737132627373065 -0.8919170010187355 -0.6965046112198201
1329 -3.3155794888463417 3.5033186337309523 1.90389961661542
571 -0.5988184081709383 -1.3375740198209638 -0.20954884763221795
574 -6.525575890468744 -3.855263394743295 -2.7617122690867624
859 0.641736333870286 0.8972241156794679 3.9193553853474152
862 0.8468405069009517 -2.0983203308382685 4.811110820800941
1147 3.9518219096230824 -0.010416246325529892 0.17229002468409899
1041 -2.265809186342345 3.217764535237524 -0.019868055602741408
1436 -1.026896598019929 -1.4411563575314794 -2.0241422251259866
1150 1.9963035875988722 3.4172700356963825 3.770116363616831
1435 0.8314367349323676 -2.435985092790132 -2.063883927770725
1438 -3.0315898792975036 1.830949449537903 -1.9272560574822883
468 3.2725465385587045 -2.8467554434665465 -0.3947611505353553
575 -3.4797919361932848 2.8694945251540123 -0.11267422182516622
287 -4.5119851636510475 5.07425244851287 -0.3478570131546227
756 1.0238944370497018 2.988289320447894 -2.9551756859129488
1044 -2.02270592460514 -0.4985034023918566 -1.7825808489488701
252 1.5769809162676711 2.3440802421823834 -1.1063178405642882
180 3.4186002534007933 -1.9503723967536624 -4.117018949840523
1332 0.3897428197250009 -3.2067769519503346 -4.487217714582813
285 -2.4457329808592454 1.6711942590371187 -1.315934916676752
830 -0.5452110186559808 1.298515916572199 0.3883127256460877
1297 -3.9059557089509562 0.2085755431525364 -0.16405609303022356
179 1.6692259860728456 -0.8829404944732689 1.4910468131398726
504 -5.349780402473656 -5.223371108015862 0.22132012561277314
467 3.5884123648772017 4.12114066643348 -0.251705589865763
755 -4.969189074836064 -5.519953051996755 0.31605950872626454
1043 -0.16035757304335244 -0.05535195595557234 -1.4299121611431436
1080 -0.2547977324058915 0.24196935387230264 -1.8661091289581664
1403 0.6092899426933313 -1.5022832227592784 -2.071529194951266
1331 -5.6248003572654595 -2.587143654454637 5.8971679315396335
215 2.7537130471043123 0.562810629182833 -0.49062428543973047
792 0.4535805440218579 -1.0431028896246413 4.401057843078319
503 -0.776752518779449 -4.047404518348569 0.11644378983756346
791 -1.0226122195309844 1.0488475982232244 1.7299546359215776
1079 -1.074114724298044 -0.5176812891040465 -2.8725070896748117
469 -3.970142232258878 -1.2144411520242377 0.46966016782131165
1115 2.541122107105263 2.217625968493874 -3.8216822075675703
1368 -3.0040069727317036 -5.814048425297009 0.03311753692193475
1367 -1.4616284915430346 -1.556590958531288 1.8407660524552096
540 2.4572370142558366 4.983523276552858 1.8112576500646835
1440 -1.534900404150084 -2.5540070430138884 0.4790448737812195
827 -0.45173112008962957 -1.5934497073030252 3.908799777301119
828 3.185070620124638 -0.4590730888617574 -2.220879783404649
1116 -0.29389362774810296 -1.5027205361457863 -5.36975496306556
1152 0.8286508916402104 1.4960165754788357 4.336659595326916
1404 -0.08157917962681684 -1.824928656066758 -0.4327838791229714
539 2.1257717478793303 4.775490549532116 -2.5057790041026657
251 2.7217478327802564 -2.542845781692462 0.36322323410945007
576 -4.435791921912037 1.28103124817746 0.5292945306560558
864 0.22279453808858848 -0.3606374384032335 -1.664717081044364
213 1.0074544857929357 -1.6762715754398496 1.2934395214901444
1369 -2.5500008985159637 -0.15669473155530864 -1.4320880425898657
248 -0.7914892733278189 1.1383357476972709 2.1977661317789026
506 -0.9100607299282323 -2.334820323052742 2.8244181225404645
1118 -0.9787861785390369 2.735483466471915 1.3507891050480658
753 -1.0411414617605792 1.5303526443055278 4.926672333760046
1298 4.596166706973217 2.0378667600011813 -3.2609357468259565
1010 -4.8599051026386375 0.3402853059497762 2.4255167806034796
182 -2.0198459253785552 1.410011675032643 3.5445604270526534
254 2.4763772978801053 -2.374758263963139 1.7789799103267423
1082 -4.349814053430527 1.1967076092613997 0.9753330953883332
1045 2.963422333190415 2.89525760226801 -7.861729369737752
434 0.9592786690835601 3.3833839728832658 -3.551990774240374
1406 0.5602847308833391 -1.852483000635479 -0.4749847757908383
1081 3.08405690679999 0.39966575632988655 -3.0736544626567497
721 -2.06185700181811 0.3391660908529843 -1.1740200810016153
758 0.25592310808520663 4.098524159041762 -3.7323882911891086
1334 3.6930055345438966 -4.368326199755098 -0.5999616493079566
1444 -2.5282335276953414 -2.638923152377948 -0.690637887630821
1732 -0.9180213445675439 -2.6847892985975723 1.734001245338892
2020 0.8243475546234824 2.3987418947605987 -4.12859634260812
2308 -1.3271336245238101 -3.226557696522742 -2.1168784084464134
2309 -0.3782876448861316 2.118249932011338 -1.2218017968122754
2596 -1.4446838394821528 1.1243466594918352 1.212938851920822
1443 -1.0990631979675145 -1.5635020441118885 1.2281913158695335
1731 -3.0219060073933113 0.8385626773419698 0.35065673999747715
1768 0.10435320806682986 -3.33487741859866 1.0067934602903938
2056 0.855261485408939 -2.812440250565845 -2.2712410621466246
2019 3.3803869098089625 -1.5160317834217703 -1.622934780298031
2344 1.016350618316674 -1.45078447021173 2.834889633716009
1733 -0.599582567607956 -1.2868069734850651 -1.1290004948174115
2307 -0.6727757526361879 0.09487067823220093 1.1718418395214798
2632 -3.5801123606232905 -1.346589706514951 -1.2879307150637946
1478 -0.742405812779195 -0.43046478247392145 1.4647573602578339
1480 1.2679495399114624 1.7029185637132105 -1.3038446240573067
1479 -0.48253178089870147 3.0606469594517653 4.346828697714916
1767 0.8298484113236413 -0.8301524933902427 -3.016369145910022
1801 2.3957252052783717 1.0865190142989503 -1.3962692543232182
2055 -2.165376562813374 -0.06471766572089985 1.7753627519100836
2343 -2.8787294636507506 -2.972176634679612 -5.30236123430895
1516 -3.198387718699577 0.058540725793023704 0.933570547772194
1804 -1.5879554033840653 0.917491350465901 -2.243040857584783
2092 1.4238437174073988 0.9461411025167644 -4.7241293184156055
2597 -3.648507168964454 5.244200836288588 1.4163380364276184
2380 0.8014067520626553 2.488697670628708 -3.803598899619888
2668 -1.0962004660637148 1.488458390979235 -3.5466393257132913
2453 -2.9077872379427867 2.1177855993882635 3.494605602651065
1515 0.26107654645672634 0.8293821465449288 0.32409071536484463
1803 -0.4430414601321428 2.3554414527197656 -2.9747620999605933
2091 -0.022684999274006433 2.9018111025667777 2.499469261383434
2018 -5.605002755616042 -1.2490858842189216 -0.41262906253038417
2379 1.352304812206323 -1.412523403408784 1.5674888804273295
2704 2.2242032449580535 -2.0110009514818326 2.676121693921709
2165 -1.1184495989866037 3.039597896482348 2.6310752991270707
1552 2.139523794862312 6.709596388314385 3.9737465222991406
1551 2.076616007971035 3.693019607531896 -0.05150122833109133
2420 3.1912439261943994 4.3561813031257035 1.3211046622698754
1844 0.7883867294067016 0.2440962387954166 -1.393314710221091
1840 1.0041688740345747 0.38898100304566446 0.9331577902149893
2128 -2.7716678961670573 1.694819556222372 -0.28712325720852705
1839 -2.1684210866900715 0.4763056262242518 4.891893278849665
1842 -4.037591520017286 1.8222335017946736 -1.3997182476688317
2341 1.9731493117529044 2.159693274563628 0.3680226443253352
2416 -2.5525179703741703 8.4443759842631 -1.537532682438183
2127 -0.324286795419275 -1.870383270447723 -0.6151743663082082
2419 1.4995246036081398 0.2553346709392679 -4.0138374203665546
2415 -2.589213351201162 -0.3898921821403859 0.8767424548566524
1802 -3.762224135704994 1.9613328978535978 0.7283435510447792
1446 1.1249781824126013 -0.946658136861366 0.19822563775920995
1448 0.3089119178514949 1.485137377239962 -4.151612220244316
2418 -3.1326870455400964 4.680059830725983 -0.7424312447061625
1734 -5.058986657924828 -2.4001882412286664 0.32720230731298905
1736 -3.7329862594905454 -0.8944433021899837 -2.2663142046332134
2024 -0.6685585169097846 1.6755387802505106 -0.9668235688487493
2022 -1.8288677584324695 2.0446820665710477 3.0227209358547054
2312 1.531464155304845 -2.281269790951178 0.17826228997903024
2708 3.217866178311474 0.6697212077967395 0.38093997129405827
2131 0.6315819612594146 0.7733330121037021 1.4118138672882077
2310 0.6702528587080135 2.9768304919892423 -3.3271538000845147
2600 5.310283739334686 -2.354007106418683 3.6944155079347167
1447 1.935944418031866 -1.6356391177321326 3.948541314177114
1481 2.8972781732659447 -2.183369163326622 1.8295429167431492
1735 0.8775497062912267 0.023838179498508142 1.288178284136923
1769 -2.107560403896594 -2.493179482134684 1.769563827370136
2057 1.2039081613595326 2.809017151683367 1.4316383301379616
2023 0.11869935125372184 1.0164435812105348 -2.1661073880674278
2345 -1.8099428824595147 0.7984506336825126 1.4821388966533529
2311 1.9909240241925914 2.3208495498699246 0.3976907843615044
2633 0.8460769985051959 -3.1547701413818956 -0.18041683180112142
1484 -0.5633034802750043 0.6163629814466227 -1.1123812476203303
1482 -0.7328701295291163 1.3484512001497595 -3.2301706587908754
1483 -3.85296522192399 -1.1991388797072573 -0.6842310635032663
1772 1.6464589922654593 -1.4025833401726233 0.2977791402410253
1770 3.3634218233383217 2.8293010559226834 -3.346663819578226
1771 0.28701998424150343 -3.048167444967556 1.2895170357407515
1805 2.978320623325017 -3.9586787515711452 -1.1488651260832388
2060 1.5621150839542708 -1.2797023369130451 -2.872246094693756
2348 2.1492706729303412 -1.3362452634353983 -2.9524468105922224
2058 -0.007262970602234955 1.2831898348702548 1.6171354670878006
2093 -2.419224046353699 -1.0478527547945031 -0.6640556578512344
2059 -0.15519277409312127 0.056796245992542044 1.33319019286704
2636 -1.2536518462391324 -3.101166180849636 1.7374348403118236
2346 0.4825117535959429 -6.3504698196893345 2.871415307714401
2347 -2.748771155413957 3.8690002314826732 -2.6557225566943803
1517 -0.08278582171769966 1.322449862613537 -0.33400207660867326
1518 2.342394016776167 3.306955630580882 -3.3320379735574415
1520 -0.1705938261458646 1.4259059838179595 1.905284888067136
1808 1.0428747033512735 0.07817177824684343 -2.960675514707529
1806 -0.8073593747120977 -2.9169742140918204 -3.7395122549688944
2096 1.9184221602790488 -0.2899183931889909 -0.8146657291257146
2381 0.2809681948635739 -0.32917227027336454 0.07506533876330854
2384 -4.561763067034177 -2.0226518858498617 -0.8729178299826424
2094 0.3209683718371866 3.375381813216638 -0.0891852623095948
2669 2.399046635098951 -1.6892268963671992 0.6105240885978769
2382 4.329004092076996 0.22888555281229134 -2.70914354455123
2672 1.4143294292017297 1.0144019885971276 3.2621312821989217
1519 -2.9624515036576473 1.7005449383853457 -1.0743854311538459
1553 1.959349378414031 1.0615353951907076 0.17707446484664618
1807 -1.7102649759626805 0.32230911249754446 -2.2475654803575593
2132 0.014388159763265204 -2.68649550996736 1.4745105813612998
1841 1.4516880371382908 -2.8389094730514675 2.4194598039098127
2417 -0.5163982268249726 -1.4054390755497135 -2.1521185668023826
2095 -2.498046142848564 0.5093811638099669 3.8403750674273165
2129 -3.5229083743822867 -1.116289108202894 -1.8379925286667647
2705 -0.76515872091548 0.7992857051038021 0.3783625080083462
2383 0.21342214205256407 1.64441121341423 1.6628824645058538
1554 -0.3723830394008216 4.1064927978028205 -2.299148921567171
1555 4.497013590199209 2.5494290853299675 -1.6724835716507764
1556 0.10796514003691732 -3.9383607367012834 0.2592154024396428
2130 2.2791130592749362 -5.273009012011574 -2.7640844798251534
1843 -1.8516818156977282 -5.1048414573191305 -1.6927189243484126
1873 0.8748524008264704 -0.622429040838178 -0.8119463106134567
2413 2.5056191479069296 -1.564175449798867 -5.655854694627329
1838 1.4638303856658865 0.8467200929112108 -0.28493422442663163
2701 0.680747748876192 -2.103121241880353 -1.5708247703136236
2125 0.3939335728889588 -1.2567805931053517 -5.861688788016786
1549 0.5364970307541416 1.1429501707030514 -1.66107761644693
2053 -4.830830722158373 -5.943455469689363 0.9699812521165257
2090 -3.0268881111184958 2.7923483898723607 -0.30652286527064965
1442 1.3351158565957053 2.1306666009648376 3.4545758458964544
2089 0.5983129409019853 -0.14529452763303152 1.2990739698119154
1514 0.2803150667872614 -1.1012364921285551 1.6076000283590421
1513 1.606573662905598 -3.658102069678389 5.535833914595591
1452 0.19245126490169065 0.5981463935108255 0.07150900481414371
1450 -1.244271072984519 -0.9708111889295787 -0.07186075895915367
2601 0.8393607745461614 0.29629726263973216 1.7749653864828419
1738 -1.6189984115595195 1.2249019568308204 4.50929660641711
1740 -0.36891633987732403 -3.447999245937829 2.335035215127525
2028 1.9395019832846596 0.6365254026642183 -3.526488209542618
2026 5.197718488274891 0.5817919394961155 -2.2524408653260752
2316 -3.6587248238649996 0.6968987236113638 1.091771273501573
2426 2.1856640950216724 -0.3049933354650316 -1.140224240079433
2314 1.4997840803116953 -1.0020754379983812 1.2467277238778658
2604 -6.316473956106158 -2.420311191093599 0.6108458367234036
2427 4.3309359672837395 -0.1916521903516537 0.37874298816401325
1451 1.1751559856353562 -0.7051094184425617 -1.3548706030026096
1485 -0.21882627995207482 -1.1879162727714612 2.075355776861213
1739 0.1642493508581426 0.10179690536562927 0.37789204625141953
1773 -1.5409143832657999 3.334947401057675 1.5179617979184064
1776 0.8613865109506655 2.316458599500383 -0.39311585114217346
2061 0.4687216432974532 1.3905314688444235 -0.5944500789127127
2027 -1.4424529153673302 0.807274369990482 2.8343967356954045
2349 1.011894731947544 -3.3008646167082922 -1.5490765000911595
2315 -0.33230804912198736 0.9437675188660841 5.813238862465235
2637 1.7677241715643863 -0.2831111672991627 1.578636473914444
1488 3.394210060916646 -5.441183401967583 3.086363985549412
1486 0.2549683975097713 0.5017408148677117 -0.4804407456861198
1487 -1.7160014762836358 -2.387163593364086 3.3936557816386994
1521 1.178151857925038 -0.8793552049632068 -2.5745467752167683
1774 -1.5095264517542508 -4.121880860190666 2.308935622300178
1775 1.2197366313928357 -1.454576845911454 -0.3552611166213528
2352 -0.23108183236385912 -1.1735930315774856 -1.011249536588481
2064 -2.638039692472074 -4.9341666948549205 -1.249894291594318
2062 2.7170478199790975 -0.5866426876974958 -2.466658378712164
2063 -2.9581392020045776 1.36186175936071 1.8752949234284677
2640 -1.6332924761163332 0.47574026620882753 -3.891711145187356
2350 0.5695741899702222 -1.1489508155060593 -1.3771993465638572
2351 -1.2525804399016756 -0.8919945623452012 -1.9243776978156528
1522 6.057840611501615 -0.36815940118321683 -2.0388187376919706
1524 0.5954489688439021 -1.1351577803921709 -0.7404834635468959
1809 4.394421288819935 0.46546110705792065 0.7765059935220914
1810 -0.7018242839049254 1.0880737282896196 2.9926586030674267
1812 1.8081220531649629 4.861050079280549 0.02103767902369491
2097 -1.483338129355132 -0.40453028766295157 2.063101750920205
2385 -0.11612531327293729 -2.2644515926115156 -3.748596093177347
2100 3.4684298767933415 -0.19845232654596237 0.9260898278074874
2098 -3.1465819435952693 -0.5155534203977733 -5.014019695790636
2388 1.488317743814269 -2.5657460102438194 0.9752498578741967
2673 -0.8758676827368357 -3.6318997649089986 -3.8932242765959586
2386 -2.0793638034925275 -0.7234351063745013 0.8366801775689033
2676 -0.5683068841116033 -0.6994163450698017 2.285680463844042
1523 -2.6802722928081693 0.9678019019465399 2.546785905482731
1557 -0.38846169434295574 1.9028087967089078 -2.3178467114432864
1811 0.9811612660092698 1.871501541035939 -4.045960148181133
1845 1.4929933471573895 2.1458985535253015 5.252599195321663
1848 1.7059544162661406 -1.1595840482242308 2.9325965520122943
2133 1.2196602855775287 -1.238703976310366 -0.0660014678274097
2136 1.027716165800424 -1.7282342734415204 2.852818466394084
2099 -1.2503623167063418 0.4248457549480355 -3.7162574089644806
2421 -0.6947822717659738 2.8236492150439454 3.3088787627196123
2387 -2.769148936605994 -0.9083905894655439 -1.585295896583327
2709 -2.916008356396054 -0.2601814325881815 -0.14677959799525514
2712 -0.3816698654901545 -2.5008595002913823 1.5743952163289008
1560 1.4917730991714482 0.7440835493445755 -4.04997569224829
1558 -3.696590170785999 2.6802797030504655 1.0037122819175686
1559 1.673223391093781 -1.5769764272039086 -0.42841168561370585
1846 -0.8540574340709897 -0.5926159088353756 5.389351824779435
1847 0.11827268020491268 3.583580846583853 1.2376430828296088
2424 -6.13937713101741 -1.1964043992064457 -1.0490707154813546
2134 0.6372232876261363 0.7520977929164145 1.4684049233256866
2135 -1.6315743968291665 -0.016213917912385547 1.9778062863702341
2422 -0.2678357003198856 -0.729691273929885 0.2730575463661972
2423 -1.3000537977573394 -0.049686877568069276 3.829067676000971
2139 -3.4192952551837315 -0.5397418494593421 -1.2114696439204198
1454 -3.036128140645495 4.087226823480265 6.049479186638578
1456 -4.42746507311427 1.6508098946088605 -1.2312072975934314
2138 -0.21187198857841766 -0.8583517907064871 -0.10639652219810206
1742 1.1988639245284776 1.753503278318893 -1.534524445463545
1744 0.6090258373000869 1.5340234662077483 1.9026567882243044
2032 3.2761934255643226 -0.7447641478424883 2.1702228880995698
1881 1.7342901798502963 3.8767517373186875 -0.4126271167905872
2030 -1.9306052440497188 -0.4138557790983295 -1.813726220494002
2320 -1.4173659760579032 3.0156051618395687 1.6092321095258248
1850 -0.13851117776022548 -1.3780917250034326 2.1707394718518738
2318 -2.2600938898531044 2.3384359029561863 2.671686827369918
2608 -0.07601590703661103 0.5070304235493289 -0.9960493229252181
1562 -0.1300225533937587 -4.28817911554854 -1.3603575414312727
1455 4.988090818550027 0.9734780043551892 1.7228974506097396
1489 2.8177672784869734 -2.1196790322055956 -0.566342252292562
1492 -1.7379920945381726 1.2168846588710214 -1.428573890210393
1743 0.9740900717232903 1.6327519746795516 -3.5777987771873927
1777 -0.5114054559376312 2.6124605200310778 -3.6919293287409123
1780 -1.3486432385331677 -0.9808142845892854 -1.6736609726180085
2065 -4.003068222733596 1.514745440544773 -2.069471505000689
2031 -0.7058999408522465 0.9005352310303117 -1.1290230219846025
2353 0.11573589917618 1.4714729084247715 2.2845277942435285
2356 2.450782197854147 -3.0866631185475635 -0.915519255108568
2319 1.074957946403148 -0.3994220192829543 1.2754199356564273
2641 -4.430287880536778 0.8821556092057782 3.44330181704668
2644 -0.19185659017410386 3.1109375788660705 -3.723790545445576
1490 0.7478290215118577 3.984037110877465 0.010805925245937023
1491 3.4047684901200572 7.570568754989333 -0.3855582438080644
1525 -2.3196124636477404 0.6280262085306226 3.048693499324601
1778 -3.742607982470214 -1.7908702717874414 1.487416867731241
2068 -1.8405497747982118 1.446383615833082 -3.229620200852553
1779 0.952044684730358 1.9184010903416424 3.0607410926378233
2066 -0.5039916577888933 0.6937776314918349 -3.8323297558830323
2101 -2.8756917513436955 0.6557285754888527 3.4452154712311356
2067 -3.178689746100734 0.7897623118999565 0.29228945985962124
2389 2.7069452787416317 1.6410424973410103 -1.7662910260718176
2354 -0.9293721874159735 1.799166719755104 -4.8219817588210745
2355 -1.6126717600691747 1.0460971777593748 -0.06645474790531067
1526 -1.6574685823513418 2.0659235803136116 -1.8733623963397998
1528 -2.420451990780275 -2.1100476036874194 0.0530520040273972
1813 1.992493158962366 -0.5604399057723801 -3.9942209423783144
1814 5.798865639991838 -7.02240392491311 0.5706007994800121
1816 -2.3903679172806895 -0.47800144971660097 2.454633576487303
2104 -0.5442992340261078 3.772353739616037 0.40824368388737303
2102 -2.9585044442676995 -2.19255826936829 -0.40883506301415085
2392 0.9672311131923044 -2.139296267281716 -1.6391834685890512
2677 1.07451606267397 -2.949629149627175 -3.277680017625729
2390 -0.9831001466043405 1.1522478362857456 4.487315555995171
2680 1.921492529141476 2.5122392787483405 2.495517891215314
1527 -3.9408548861312243 -5.656260155177122 -2.777992058763338
1561 3.368179897028736 -0.37833177885487757 0.4099670784355356
1564 4.73298719481524 3.160543149567603 1.1080258992235992
1815 -1.4660885525944691 -3.0699593666573373 0.7855174587749177
1852 -0.9258819749842919 -5.781154636564926 -1.5387906358195267
1849 2.2455292302160204 4.811612052668466 -0.10918246393419136
2137 1.208159228372123 -3.303543752798085 -1.71563542063652
2103 -1.2408480029184057 4.865943458402034 0.3829015764440106
2428 1.5251170454352585 -0.8141002075043902 3.049876937404574
2140 -2.019242098783114 -2.8810600969291307 1.9098689106170734
2425 0.9685001251879787 0.38726584380323253 1.013797821756146
2391 4.359860028385138 0.062194927910166176 0.17909499690261727
2716 -3.8915370455570004 -1.6972318691352513 3.0118569436391196
2713 2.9769878850626865 -2.274648515656102 -1.824038389453543
1851 -0.5727167751581856 0.19655899784620318 -4.979653527384901
1563 -1.543904229765786 -1.4906803358783198 0.2276225498412407
2317 -2.5528762308631308 0.24849731454187515 -1.46947363054462
2605 0.06592081743219913 -2.577281224481818 3.547472151719656
2313 0.6055061202516346 -0.2697592884260572 -1.3651533988764317
1597 0.44585925571358787 1.7029406566265262 -0.37149641585686266
2457 1.0659177787407863 -1.8734828557442078 1.487608095842553
1885 0.3496844483525784 -1.5061137929550419 2.827852140225584
2025 2.3827516674696128 -2.5483060776583346 0.8002563311605999
1593 1.045807701186363 -2.285750027975651 -1.0154889976875263
1458 2.5528965477694454 1.209346043146258 -3.5907470585574743
1460 2.6066984884640068 0.12796163463346028 -2.006427469449712
1746 0.29095640890449376 -3.004129466426444 -0.4356842045867755
1855 -1.6428100023464636 -2.5016938081773334 -4.061599173218455
2034 -1.3274067868313206 -2.066461273807122 0.07152614131964874
1858 -4.616551743548951 -0.15978790800636414 0.7934152408678034
2322 1.2879613645550563 1.2407708751758013 0.3435067368754285
2612 0.5154319376505778 -1.5914736492409858 1.9249968311249106
2143 3.0399957933419883 0.3856823632168234 2.144591250205836
1493 -4.599489296545505 0.025039315566127752 2.3724960402999846
1781 -1.2414105326306508 3.8961424365448325 -1.5380022171283885
1747 -1.5749677309285985 -1.3551106817818077 -0.12734836355797624
2069 0.029164032406748697 -2.2715802659854547 0.8392732579054778
2357 2.0937490514458617 -0.6259182775761322 -0.693790308555802
2645 -3.820785180441803 -0.660823299217489 -2.390577804069537
2323 -2.564664218822925 0.39667526628968514 -0.4030763286619149
1494 -0.3919967863373478 -2.6933783587639857 1.1738609385126852
1496 -1.3904318246536336 0.8614629457038776 -5.9200079203130604
1495 -1.5845008729063559 -1.5702701980952862 7.666616896178355
1782 1.477929261618862 4.140187466976805 -2.1599628472517214
1817 -2.835749060583674 -2.7526634495361635 -0.014476182594835104
1784 -2.437403690969593 3.9087135738809473 2.392840489362501
2070 -1.9193582453803406 0.6585226257801781 -4.918682305049329
2072 2.2679359453025714 -2.0063761589621008 -2.475195502211487
2358 1.1596387851274244 -0.25273968346175857 -4.078915329356539
2681 2.7905644391978917 -0.46909603418897905 -0.15869972260656487
2359 2.0896263261516097 0.5220205303529399 2.9118915720052394
1529 2.2793720104838 1.6984588267803538 2.874198920651695
1530 -0.18882386619896427 -0.3813303657078964 -0.23320337763069734
1532 0.08328080953598724 0.4706934230824688 -0.49751187115785356
2105 -1.8247858789357931 -1.2154879846727733 -2.5051806625054893
1818 -3.1363751127493793 -0.20567343477057798 -1.9561384205322356
1820 -1.1566103413858047 -1.7358615662962589 2.016641280049363
2393 0.3051027364310677 -1.8955136604077205 -1.90932815031412
2106 2.072586352565404 -4.091266345218744 3.133958314678129
2394 0.7688033269492154 -0.47426803985802013 -0.21611602023341742
2684 0.2426830645051257 0.18160961111121948 0.8187564588271293
1565 -0.6421188861133164 -0.40730824256360293 0.482836745327601
1531 -0.1465963618441444 0.18231328888049875 -0.87558605470153
1853 1.9934362597381357 5.690660009906229 -0.11841231386091716
2141 2.8104048066458693 -1.692441020373879 0.24789453470637549
2429 -2.238951862005548 0.32475684868445337 -1.0001840509347177
2107 0.48249564476766965 0.7593082173099436 2.7542193915267488
2432 -0.12040929297330415 -4.235848229714887 -0.49972127037792907
2395 2.1582906885052044 0.6605983527516196 -0.12078388593967725
2717 3.1036220787520747 0.709507324183769 -3.1534427313023294
2720 -1.393341992907899 -0.8789118404509279 0.9076626412923482
1601 -1.950071185611972 0.4574951193563886 -2.71922347687021
1566 1.5785545009214088 1.4722776599720826 -0.23851606301434292
1568 -2.853155216277933 -5.124419048908342 2.474639706837678
1854 -2.3731337419082528 0.2566414332375961 3.8776978947519667
2142 -1.7923099201521933 2.058707230304135 0.7030092566813834
2144 -1.3965258499043038 3.382146266993178 -3.469109685513381
2430 -0.9278577101419145 2.3904873702633265 2.6014182110313895
2431 -2.4384419423217834 0.1308035316110317 4.901946171435922
2434 -0.6332140420092972 0.7196365797979672 2.374923768298589
1462 -1.2893937577197683 1.6637828160475616 3.8299180419980097
1748 -4.709558401674908 0.3828763517913123 -4.4873454708484175
1750 3.327033797734592 -1.7316500054361366 -1.7822679300157693
2324 -2.064934667578786 1.5633020913925204 -0.19373969165339178
2146 0.860506454174883 -1.1522280931439313 0.3542236786477843
2036 -3.629731445192338 5.341228974676327 0.7818950543617942
2038 1.2500673710547916 3.7823812371273395 -7.043657252979821
2326 -0.7326862961261958 2.813467883088119 -2.5880288070787656
1459 0.09218201019416475 -1.4204261941770548 -0.5277634429956632
1497 -3.965627826126586 -1.6612085284129026 -2.1790466680162712
1785 -0.17004897564576008 1.7145341009991 4.116074452378022
2035 0.10103039849413739 0.20907239855836987 -2.5916799274245204
2073 -2.6403363284468035 -1.1311000279150771 1.6803512011342847
2361 -0.9479774187098619 -1.867501050154955 0.02168204930208629
2648 0.07960411867113268 1.286577896756382 -3.082935866142847
2649 -1.853909779147049 -2.539877569135343 -1.5545338651909664
1498 0.0013594565911931274 -1.6451906988480056 1.6980176848317818
1786 0.7866354904186332 -3.10306420271758 -0.2437398228017836
1783 -0.3129932694401796 2.2780274280526194 -0.560997935150881
2360 -3.5751427373929383 5.162787868644899 1.8369178685595997
2074 -5.234622829909938 -0.9952732190268465 0.6343313306438206
2071 0.1909980699460416 2.995368932724842 -0.4603836589438939
2362 -0.24296055283967638 -3.3360622397263917 -1.8453554479871828
2685 -4.383778532654734 2.7048756230676174 -1.3822504783856568
1533 3.0596989954792946 -3.8755467106191515 1.1454192970866015
1534 3.9755685439827384 1.1832809970031146 -0.9211099739569987
1821 -3.457295738542208 1.6129095219622083 -1.5042526751799152
1822 0.7181413324834812 3.3840715769718814 -3.8365568239176153
2396 0.7894396006217643 -6.803716742395544 -5.836446761600221
2109 -3.2161831263939886 2.6548514060671833 3.198274971754405
2397 0.21974263625534907 2.776653161677088 -2.2244158161162306
2108 2.287942586488817 -0.009950834062062854 0.7966145944492726
2110 -0.6745966536015511 1.0894742629754504 6.284038105229661
2398 -0.6208320462926454 0.8692479092365719 4.685626135257732
1569 -4.050735586272464 2.0884334781297325 -1.277093083864677
1856 -3.89409643468768 -1.862449288274311 -3.2367811114786242
1819 -2.6602620041641036 0.8340807737286169 1.3877713251187664
1857 1.1687352499544053 -4.160396470786871 2.7832902055267805
2145 0.32809094032204766 1.3801940059154645 1.7840101338573682
2433 -4.134614028811723 -4.353006748120904 -5.117967464057776
2721 1.5214616958823715 4.363495279405031 -5.855368743948573
1567 0.6388628924834496 -1.4055713655543616 1.8582963014142984
1570 1.2091740085433338 4.0311860640032595 0.17258077691756366
2465 4.513108357646079 6.1961980024395 -1.9122422153566445
2321 5.390145382946357 0.18291527931239074 2.734528031579571
2609 2.1751347007717423 -1.41958929627183 -0.6510134184413214
2177 -4.621204046779111 -0.5551031882158112 3.2314106222152703
2033 0.901862044997053 0.7085193102714595 -0.25745430000799646
1893 2.3735716077455105 -7.544292242632674 -2.3287538925638915
1464 0.02163409260905148 -3.97938778266203 3.36039538607418
1466 -1.9908926226450803 -2.6205433592800036 0.7635589714250998
2728 4.491139239840862 -0.2001174133049819 0.34753730755799245
1752 -4.513860474352726 2.097548421751728 -1.6262508429218234
1754 -0.5643278514197189 -1.7896514589115742 -2.262412677327691
2040 -0.014990698325319513 2.8084512794486978 1.3300706621756728
2042 1.1390744422402708 -0.3951152696458831 -1.8026255818351447
2328 0.5074190968314594 3.0211884464177334 -1.6635352221287754
2154 -3.4336700939592846 1.6558973336295004 -2.251335552208967
2330 3.0239461462399633 -2.6953792557203076 -1.0394643617790587
2616 1.6103556608098346 0.07410724804347424 -0.29792053730798895
1463 3.6177549496241257 2.1775850987165972 -1.7390221729249369
1501 -1.3904727704662032 1.7516063642426791 4.224749969460534
1751 2.3712097241067265 1.4981067413489386 -1.6660053861293873
1789 0.016398113428312093 1.9705711997441107 -0.9453006712395804
2077 4.032852837057852 0.949534256396017 -0.7509135452443648
1788 -1.0419699957189579 -3.3474627407412836 4.490168572450267
2039 -1.986115755785915 1.0231288550526045 -0.43377988368646164
2365 6.05118967856705 -2.8678902885846402 1.5576636547737461
2327 0.6530267103116895 -1.4763765588115536 0.8966875241935284
2653 0.7130770623904835 1.0275159535901024 -4.263286834381118
2652 -1.8561620122760678 1.037789680802071 -2.841535522678037
1500 -2.494713387171687 -1.8958094312820803 1.7528229338868144
1502 -0.9157626872560215 1.1073957184118854 0.7729755776437159
1499 0.14885722621219452 2.70495702232346 3.4989747581416215
1790 1.0776376955178362 1.763284749465492 -1.0770802329727596
1787 -1.5747241840942945 -0.3789639299077618 -4.8746015810468
1825 -0.7740552620861278 1.5759905477136302 -4.743307181032488
2076 0.09151960112906375 4.996427058669014 -3.3233084291530313
2364 0.5301383804112025 1.2949415700184395 -1.6045238256993537
2078 1.2211842380477722 0.0014976500528972208 -1.9433638316896449
2075 0.6051899200410039 1.2480889545644132 2.8470596034600977
2366 -1.3775644722376155 1.7092188015310021 -1.5119478534165203
2363 1.736245726417555 1.1057770526307915 3.8996187019311574
2689 -3.3046927038886347 -1.0895988897263689 -2.2471027534590817
1537 2.6279006848478215 3.3059622983879793 -0.7300004916230619
1536 3.2817838037442675 3.3124950712953236 -0.551117520762597
1538 3.1386866088244805 -1.0265227372375187 -0.07781157497907785
1824 0.8943187091771199 0.7453111176825536 -3.219767840934401
1826 0.7274520431232594 0.4962759758365055 -1.8298185890505405
2113 -1.3257815525382095 0.20893328520170934 0.3247072881254191
2401 -0.8138985129960541 -4.594609899109366 1.098173118671459
2112 0.29678362903606553 -2.7134469886434225 3.865101085416752
2114 3.313956829355821 2.5458183953579803 4.156783549011481
2400 2.0936689742235255 -1.8694548549843955 -2.6341121015522297
2688 1.5968578421563053 1.0525578400954387 0.4817801337676427
2402 -2.2692597142235655 0.23835684539161914 0.7979531460903793
1535 0.6080031020483827 -0.28794125373315815 2.5029322962647527
1573 -0.4944841531405244 4.45694908836935 4.1381750474952845
1823 -2.737991500087069 -1.2890883853193094 -1.6161581576199173
1861 0.6578815768646622 -0.9213419724951941 -4.842153618392381
1860 -2.301160317946597 -0.892628972002653 1.8144931476541901
2148 0.39656234463307255 3.1187718357524314 1.5965464083635887
2149 5.428920322871191 -0.15666318109542707 0.7526708575368436
2111 2.7595677223680735 -0.9879345432716683 0.07477187589029187
2437 1.2040730303758016 -2.669489891298543 -2.101847061646322
2399 2.08260593835453 -2.5695063078576057 2.0306830989771454
2725 0.4154605619515106 0.5165421215351984 1.6710808968047424
1572 -1.4708745302200272 -0.4641633990841265 -0.8209349006615643
1571 -2.676628077878722 -0.05772414850058403 -2.801691815842595
1574 1.973947027092935 -0.19526180894529027 5.256244223941258
1866 2.4872335778427495 -0.9241939871263456 1.3755008095125039
1859 4.064699281014055 3.8109762387848343 2.838599937954993
1862 -1.951735383669985 -4.34246130553957 -0.8117690465048835
1901 1.674090724032307 -0.21410665839368914 -4.124707535292194
2436 -2.1336586667115642 1.0797996573225856 -1.4966542565402903
2147 -2.779952810689972 0.549235238919773 -0.7836415366793775
2150 2.084092507943224 -0.07602667156321612 0.7420388273627493
2189 -2.1937159523863983 -2.1237139379841414 3.9756499140354093
2442 -0.4570307072740702 -2.0662633932840175 -1.988775627943969
2724 -1.2908730254129177 -1.9188375150506944 -0.4106515101811234
2435 -3.5869668239932517 2.5291104029498515 0.21065201587567586
2438 3.802618464126077 0.6167825951698477 -2.3893097564323966
2473 2.281374612015397 -0.39216470514955376 1.448355869390702
1468 -1.326847764437052 2.1968483390101996 -0.8156840508729913
1470 -4.470890790250032 1.2118602634893523 -0.9422335569186795
1756 -4.507702880158552 -0.6023890918851929 -0.3804645956892578
1758 3.827547832612193 1.1670417783306082 0.0858673651217056
2439 0.49122592274821336 0.5552843187286446 -0.0770692275554136
2044 -1.7307621645759885 2.1121724362655776 -1.6889022826011644
2046 0.9478259580077402 0.5401535294363567 -0.09662117181888911
2332 3.638358600950962 7.104895219523915 -0.8393334930210342
1863 0.0947407774566501 -0.7519612811696575 3.1163545881221184
2334 -0.09921171054309914 -2.6772848762480863 0.9119590622891905
2620 -1.9254659507493193 -3.5006323145033 -1.2409614039315677
2152 -4.8801657943399315 -1.7960928441066997 0.6130124090130015
1467 0.3111821038795458 0.7303687016595244 0.6458510428578625
1505 1.4111001364183606 -2.661495566541163 4.2252364475703095
1504 2.4625882137677553 2.1041670914001718 1.6321350058749498
1755 0.6994643255232154 5.8580729261050735 4.003267427417924
1793 -3.9446221322240502 -1.526889477798755 0.4274868802417042
1792 -2.955299696981255 1.8592291332459157 1.8890121848520522
2080 -0.18861907683490392 2.714650117763889 2.3270490121007774
2081 2.2259224211744244 2.222630831102279 1.8096763647315666
2043 1.6129572125499405 -3.1869441311469195 -0.6753378930465135
2369 2.6346957819131775 -1.6851583195736888 -0.3450196931610872
2368 -0.2866222234402972 0.4985317039720408 -1.2928388658728591
2331 -1.8496860837133573 -4.4795319531192295 -1.5994882088596194
2657 3.3688297769946205 0.7420347499946656 0.39722043693987114
2656 -0.7828254325161206 2.0404299524306726 -0.39640291003329314
1506 -3.225468306251485 1.0570539671015142 -3.085621959883398
1503 0.1826580508011295 -0.5777788489912739 -3.910189658013124
1541 1.3303383757233944 0.2361967202047632 1.8637423198621756
1794 -0.37032601998670445 -1.323072192996142 -3.799291237993427
1791 -2.8809446118419224 1.4554587666759495 4.779550478562438
1829 -1.5642621562843717 -1.6785836619649084 -2.3871419443401587
2082 2.024899726769028 2.898326898121642 -1.2386303648226868
2079 3.117289930927968 0.9442481964002478 -2.7701671912000543
2405 3.6431528254743673 -5.051935937145081 -0.9616137414720511
2370 1.6455161703145609 1.489372426024455 -2.612670240549621
2367 2.7623914063860697 -1.4389537279572333 0.024638411498694678
2693 -3.2286203072145585 0.09628287586271707 -1.1101177401541469
1540 1.4662796475785338 -3.519733600304186 0.42918977115340057
1542 5.083560832035623 2.287169785974396 -6.437480782702488
1828 3.909637833085179 1.2003411585545447 -1.3996655210338191
1830 4.119508020595054 0.32545076128135786 -3.1870109039032037
2116 -2.7016461960886127 -2.2706912855547983 1.965026200664996
2117 -1.5849142328120864 1.4800870846209067 -3.3250931588577988
2404 1.6547637361100078 -1.3830478458413566 -0.3866643138526935
2118 -1.8526002589224007 -1.926313915128557 -1.6816754868732828
2406 -1.792543852581359 3.189253338460019 2.462740079848441
2692 2.094138647121836 -5.300867404150368 -2.377542840213891
1539 1.5959387182286497 -2.437549981524192 -3.0291678402082236
1577 1.0961704928088847 0.3594421783049076 -1.7834022475548252
1576 -2.0508773861437026 -2.3631789492580193 -2.065835592701079
1827 1.1634988412092304 2.3622275852310843 -0.40493645759755215
1865 0.1992327948331201 -0.3456430195911428 -3.6078455869362895
1864 1.143574944985916 2.726862648219089 -0.5311982417968397
2153 -2.279433395635929 0.6356455190001956 0.39003277906645334
2115 -4.585976060400844 2.659560330362736 4.022862197071615
2441 -2.5819958400861585 -2.065850857079621 0.8981631488262309
2403 -0.8505394123263132 -3.1201866764120303 -1.195270240560458
2729 2.2912556550171326 -1.3337062405538433 -2.3187243696151465
1575 4.574899164759962 -0.21234345831438667 0.24650539284971826
1578 -4.401748770277718 1.7654964384380296 -0.41408805085562417
2440 -3.4074135516612456 -2.023279527292655 0.5853477785875181
2151 1.7417271973824566 0.9402311269671207 -0.9109678854059535
1472 3.6506680508353866 0.22887914273226 -2.3825213141571004
1474 -1.1095838451675846 -2.1436772637488617 -0.20062159394373785
1477 -4.790110778093149 -0.5133404499531474 0.20643248838819767
1760 0.7622339111321438 -3.024128109588912 -1.6381352768111133
1762 -5.613454534071007 -2.5134871475740606 -5.610504245352249
2447 -3.347489869235562 -1.9535417398860244 0.35390814981706875
2048 -0.6534379909324772 3.1231382521023225 -1.692495521807593
2050 0.5859602368066872 5.78055039083797 -0.5711754385113249
2336 -0.4491649141778721 0.17922922413928363 -1.6003803842851658
2159 -0.6647327366960437 -6.733696872908092 6.555852243059586
2338 3.359464955251667 -1.0535203756557157 5.069369648903833
2624 -1.1185540575799928 1.7384944544829717 -1.9906741703182094
1471 3.0916976172710235 -5.754540540621217 2.025989573456078
1509 -0.6131658828353802 -0.29910368160734246 -4.422709282380798
1759 -1.6701639238423314 -0.34017148058722224 -3.759443101310154
1797 0.040413510547044416 -0.7900775940947876 -0.8103368304902969
2084 -3.6474004340777317 1.2619767710093799 -2.984955748994067
2085 0.846997334340897 -1.2722039356838808 0.18268131178183583
2047 -3.1167633589009696 -1.3511280456744215 0.2209210248626608
2373 1.5644518034652102 2.4477134816516957 -3.055198722711083
2335 2.0691953784999617 -3.4960129418550747 1.3901698887665448
2661 0.20149051473676113 -1.181723987245252 -2.1521163174277382
2660 0.814348220072795 0.7478792592583837 2.0088401392758803
1508 0.09350118377342119 0.2088137261358526 -3.073261150344096
1510 -3.4893034250542025 0.35563181784532416 0.29413399902449383
1507 2.56402790492183 3.466224509148565 0.06012938270420186
1796 -3.599840077341087 -2.078526269045943 -0.9012719405501146
1798 -1.711933632284457 -0.7237331960622312 -0.8919664103553524
1795 0.6224468494295092 -0.4109269425320913 1.488976202040093
2121 0.3319216443312804 -1.9225186591489458 3.7838985998632895
2372 -1.9168098812309182 2.03060197695803 1.9128213718348746
2086 -1.5354626450768878 -2.3601133939034065 3.520626074324861
2083 -4.077137680808276 -0.08810791426766283 0.5932988004106761
2409 -0.8022949727397791 -0.4414141696287021 1.6044763811924725
2374 -2.6425985819623174 -3.3568075529326964 3.4879608499595247
2371 5.014016453812888 1.790098690752488 1.6470176993344436
1545 -3.6879166004454906 -0.39557627562683745 0.7750202748874204
1544 2.9947932617726654 0.42152473809557245 1.8373965686205385
1546 -4.537398818079136 -1.9449403269528704 -1.5675918326317675
1833 -4.291308093701476 -6.0011952570390195 0.1758751260462958
1832 -1.2145470202527586 0.9114852086902868 -1.8985470373066284
1834 0.3396864043917851 1.9275785591328627 1.4390204930624715
2120 4.2302147667749175 -2.5303505988585995 -1.0481089307460076
2122 3.161782483751388 -3.599608445927247 -3.5813717444732807
2408 0.365938098593113 -2.4374429752252693 0.6895158758910204
2697 2.948029372626606 1.8623490744498912 0.40625198450479805
2410 1.638677096345971 -0.036630457549253856 -0.5582761531414021
2696 2.607404007970259 -0.42649585516186367 -1.2474902698877761
1543 0.024518472126433998 1.0189477776246882 1.8708948505229053
1581 3.5617307865108927 -2.407854845070545 3.824827433999909
1580 2.512811593884801 2.1486086760104466 -1.0925322547616994
1831 -0.31813607199846006 2.4057599538545182 0.4720747708883432
1869 4.61543061323291 -0.29514112101092665 -2.810959759051847
2157 -1.6317804046259552 -0.8605962147072739 1.7292554965103273
2119 -4.4959929292847685 -3.1985704339632575 -0.9316195092634285
2445 -2.394162890286702 -1.306347688462851 -0.759954137251955
2444 -0.9430388433008364 -0.7494552573488117 -1.176782415125273
2407 -0.4853132962367442 0.013776714153109784 -0.2842346507058729
2733 2.5342726745476685 -1.1142983126271997 -0.043273977924994725
2732 0.36861491912917027 4.694817781165869 0.9645118510685736
1579 -2.205430533609458 -0.1322327165213717 -0.29565947031280126
1582 7.431145279573796 -4.83668490142293 0.02280627968926511
2449 1.5053434897035651 0.11095025794755464 1.4205883313894578
1868 0.013681205453093401 3.388228402656069 -4.351978992052373
2156 1.5898773784815976 -2.7762451553005323 0.4865327749100066
1867 1.7947284933815746 -0.1764314716192298 -0.8666717873132702
1870 -0.901853552925328 4.276171293205519 -2.1482984008452437
2054 0.5311778351894078 1.4423651285983212 1.4565430908066141
2155 5.816871294015624 2.9587701329637044 -0.5027558121673584
2158 6.093264988422704 2.6373850344833967 -1.3454635586062693
2700 -2.8844399986385936 3.5008117530262624 -1.5098486047932125
2443 1.6380009223076606 -2.716729490176911 -0.3938434777706386
2446 -8.202393747345683 -1.5586535762335656 -2.715154545999734
2412 -1.1618991867289092 -1.1485105305930146 3.7186091581449907
1871 -0.03211534045728668 -0.5328588557217603 1.5090665454252514
1476 0.8052126681946424 -0.2173119663130498 1.8098430210082117
1584 0.7047285227776353 -2.3835479207414374 -2.4185793783398757
1764 -2.9115399206275634 -0.8184865645771626 2.8681023951543554
1872 -0.596165688127801 0.05599754728463474 -0.7437992172346883
2378 -1.8371959980649426 -2.2195837143997914 5.502219971098842
2052 4.140059478860681 -3.3588280311156558 0.5089784805700364
2340 -1.2411684535114134 0.5817460276516265 1.9507298274983862
2448 0.2324127100076663 -1.0341469898230238 -3.8763961891731062
1583 0.5216375555932434 0.6712596347439487 -4.507618451813031
2628 0.11093387388689914 0.6533426781720097 -0.561109516029998
1475 -3.9087690271753135 -2.110039955281362 1.1807841376957577
2414 2.954770032678512 4.6415926832490495 2.1530659734510453
1763 2.2125414696322507 -0.06587870910592718 -0.42279646212103367
1800 1.597554519942519 -2.8507834441968103 3.2337607208317594
2625 -2.7179549410306554 -3.747150630058096 2.5445240977406463
2051 -2.9752392328674797 -0.33034261252004044 -0.9903487811341739
2088 -1.9130197925450905 3.6418468951225735 0.4563873159969477
2376 -0.5997685115030319 -0.0736632312093666 -2.598241872943001
2123 2.577222044115862 3.966618700439996 2.696204750934551
2339 0.48446489491091105 -0.8505459264616921 -0.13978338416432445
1512 -3.1791133609561935 2.0522890561845926 -1.1989694018062835
1511 0.821781898952926 2.959870032564665 -3.966149437787446
1835 2.861229244072697 0.7503240395082652 4.540278178328613
2160 0.021269411888467638 -0.5531281541044435 -2.1259429485092487
1799 1.2250910577072183 -2.4923757759945904 -0.24695432229173445
2411 0.8229078779515959 -0.08120131947735522 2.2604944792589157
2377 0.23104488436312315 -0.8980544917589887 -0.585085851642067
2087 0.9399869550773806 2.228090327795148 -0.1365087179388776
1765 -1.0466673147506238 -0.8043627763134319 4.88996766758701
2124 -1.429941118270334 -3.4244320889351356 1.3173978811874847
2664 5.3045363655883 -0.13458941488622714 -3.6937428116472706
2375 2.948169791523387 5.473075153579218 -1.7475216687060595
1547 2.371341859266605 -4.705788275755781 -0.07350968835359277
1548 -5.150662571609179 -2.7569486191427335 2.9116264288489515
2736 3.3368726487886784 -0.4586204374436922 -3.5621673449737616
1836 0.03098290031873053 0.9089489689368249 0.012246787704339918
2769 1.8972324126326177 -0.6187477562411746 1.9483873177190807
2481 1.1962291125987656 0.3129445159615157 -2.153484458853789
1837 2.240213433098768 0.7348155053723067 -2.213708926945614
2337 1.1990342430708212 0.5196247328992651 0.5516458854398008
1617 -3.8423459377927367 -7.193825705191689 0.6322558638546709
2049 -0.3412923506894986 -4.374918931687833 -0.6795952589783636
2126 5.883898748306804 -1.695675877497503 0.6669091301216946
2593 -1.2256231418420973 -4.637050010228778 1.2490288193455112
2629 -1.0096430382723776 -0.738805315125894 5.871081155089275
2161 -0.7851946739683054 2.046148583212146 2.426299978369614
2306 1.7793149006840248 -0.018126151666896014 -3.3877691808736956
2665 8.38776212665144 0.6324882634871548 2.7169172750350805
2342 0.2932347520422851 -1.0887147303497857 -0.6899334353949124
1766 -0.6891599378445592 1.8951690553739373 -0.5538819458428837
1550 -0.060973365320955215 2.283125748509173 1.9931070724792732
1730 0.018785664497137287 -0.11596315160598342 -2.161356974684383
1588 0.8975389139164562 -4.055025338909652 0.13175811414602012
2737 -1.2879984643512523 -2.6004487558740745 -1.0987136264797321
1876 3.4792223343083215 -4.611792036639375 -0.47715291667408083
2164 -0.3087668834003756 1.69160433369826 2.5252025988695834
2452 -1.0363865714335847 -0.7958437514786575 -2.2356567558777347
1909 3.0977444914654177 -1.8140777456843742 -1.8252729261968907
2740 1.2617903265772892 -2.77084030145079 -4.104816421595648
2198 -5.177308532331854 -4.536936396986258 -3.5138290285552327
1587 4.235901640150979 0.007492932247106383 2.717906433306167
1877 -5.262853851944578 -1.4394948573983246 0.6956386610138932
1875 -0.6507364520314474 1.03337349019057 -2.672614890361742
1946 3.136474510110505 -4.34899127799072 0.2415998638266724
2163 0.5673878966702356 0.010249973536975432 -2.9481816111534225
2563 -1.6222158402877938 0.6482815567882793 -2.848068302164106
2234 1.6487529802731538 2.9221653822822007 1.748482417801371
2451 -1.3203335903327322 0.9068098306764951 0.2087571573922999
2776 -0.6955152545336164 -4.630322656615349 -1.6656623624545854
1624 -2.4917254617348794 1.8166984238833466 0.32133085634342395
1623 0.7238472389895341 5.175669044010573 -0.4625345622925341
1912 -2.618973165685808 1.5353948195218885 -3.8755788774064253
1911 -0.8274296773667797 -2.041389024622345 -2.8177909413555655
2488 -0.45620112791718415 0.4255308550081747 1.0689622417380862
2200 1.33582500305824 -3.2832089001889644 -2.063423517580903
2199 -0.5603821682954859 0.7895287737723092 0.08769495867977273
2274 -0.3630619524150472 3.693491523667584 -1.876341733344184
2487 -1.3524804530586516 0.1349846507275707 -1.8321027805781067
2021 1.0285151519310103 0.38208462875886356 -0.068229641888657
1660 -1.606801005820704 1.0339787420927127 3.2128012745785464
2276 -1.8561910953574856 1.246108618120819 -3.9082408276189446
1948 1.9402764971921922 3.7551268301237153 2.3854209810389135
2236 2.07315342945233 3.1412146008304305 1.2117822634016129
1700 -3.69533209830512 1.101239579383715 0.02322712728899427
2524 0.9472607818575862 0.5447300695806326 -3.1161887557312884
2812 -4.069389948074774 0.6109193737168666 2.688330087488415
1987 -2.0609479900810976 1.16480785544872 -1.7165720118216343
2773 0.21458314996360012 0.6651979445916919 0.3269747892192695
1659 0.3021588050920373 -2.329877396630426 -6.085361521574327
1696 3.5332512908896883 -0.6061820736747576 -1.2745800246226204
1945 0.500208145394806 -0.14112095773401181 1.5672261645365861
1947 -3.30084943680554 -4.942768820557145 2.67005544691327
1986 2.59915677529827 2.271517705219299 2.9572509668874316
2235 0.8473337090944074 0.8442992109864038 -1.707366390851646
2560 1.0169777848345827 -4.4689909683536735 1.7225274835572035
1698 -2.6409606658861917 0.09374100588050042 0.4651590466675188
2523 1.6794336090284465 -1.3070305881466293 -0.80227401126352
2562 -2.471124556592666 -1.1085406161810516 -4.9390744031571385
1695 0.16036771817822623 0.24586837825987526 1.4898365224055625
1984 1.7494361883041782 -0.6519717240991606 -0.7693653273671696
1983 -1.7551285692249132 6.9154675615361825 -4.8610963087991514
2272 3.6357334779781185 -1.2498116992054555 -0.4679926021273904
2271 -1.0509841871281944 -2.43196387031678 -1.57487460220936
2275 3.257017834227533 1.2418438186901395 0.014083488683363858
2848 0.29271379915766454 -2.167026605565095 2.534413874463886
2559 4.232942728703991 -0.9674135961099317 2.8393357830697257
2564 0.9049991967797595 0.32603860605468 -0.24203681156303922
1693 3.5794947360061853 -0.08574219370235735 4.950719852592696
1590 -0.2531120154783168 -1.461469927426655 -0.3027918995216203
1592 -1.681482126748911 -0.8782617986809288 1.220562029308416
1878 -0.8475353193155847 -3.7393548798419194 -1.2336429138962943
1880 -0.8666623665693266 -2.2441738563258564 -0.2000248721601974
2168 -3.0797658737752487 -0.14289229664569417 2.5772835328348953
2852 -4.447553591107944 -1.9896803149397109 -2.4880514010267585
2166 -4.51483034046625 -1.5266209572533407 4.685652303391771
2456 2.6090648135971666 1.9096367768452596 -0.149592913354259
2454 -1.4610435509504607 -1.7584518363059531 -2.9365600675404693
2744 -1.0433897659777238 2.452153328992861 1.1658090563186838
1591 0.5311749703162375 0.6630307098052464 -0.33667387073879995
1625 -0.6513787645889878 0.5217101241184879 3.049656724434815
1879 -3.0351063159337808 -3.624652871784132 -1.5560142524291074
1913 4.269475564429674 0.40447597866298773 2.699742647877114
2201 1.4809513788606166 -1.015800681295923 -2.2790168851582915
2167 -0.06327481589254158 -0.5034062869656465 6.138684535945409
2489 0.22603092791688395 1.9651893673692846 0.2497910212182166
2455 -3.348702168340382 3.316559017628745 2.8106242432824717
2777 -2.6960814504053756 1.7609571993347386 -0.32726630849494026
1628 2.213287713486547 -1.3740053874087006 -0.9864138224752786
1626 2.2022544579614283 2.249283053572704 1.585050962165812
1627 -0.8174628115907132 -0.5955789481878725 -1.6025461989232686
1661 1.7024236859893302 -1.500703736787143 -0.023686443349434448
1916 3.9744848081757818 -0.29139499899700094 -0.3819326315091614
1914 -1.0913447820948674 -3.598564351304387 1.7071713684579897
2204 -1.2203054593591092 -3.543519809064441 -0.34175452730864136
1915 -4.230027468388003 1.82608524179982 -0.054562990470242004
2492 1.2207641631849604 5.749041031092828 3.1684505572889843
2202 3.8053315879581224 -0.6772467619031902 -0.5518257011304806
2203 -0.5849037554928574 2.6435055273044537 0.13199713965487436
2780 -1.0836346887890105 1.1246968301805804 -1.1679862531796599
2490 -3.207603074927461 -0.04485148101143733 -0.26271378712047033
2491 -1.9534673634389261 -0.4879168894509172 3.099038627403768
1662 -4.236573778764852 2.7212507938680037 1.042328698115989
1664 -0.8434285802229197 -0.5045335433246093 -0.8069384120511683
1949 -0.7988639893174859 -0.9173308268898599 -0.05207178137630234
2237 -3.6457027794484036 -3.6453821886873325 4.99361940848715
1950 1.7973617296205715 2.453147286299349 2.1315879160248574
1952 -1.0835421843391044 -0.7062482681947991 -3.859196047794248
2240 -0.4528242645183498 1.9949459428902936 -0.285946826149045
2525 5.339766299112699 0.10963427977078673 0.16778077938774127
2238 1.724857488969225 4.0667471807473925 -5.382622162279369
2528 -0.5663480834923822 3.409301427724884 -2.470548355914231
2813 -1.1884355697776956 -1.6716126011874564 0.6614163552069735
2816 -0.5144875061804601 -0.14832264551860463 -1.0083014493419102
2526 -0.8535606084309593 1.525773667512398 0.4973432023582157
1663 -2.7089468990974668 -0.7186513209968021 0.46452180935956566
1697 -0.6500603880824779 8.521709108306483 -0.6563290574200537
1951 4.6943578754955375 3.1960107729721767 3.3280185589406543
1988 0.7508037557996474 -4.343375820064739 -1.777110615415764
1985 -3.7670179577918987 -0.3254467955404392 1.944789777419125
2239 2.596827514260177 -3.1973365583759588 2.4474456024954048
2273 1.818340730429659 4.44781670190513 2.5708646255452234
2561 -5.076744689163444 -0.02488508639424379 -5.655691257017646
2849 1.7611086001585246 -0.8320017335246083 -0.5299302691219492
2527 0.5430873853048794 -1.1689353883308267 2.570321292059621
1699 -2.7707395208779744 0.4511070158111536 0.14961345051770508
2741 0.600142599981358 2.7085355436144027 -3.088463038710761
2522 1.8341069758826427 -0.17797033213066482 1.4082080361218392
1910 -1.4889345976819213 -3.8077647292356924 -3.618307384505026
1729 -2.8748646187112397 -3.16688529394655 1.3277320435120972
2233 2.721811058574316 0.1440128445018417 0.6902339490759819
1589 4.435868306190806 0.32845554878852873 2.266154151169588
1445 -5.435835887485262 -0.8735963030389996 0.21006833738066957
2486 -2.4999965224518426 1.3918313383645717 -0.5448859876046467
1982 -2.6900197696271624 -1.399176670841743 1.080481596226631
1981 3.0433562086584343 2.2008682453305886 2.1499751705736534
1694 3.097262069188641 -0.8336427711827513 -3.308702308739242
1658 1.6617341849725356 -3.497529065326577 2.2203991930007057
2450 -1.9215588374172572 3.2167193464848745 -0.6363557642009112
2269 0.11937191597821771 0.7464279029708167 0.2839603854168178
2521 1.5188668812088957 -1.2009777140723115 2.2821237255441624
2305 2.0954006951572355 -1.268940198774357 2.732387447313588
2017 -3.742921925730619 4.262656739392043 1.2478867506585607
1621 -4.150790332592282 -3.505747301549481 -1.8418834668888215
2197 -0.4560309489491073 1.7663680268658914 -0.08710278320744518
1622 4.611483238582277 0.7720172867219477 3.0710587077237257
1657 0.7545375137234581 -1.6465637997878624 2.9972277493774477
1594 6.0786754750592555 3.72699592362434 1.7301385515722698
1596 1.9512460834353664 3.182722780394373 6.260004006461606
2860 -1.86025885850808 4.910204988312659 -0.368812802319823
2570 0.33220643084657586 4.054775806266986 -1.7426652278171313
1882 -2.561585003648149 -2.176644185174774 -2.7625356708570443
1884 -1.3168838918157109 1.022356275938964 -1.0616655908457935
2571 3.9348418828632665 2.4025459959966664 0.39175769686211515
2172 -1.1235198308640777 -2.6212430302430607 3.67322975829582
1453 0.22990186401109208 -4.220282996484855 0.4380997163362247
2170 0.8290315334800266 -2.3319646599263 2.0528367889252617
2460 -0.816696516716559 0.598481593940757 2.756254948891119
2458 2.3283446187110215 -1.8522648575674434 1.9233476362686628
2748 0.17682166862605442 4.729214955293212 1.3915117171139684
1595 1.0894516950811721 1.1507603810426839 -1.6265245060798756
1629 0.5062171382980748 -2.3924035516820767 0.3197320984539834
1632 -0.9793675169945608 2.2989235636465417 -0.5821784403317076
1883 0.9344959380331364 -0.04381672832804038 -0.31171508868981723
1917 -2.6455963890557324 -0.7675883639463937 -0.6934332836732177
2205 -0.3339001007872895 -0.9404394458984912 -5.635487187865142
2208 -0.10978385112802963 3.095668184532247 0.7830187144763319
2171 -1.4156964444191418 0.608213752130694 0.647437615521436
2493 2.0869958597317 3.7910514985026547 2.6570555879943747
2459 -0.5429525604203018 -2.485430769974396 4.078653311169797
2781 3.20062418368024 1.294848479027353 -0.882212467997944
2784 3.218200219521805 -0.08094961222940789 -4.740010291829541
1630 1.9972591626114673 -4.444586441731649 -1.752110137107174
1631 -1.511383997864935 0.07862224993896752 1.8112859005053372
1665 -1.8172568831853164 1.9775790205085282 2.0184278458013476
1920 0.5603414554341029 -3.025776590313889 1.1738297352039246
1918 -0.622719916776633 1.7796675769284211 -0.30170347500298755
1919 -3.0741158573760017 -1.5003611353365254 2.929730337653641
2241 1.1269859286331931 -1.082545528888229 2.3495639967932433
2496 2.091728925754202 -1.6757146064564044 0.2618598832720743
2206 -1.8740287393798118 -0.48992559419917475 2.6810818589859977
2207 4.2282651654821715 -3.8106931684544323 2.400423235495032
2494 4.017384326858372 -3.415030233783373 -0.8773363951313939
2495 1.912819014481757 3.1278949170102983 -3.6926236660583127
1666 -2.5249939940020747 -1.360371496416727 0.0062326793411280985
1668 3.3841398856487013 2.7527178998188044 -0.18577659493730778
1953 -3.224452204642952 3.927661754094 1.0057866560503161
1954 -1.018073451430319 -2.7968668736755755 0.23591160343754627
1956 0.6307946629125847 0.38017961454599264 -0.8272354995178336
2529 -0.3082245284189215 2.4920971631454387 -0.6773858319269345
2244 -2.425093059335353 -2.4050757178735354 -2.895045923689422
2532 1.2561085282588784 2.257128021055037 -2.158579166968641
2242 -0.6004146966135541 -0.2761831554893254 -4.504353929005911
2817 3.1841151937450984 -2.6492474673537747 -2.8008710962634455
2530 3.4135177161323225 0.599582028642493 0.28591169305422304
2820 0.22467252628491807 1.5391379978944595 2.3385741934785695
1667 1.4501635528501424 1.1440742506297485 1.7636594470080822
1701 1.940809164417487 3.44829444911278 2.5882900398605155
1955 0.014410125750068198 2.909718887886676 2.317507273957674
1989 -2.340577438939748 4.071980885722685 1.5817898068884275
2277 1.0517232690517917 -0.7994566472379078 0.7255092309533057
1992 -1.0877137776882808 -0.8551666428653056 1.4840215802179806
2243 -1.931733643580844 -2.3803732397189794 -3.703646464548773
2565 -1.016136067999217 -4.559360468088488 0.032403664864454465
2531 0.03953402255128262 2.4355788577884034 -0.3954014192101172
2853 1.461333723570243 1.3097524130889127 1.8572358958427664
2856 5.892795309029232 -4.530766020038979 -0.12484695066770678
1704 1.6547151009472116 -4.134714943277562 0.512666809089643
1702 -0.6940672875411799 1.319612289502317 0.7374953597851663
1703 -2.6054259052467628 0.7785104288435906 0.9537221277145003
1990 2.079121912907152 1.1729839065506062 0.48303867294235375
1991 -2.0033239899556428 6.4847181437534305 0.38422938129629514
2283 -3.064370164394516 1.85422055471985 1.2432566763277497
2280 -1.778188533582167 -1.4804999845526274 1.1560512068332645
2568 0.5684288291937709 0.42023267332928765 2.179371799669742
2278 0.8035570168457702 2.93661556662257 -2.509315669642084
2279 -3.5514555984451337 -3.9423306137361456 0.8581095127728925
2572 2.351694277862034 -4.081140056635881 -1.867752095462046
2566 -0.1412819904212649 -5.249579931297126 -1.665838621327283
2567 0.1330456548255132 0.3867252474323096 0.8949593521534163
1598 -2.062939302681324 -1.282544292125023 -1.9702952991618448
1600 -5.3514293248289135 -0.8300879178820112 -0.8420686894648229
1886 1.2890466937755887 -4.462915731473468 -1.9711559098350224
1888 -1.7426289391863146 -1.9274687794216925 2.697627484648822
2284 -1.3845828664321582 2.034067579635399 3.025503995273113
2176 1.077770285339907 0.06910290197915793 -2.03503104922846
2174 -3.1799699329805216 2.379216039940586 -2.175423914223156
2464 -0.8177543642687114 0.7771121445277043 1.267187470573303
2745 -0.8919045081735237 -1.6081317808934386 -0.2714990360468013
2462 -2.8974409427422314 3.340231343780456 0.9982710907616237
2752 2.2758877481768276 0.6567475929256613 -2.374798998146237
2282 -2.832707475381923 -5.474075348854158 0.3772510918529755
1599 -1.0753644456276972 0.9387845139783624 0.7065261551174311
1633 2.6920377700719142 2.04631989289103 -0.8395237203929846
1636 2.0543857236339758 -1.4612770640665835 -1.0096215517407217
1887 -2.0751407835566047 0.001077021971551801 2.1407445931592606
1921 -1.9008919881675854 -1.5799872615331785 -2.5835165134894824
2209 -1.3214002256557045 -1.3843464484699153 -0.2481089884606566
1924 -1.5225586441583654 -1.7187506453325951 -2.793627372428279
2175 -1.3917929172330643 2.9511513002431253 4.4702653731352076
2497 -1.0991163533952069 1.5561243510667588 1.7182417234344356
2463 -1.1513229019805606 -0.8404734757933482 4.775129826990878
2785 1.250781506065246 -1.122993132179386 0.7242569882203648
2788 -2.4532381958634133 0.4382644815015272 -2.504539762269171
1634 -2.326344029987402 -0.7218000877580958 -0.7816673788947345
1635 -2.755383858047297 3.8057982705483537 -1.3316354222755955
1669 -2.493480937432482 1.3562300015628688 0.13321218513177635
1922 0.8819584345912457 0.8758242203211015 -0.4818722220813304
1923 -0.7327017762192071 0.9477389049380874 0.859770776238604
1957 -2.151902926884274 3.9410482852866306 -0.47110540512117655
2212 1.431901160380903 2.069014075750809 -3.4229569698368776
2500 -1.4842193242025918 1.5184077728721501 0.028635996810208612
2210 2.4146900244805916 -1.1105837450405618 -0.9045285362263734
2211 -0.560351487878906 -2.6388175898804653 1.5735473226249848
2498 3.813875571371834 -0.3632127200168902 -1.7735992807716758
2499 -1.748520333605356 -1.6891402395618949 -1.2944309812196801
1672 3.35647611857104 -2.935298621937984 0.049421742010963866
1670 -0.21372377108101415 -2.836075701819513 -1.0292156514100563
1958 1.9892624114199406 1.7933210248149296 -3.1235268279413457
1960 1.6389751863546305 0.5180581543928303 1.0079995360635925
2248 -0.8622438211825943 -1.7380935014828496 -2.2444192715749387
2245 0.4714077308071232 3.1800357419093586 1.2592472662498002
2533 4.799280084677455 -2.8457996660814664 -2.6957199304392905
2246 2.166414251219312 1.9077494266642312 -1.1537346029573934
2536 2.479541620689829 0.3288373966308082 -0.9181536173913306
2821 4.125011280533405 2.888476260781623 2.9929438581942054
2824 -1.0684624449837545 2.878359691303953 1.8233892103044078
2534 -1.357336683852717 -2.3129185094311078 -0.8155221236688677
1671 3.2944484466659194 -1.011153596816788 -1.7447624144834282
1705 -2.5661192808517956 -1.0667190827650492 0.3030331621450242
1708 2.7816074435814957 0.7614890786720679 -1.8119192786856553
1959 -1.806469576648835 0.5365930250285933 -1.0747398469901066
1993 2.4421589820584426 2.94459735306675 2.7241555565894395
1996 -1.7977362920965727 3.510991757727523 -0.9202304555733817
2281 -1.0871129671030362 -1.3183372486918143 -1.378692706850798
2247 0.9303654475872039 -1.3336516257728512 -0.8963247365497966
2569 -0.936474373755849 0.1353280910546786 -2.267645121237148
2535 -1.9755170394995039 0.10342053026174884 -0.04317518604221104
2857 1.5314379048168048 1.943664404899893 -1.648196423395197
1707 -3.5020428945609967 -1.0529092966486897 -1.102417417416505
1706 -0.9074883885817703 -1.8546567291555918 -1.1982410876789498
1995 2.1559686083378784 0.5065827473433283 2.7570029870494217
1994 0.09410898147917844 0.9978052929109821 2.792009718752735
1737 0.45588072962990767 -0.020256311355040378 3.797207407422595
1449 3.883345020099259 1.5407228196467981 -0.05690101825989075
2461 2.515259229673763 1.7485480376886033 -0.433956804498725
2173 2.1261273632015776 -2.217005094089061 -2.8737517719659724
2749 2.3299620396442373 0.5277840493500557 -2.1717287890004875
2169 -4.480129159659943 1.519401826902545 5.529803568929623
2029 -0.7053481043927203 -2.5593678135210824 -3.656053551822871
1741 -2.2545445157773827 -0.5566933829638382 1.6338547756641584
1602 -2.3680279604322583 3.1302506046206586 1.384158099500851
1890 -3.297673825869126 1.7940103695651386 -0.6077578931588683
2181 -1.3210146463378476 -0.883332768771734 -2.6194783223052576
2178 2.7865979044166047 2.3363492781919817 1.1134694351689964
2180 1.5370034074685794 1.8692747718241203 3.487143710830799
2468 2.8796235517298348 -0.5824151723645385 1.9139693345126607
1889 2.8686595470095893 0.7612809696864505 -0.6914311514473813
2288 0.33526838784728147 0.8704504295299905 -1.0964979786776958
2466 -1.2010910958168697 0.7450783802100132 -4.358166940088098
2756 1.53240961190256 2.533788558508771 0.2521187432388083
1637 0.6913758425579716 5.20948247155506 -3.318618670735995
1603 3.685341638332071 -4.237668491023783 -1.7162851669794563
1925 -0.2780878835755067 -3.0260057986255346 3.5939759186784377
1928 -2.2842465696914984 -0.6679704105855715 -2.0247414185910175
2216 0.39890912466754697 -3.937215658222941 1.3582117344880915
2213 4.003266109554126 1.3122285350559841 -2.8217529055416004
2501 -0.7917127881630142 -3.0248702381821313 -1.1575315592338349
2179 -2.820110417785058 -2.2938062129450945 2.2022389161288625
2789 1.1879180914686756 -1.4197932755993072 1.7739829228000135
2467 -3.276854820831714 0.17867982517707992 1.3783752229904458
1638 -4.558659804375896 2.4824490952906055 -0.8834748159652756
1673 -1.4009065165575154 1.638936846040198 -1.7637899119636122
1639 -2.844074909062108 -1.7339733183093018 2.5381991598904152
1926 -0.5805872137183663 2.4502423535120115 -0.33889361013010755
1927 -1.9850709358448861 2.1391241649476442 2.338607992676581
2214 -2.5530066896535 -0.9858153249379393 -0.6096875349688053
2249 -0.32789322080112276 0.3519045019326534 -0.9995922546960534
2215 3.1538676261238394 0.05406367965149815 1.2218978312083715
2502 2.6679230234689983 0.24790764382690111 -1.1665177105730749
2825 -1.765958798207338 2.399878129066481 3.113946259510325
2503 -1.2588527960835012 -3.5226320312051573 -1.7502831874983653
1674 1.5559628823626737 2.891184496041736 -4.642663669064927
1676 4.387361431070055 6.219007471351168 -0.7077640000322177
1961 -2.2424148687451546 2.3837144370519807 -2.4547892913504783
1962 1.6221048861413716 -1.584410653854584 1.1994487791554391
2252 -3.4264405817369035 2.4320740627751425 -0.47166985957803814
2537 -4.477146475627494 -3.437577176110108 -1.2297351970695207
2250 1.0263281826104267 1.0119995748101211 5.674058352496048
2540 4.914177623217254 -1.0972820611826208 -0.09801563514368601
2538 -3.7491550844783292 -0.516439602521922 -1.1614134070598152
2828 -1.1839050595942455 1.7669546940750507 -2.1913761913144594
1675 1.2245083182950476 -4.629339686851448 -2.3532107934349624
1709 3.7700571139796857 -2.7160116974432444 3.1660286497544887
1712 -2.397889649808819 0.008426261135779005 -1.9734160743803806
1997 0.34044854829968046 1.0727922819173576 -3.8738776789964584
1963 1.3930253868626106 2.9000951040675425 5.287685622306137
2251 0.4619238790301738 -2.974884688522298 -2.134988421983478
2285 -0.7201672562694428 -2.3732957130571464 -2.615187106467007
2573 -1.7690579224166705 0.6051128250344027 -2.069205729054951
2576 4.1875125114280705 2.6000904825314923 0.24390818400424827
2861 -1.1991019690311646 0.44591801711862494 0.0739788708455397
2864 2.8189005566587753 -0.9153166284563734 0.03404294739426369
2539 4.930586082498236 2.4373764051311535 0.7047588820870475
1710 -7.220430162667628 2.498787125366903 0.6155953833601888
1461 -4.293951017058163 -0.5675591509162068 4.572739963268125
1998 0.9495560284356691 4.036293328975979 6.174567982545699
2575 -5.526230932589014 0.640005045097502 -0.795452275509579
2287 -1.3519312072983265 0.15809408033208558 -1.5485174066470575
2286 -3.4705825770145267 1.5456443572383414 1.3500991486113962
2574 -0.3423662403099988 -7.418371404980671 -0.36072946173965187
1604 -3.162011429008216 1.901909239661821 0.4566812769892666
1606 -0.8252754470474152 -1.4955243724821436 -1.360848211269508
1892 1.4218576452278815 -0.04386402342660366 -2.727845767556621
1894 1.5098638350507187 -1.0499080306202206 1.2320062532229392
1745 -0.8935629807718432 2.2503864338739876 -1.6218498788992908
2182 1.6878066526674396 -2.442045934954722 -1.0307096444340802
2290 -2.2033022743117727 2.2941469630859634 -2.8699669560928176
2578 0.2203287521306513 5.2034421263675865 1.8134453198931253
2470 6.338329893991072 -0.8623990915955861 1.9385624157157089
1641 3.535583467686022 0.5681227495728663 -7.336550126151711
1640 2.4438306035257007 3.0555457132881236 -1.305422126746957
1891 1.2496166910835746 -1.134819446387323 -1.3492582647171896
1929 1.8986739379488768 -0.43524763297114194 -0.07601487021196178
2217 -0.7435459225258798 -2.0648158424511602 0.3325175804553336
2505 -0.6905504796376546 0.6222294555917969 0.76970757235385
2504 -1.9079431151608388 0.25182669805133884 0.9613731251698098
2793 -1.8572006225683626 0.1357151970846753 -0.5755464557615125
1642 -1.1947404586033368 2.583880664077055 -0.145598274531837
1677 2.8551582888196183 2.101222400245024 2.223333961599902
1930 -0.5982085910563891 -0.7613812895889366 0.6942525132242833
2253 -2.211287749441085 -1.1817345065774918 1.5557888586287778
2218 0.6343698659550414 0.6991311052580648 -1.844441803790611
2792 -0.9200480932220555 -2.0137678655715696 0.991719441777632
2506 -2.1615565357229336 0.796300994904518 1.4191533267536451
1678 -3.558258237121851 2.9426027898313607 0.38557343667495764
1964 -5.086753392176166 -2.7210788290578796 3.25866365932275
1965 -0.3823306677215207 -0.5084222179595542 1.5836206929581103
1966 -1.9028402737028565 0.93077240613845 1.4778579405920542
2541 1.000084948256164 0.30249111288660613 -2.6067726387138332
2254 -0.5177258069047 2.463472651613464 2.32788467137388
2829 -2.960275681295132 -1.564465351648625 1.1517235715312732
2542 3.067736783102626 4.726170419928671 4.996483358166368
1713 -3.2518465681920796 -0.023485632511964828 6.657260930807585
2000 3.131475390535385 -1.9911552120110914 -1.4025125366597655
2001 4.074292178066496 -2.1625646863015384 -1.3117463171063428
2289 1.8775186955797085 -0.6321061217939847 -0.7539844383007556
2577 1.2100074140116621 -0.6624544659831391 -0.6121321477103749
2865 0.6709902356257973 -0.20019292701578875 -2.0041087036795653
1999 -2.5718345962202176 -0.20982753808316387 2.732771428413938
1714 -1.3889626917152271 -0.042624329517184534 -1.1558326660207427
1711 -3.414012158687284 -4.602064368965551 -1.925962041388577
2002 0.6670751548990079 1.8924800866226856 2.2707775768438574
1457 -0.5466601852444088 1.5460645605391727 4.028365223221154
2037 1.199967270544809 1.2469345554844251 1.6623784440160168
1749 -1.3107562423727586 -1.3700678050071058 -0.3880156170524576
2469 -0.4914679392173707 -0.04401983929848407 -0.8528899358022294
1605 0.5199427308520848 -2.615211112242952 0.8281375940786497
2757 2.554325734430707 -2.3313708690344566 -0.8508376322855875
2613 0.4144182969613575 -0.2437972283714944 0.3878016899998639
2325 -1.3398129452785668 2.0749124787713105 6.471946188719008
2753 0.40324007086913827 -2.374161813383271 -2.0248790741709493
1608 1.1366133334575599 0.6292375478438986 -3.1423487721312404
1610 0.8024887942013482 2.9984327231864483 1.08711547702494
1896 4.2538925548528335 -0.2721334373680848 -1.0955444173370656
1898 -0.5198188626650156 2.175990638095542 -3.924657533207477
2184 4.773489288698849 -1.9545164531356063 3.0774016712160663
2186 -2.264022066127837 4.496557128259648 -2.557353837487238
2472 -5.666139275875799 0.6115001389647238 2.5401421103030666
2474 0.6778212444481139 0.5933290555680122 -4.03359734235045
2760 2.5355202340323313 1.1091940838547152 2.3776039658845733
1607 -0.9854236666231249 0.8069099899511774 0.8765166937967629
1645 -1.0152965531655018 -0.9307186930994673 0.02728585515787159
1644 0.22171865292300288 0.5477745285536693 0.08598178637153987
1895 -2.5013080960550007 1.838124868397829 0.1057137992996828
1933 -1.610858307735024 1.1166028188536634 -2.772129670537488
2221 0.583988970249875 -0.7341353907154048 0.5067185731704795
1932 4.515524126873377 -0.4831434802234843 4.643375082064914
2183 1.1104029650706602 -0.12965454976887458 4.229070998265835
2509 -2.699790981487463 -2.22404648008636 1.5648189144280689
2508 -3.5633966533659294 1.439653793009141 0.5126948145735707
2471 2.211585128408171 0.919986388428834 -0.7898395834508095
2797 0.7083132660525832 0.24275248997951063 0.17626781309408193
2796 -4.831688747405628 -3.0196762286870844 1.925413470050846
1646 0.42989762210407356 4.346951471206155 -4.945955726383923
1643 -4.818962946968191 1.640542816373705 4.26831389638681
1934 -1.5774739932393769 1.8917705389545678 -1.8613857866484471
2220 -1.357897306484219 -2.1971626817146954 1.3016647385206388
1931 -1.3100796987368253 7.069123965697115 -1.3265213168194365
2222 -0.38541724367924174 -3.435369568464661 0.3155925969108372
2219 -3.9109009026520583 -0.9070136630593983 -3.2156910508827474
2545 -1.369519082957503 -1.5790593156665413 1.1113882854923964
2510 2.2676264222364315 -0.1489430115926383 1.3519990448085621
2507 -0.38679643502737804 -2.694444569284767 -1.3071756033901691
1681 -2.770553414541226 1.2955526606048513 -0.5253681951239336
1680 1.875056075258645 2.028567806012874 -4.527983995697033
1682 -0.9538579969407761 0.6210562278254455 0.8156074609918428
1969 -0.030548712182638847 0.7535560616908873 0.9042323268187354
1968 1.4237896628910391 -0.7361950153744553 -0.12616569994473478
1970 -3.6960137394493624 3.5160207669258488 -0.30205263105947006
2257 -0.6136595822017271 4.138659718643574 1.7056893169301162
2256 -1.752862171160158 0.5472204798277963 0.36592029874987925
2258 2.5051389911692046 -1.9139132681324273 -2.8819289576257083
2544 -0.5396472312449899 5.668263554577079 -1.1096408497331565
2833 -0.25760301935222046 -0.5562133523301132 2.951657295230947
2546 -1.9273958453172786 0.3263112188506553 -1.5863976034086296
2832 3.976203385200637 -2.495660093195424 0.1468731083609541
1679 -2.8176613059601006 2.741331561231683 -1.9510515155225685
1717 1.6874634642441142 -1.6308248310311517 0.8886288065652648
1716 2.009035200698323 -1.7968398256382823 3.8727263659889584
1967 2.5819888962854405 -1.9185641179907094 -0.48534380987913034
2005 -1.385959666137814 2.458991068175901 -2.684081785370124
2004 2.820672656871865 -0.8715321500879533 3.686670432457315
2292 1.28817619498431 -2.240925677284775 -0.8461740412812848
2255 -0.035444455944243225 -0.952336403660177 -3.771701482943227
2293 -0.9587735740760384 -1.7697666912875765 -0.2546353813125211
2581 0.6994249868998675 -0.5760362694231094 1.6726523228895722
2580 -4.168518896382654 1.3658026118695876 -0.27842314751174846
2543 -0.5588008960197355 3.1616050056383385 2.127453993036221
2869 1.5365627359672058 -1.600079222994664 0.16944026630256004
2868 0.4842959102738366 3.3411557453292433 -4.453186745529152
1715 0.16576624794300082 1.3834584261577203 -0.6165423823420687
1718 0.1108477602724942 0.32917459180723474 0.27449202353763513
2003 -0.7092630214737597 -1.3571169315147587 -3.909569074085357
2006 -1.6898074947074988 -3.1070760386262135 -0.774298907679224
2872 -1.5945591632181806 -2.4069271276093978 2.507891914028217
1897 -1.793519211327935 1.393650875053976 -0.1704167924030137
2291 1.7685022310962881 -1.2835449682505449 2.455718920417284
2294 1.8981162164917182 -0.8815341653719674 3.5396493569412875
2579 0.9245421035839964 0.6424748502505082 -0.6418570329913021
2582 1.8151978171277487 3.193463436128016 4.735096701991167
2583 -1.2298738065311976 0.9046206467499277 0.9714730647599492
1612 0.26905324624192295 -1.5755034064295597 0.617657449866282
1614 -2.267652341831645 -0.029669373682879745 -0.4929979328175029
2584 1.219521966764363 -3.619867709082269 -0.19855971257799931
1900 -0.7971680854192659 2.859758452382007 -2.070862992902318
1902 2.3483359270445927 0.10749747762205818 -0.13064979336350155
2188 -1.3134049984535359 -1.9176699987801302 -1.9687195334956749
2190 -0.8064281197974994 0.7276954281222034 2.5774519551422728
2476 -0.31095627415159705 3.868529961124839 -0.14992560000425306
2478 -1.6026539683687988 -1.3446187798892635 0.18515307358368632
2764 -0.11332090604476415 -2.4335551880673565 -1.023920781076342
2041 -2.4078362361569154 -0.5359660003980065 -2.8752562696673136
1611 -1.1215744876195501 -0.5411135984775742 -0.7794956166148407
1649 -0.27983749677893294 2.6239391411063426 -0.7887341179606558
1899 -1.0789395043054577 0.15201059424917018 2.6806453465173976
1937 1.3823348280116023 -0.4479626262907833 -0.34946749698257035
2225 -0.8373514392141648 -1.6551947775745912 -0.2799780597278395
2187 -0.03286406015542179 -0.5223207896839159 0.4984141799828171
2513 -2.6621701363390393 1.3068502472873231 0.9152082883000421
2224 0.04081758726356621 -0.3725733295416314 2.593202491776492
2512 -0.3762190243951252 0.42570854245611855 6.556676388761219
2475 -1.3698299988619276 0.731227842188601 -4.422987555378935
2801 2.970677593866008 3.2642131268422427 4.719190322916611
2800 0.7916798951051297 -3.6123721063139684 3.491676636750371
1648 1.153637516364576 -0.10998859192921856 -2.0340310315758017
1650 1.7063047130231797 1.0014097768319488 0.3215840110185371
1647 -2.1054109720197904 -1.669285919775941 0.6432886117967629
1936 -3.9504152684592326 3.4368297678931468 -1.4810632907022925
1938 4.653624522482842 0.6914138953627437 1.6292384652352387
1935 -0.5202829974691701 3.095733889813101 -3.625060305022433
2226 -0.0951556193164953 -0.5293407760700181 0.37250287473459015
2223 -1.300348144224299 -2.535611230693932 -1.1560335697707442
2514 1.577548139053427 -1.720777263914611 4.170890711623393
2511 -2.567436220244044 0.20798668968083087 0.1569019873779017
2837 -0.03505999857702947 2.442374302136914 -2.0992101667851606
1685 -2.7859236169216253 1.7794102059875994 -4.9751553085799864
1684 1.765032953655264 -0.7613252723252726 -3.5386179654201344
1686 -3.3602380239861893 0.6788163022741207 -2.2278310801138574
1973 1.2352885856285136 -5.068135319687105 -2.8733054588478297
1972 0.49517444185899845 -4.294771971431589 0.7322172412023208
1974 -1.5865448559898543 1.7563816678051365 1.779795952369725
2261 4.498212601597975 1.6231009040276327 2.504116918851959
2549 -0.22009110370854146 0.06920223707923408 -1.1206330537116453
2260 -0.1279967651564192 -5.175288211958346 -0.37530209962663685
2262 -1.2554969755701781 -0.27657552776293876 7.9350630096625
2548 -1.5183542150496383 -2.2327217942005495 3.7925721775120524
2550 0.8868336955840485 -0.7380855575892755 -0.090488390813783
2836 -2.1772690346623613 0.15574123107144947 -0.33341217171972215
1683 1.2286902019946564 -1.9272539031017055 -0.2324386192104409
1721 0.4742426734635033 -0.6771421581856565 -3.821346127765565
1971 4.48689736754456 -0.488925257523883 -1.6182813227678292
2009 1.591263187223063 1.229731960367935 -0.8002568444244966
2296 -0.8469574921506345 -1.1165542938975825 3.03819259394615
2259 1.0709240137240825 0.11789537528654326 1.46778505647682
2297 -0.24547886103617597 -0.975640254118316 -1.2638874253763308
2585 0.46912638564196796 -1.8654765676337597 1.9896985036037313
2547 -1.901291048645221 2.84461800078706 -1.3418571569764126
2873 -3.2861805189097875 -3.667672044678294 2.5170462375637244
2586 3.201298505635941 0.25176893124748106 -5.183806948796972
1722 -1.242841732373556 -0.49291204174885084 0.06254660560593715
1720 0.06535690607300189 -2.1980722555991714 -0.1256088095466662
1719 6.735141325594296 0.16929845815315328 -4.163279018566629
2010 -5.027606256234625 5.824332751301884 -1.6459137140614508
2007 -1.0862390868297174 -1.0683416087397817 1.1612861747995267
2008 -2.133590674006162 -2.799040608718247 3.4369892527940875
2329 2.7202643871817993 0.5105801790255449 0.7400581096629608
2295 -5.517880679607194 1.7072122302036894 0.4099858848298675
2298 3.356573214992039 -3.226696523335739 -0.9368268891387532
1757 3.154351240363151 -0.2330953201018821 -0.75561801038895
1469 -4.211676902916553 -0.9350244999746802 1.144897050981688
1753 -5.980332442795653 -0.5420872607035837 -3.0485095025061195
1465 -0.5138914350846789 -2.4898589501545914 -2.8407880563825523
1609 4.261834997934374 -2.663740105878324 -1.6998747987778344
2765 -4.388929237647241 -2.054335929644879 -1.8829284320516426
2477 -1.9222244708343392 -2.729550659765186 0.15306355206355263
2333 -4.0405006274886945 -1.5194855516778647 -3.5121825960401885
1613 -0.5682377318986018 6.702370292144735 3.376042084732775
2621 0.011773256299484797 0.3592664595925829 -3.183142795871261
2761 -2.5629802463823395 -0.6103679605262885 -6.10718368298797
2617 1.5381492305482314 -3.4606941861023888 -2.4057876465154977
2185 1.0222139752763115 -2.3977806454221655 0.7152426398495386
2045 3.0968871436528564 -6.476747071524059 0.10297575781303822
1616 -0.0018281625611684346 -0.9065026529255874 -1.9765552329424125
1618 -6.329145827024076 -0.16630584364776557 3.1207116441245293
1904 0.5787931403439612 1.4545060092238926 0.5845402804737219
1906 -2.1362257184473092 5.781803964758898 0.1455658276434338
2192 1.0607586371911097 -2.0724420643573946 1.3835288969814794
2880 -0.20768071242172714 0.06853555170989391 3.425635796013368
2194 -2.7721579830729937 0.7521228505988782 1.6577243782432247
2480 3.825913479325081 -0.49318147456804867 -0.8197632587798205
2482 -2.142531843009161 2.7493951938548054 -7.847761129111716
2768 -0.26746570641034834 3.1942732010436465 -1.8522204587936275
1615 2.1241853238541633 2.035256662344262 0.4649031259537918
1653 -1.3068756078233246 -0.14518663719688787 0.013613068952177681
1903 0.5109352393256781 -2.779946765580923 -0.8982160200704762
1941 -1.6927623573492876 0.1789167146159654 1.7168322682735078
2229 -1.5671156666321164 2.799055534685583 -4.391299760054604
2191 0.11027663333425902 -0.029814926031319196 -1.0647194383743177
2517 -3.724167209822645 1.6446490563332137 3.837130876657884
2228 -1.6237526663839774 -0.7584169088858169 2.4277736885223704
2516 2.574741982909435 0.3977643387463906 6.4495872777101955
2479 0.3087616293309455 2.034524453414006 -3.583311175490424
2805 -0.6153541780078188 -2.1288425322320137 1.8085368821473062
2804 0.2831209880003258 0.7214094240625567 -0.5816186256250642
1652 -2.3516598154206076 1.8490700890646667 1.0249498865289355
1654 1.4528694783278002 -1.66580558397508 -0.36038613594313884
1651 -2.6478772179733916 0.04733960910816898 4.595690910066078
1689 -2.70358207401951 -0.3743791111487528 -1.0103662229394406
1940 1.947895871369399 1.1568241915587403 -0.7846296686410382
1942 -1.9760088109955443 4.299309167905917 -2.2984373281819774
1939 -1.348280773230402 0.8910624531826804 -2.584266476815259
2265 2.9113102052244146 0.9085002846968513 5.5190165805669755
2230 0.2746990165672416 2.200582647378697 -0.5651773632757603
2227 -1.862807307042813 -0.5897292840422256 0.04356499356042859
2518 -0.9536343068914288 -1.4096203606046218 0.6959079751380071
2515 2.0979948583331125 -3.868274031928079 1.4541810628743999
1688 1.2867179679716556 -0.8890738247531437 -3.752189558320666
1690 -2.5964416236366463 2.230223287364833 1.5761380389789417
1977 1.3607482189244933 0.28267908127707153 -3.3830392668763816
1976 0.44069543500625924 -2.1781971197505756 -0.45121104000871143
1978 -0.9217806996197583 -3.9617120625694566 3.2404871326917033
2264 -0.8604969509153763 0.26228245055324945 -3.5782170991289513
2553 0.9923642060119464 2.2741962087169525 3.032881804164707
2266 -1.5532518488116065 -1.096567681342096 -3.683519049923163
2552 -0.10424225154088573 -3.2213339779827215 -3.2504911381351786
2841 1.2698862669452904 -0.9082940639861802 -0.5856977699175333
2554 4.429626816423435 5.774120765971284 -2.993102816025658
2840 0.08329616115944949 -2.157333205060632 -4.426630006499126
1687 -0.841431353807478 0.26397909888443905 -3.6890700808682584
1725 2.1330033956559222 1.7911248318158441 0.6045324738914799
1724 1.0310764675110213 0.09249195745035087 -3.351540728432475
1975 -2.527776096391574 3.724636530051476 -2.680316441281942
2013 -1.0981086643601545 1.307209355963848 3.922903745146237
2012 0.5898455305192087 1.6876131209043113 -1.445509619211187
2300 0.8900608236571882 -0.2898633851937932 -0.875058014468037
2263 1.2885329815673205 1.8226411471455475 -0.8223276104432762
2301 1.2034621978050895 -1.1524609653545024 -1.0606353677913798
2589 3.314717679810755 3.1549045207622632 -0.9863480528881512
2588 1.5631147134329992 0.9261356789750114 -0.8067787916029503
2551 1.2806951219875968 1.075676081947963 0.5715858744191002
2877 -3.0211895625197647 0.3032717995620741 1.3445713133794692
2876 1.6227544756147219 0.23615063860657245 1.1237270622162094
1723 0.08386017246542174 -1.0208094646243915 1.8653661933566963
1726 -0.24725358136366393 -1.3021828086649165 -2.9195283716368086
2011 -0.871548509760865 4.022657961023335 -1.476534394362696
2014 0.8407747579896013 -2.194520815402312 5.4076976913570745
1761 -2.1847548855592347 1.0710539045117875 0.04346023952126738
2299 -1.5265376477434949 0.6038248499732937 3.05466570247989
2302 2.8110887657034795 4.49479184941039 3.364259895418798
2591 2.2402574334906418 -0.9516876167753245 0.2518964858439344
2587 -2.365831239239848 -3.556051925341325 -1.449245048122843
2590 -4.1961586618490525 1.0962528608648683 -1.0896532583820773
1620 -1.3455808555426125 -1.836007729893084 -1.4958934078943007
1908 0.1382109588980751 1.1056750761814664 3.547007770617784
1874 1.6868520217794953 0.5269858416034368 -2.730306337069992
2196 3.6574576004769352 -0.9272580895156133 1.4965154438857629
2484 0.9806484058238737 -2.2313296099943645 2.969546276525054
2772 3.4934174229996224 4.051340999935326 0.0603623852052884
1619 -1.6523112550910746 0.777148665077195 0.7274386703200132
1656 -2.9165957519323547 -2.5463097787505284 -1.9688035312236267
1907 -0.24677091449760655 1.7062851398863623 -1.2469839729278807
1944 1.0364392690500923 4.35228323867017 2.250361391959241
2232 -4.186515875785552 -2.3914518567110816 -0.15389254158428464
1441 3.788697604135808 -1.2592062912438402 3.1715080212853746
2195 -2.2310757201526275 1.0653299173130644 2.381831182288074
2520 2.776398725951914 4.292994602324247 -0.11673906859819713
2483 3.1185888764443277 -2.266973484549144 3.645118890989024
2808 -5.035098902408004 -0.24531888803733548 -1.2752145372962744
1586 -3.8085859470529124 2.9365203307643655 -0.5581421141539681
1655 -0.8099491879701195 -1.2112030740800863 -4.148010924548413
2193 -2.098057201217362 1.1151754401206435 -0.34434693340088496
1943 0.6152028179805017 -0.19792673770650154 -4.9773961717317246
2231 2.794707441327489 3.741961005826305 1.1889521335050528
2485 1.6630779662688768 2.1360464715827883 1.7079397660708362
2519 1.614438496481439 1.7230133313792821 -3.8907250983364583
2015 0.9298018001412383 -0.38640070242163177 3.222907959146758
1692 2.007594129827998 -0.49845479368666956 0.12298413957628979
1980 -2.847546609559186 4.942796036839369 0.8019780253452433
2268 -3.79154875116493 -0.22382938738499297 1.8904429490965708
2303 -4.127204337130571 1.2117236567219631 0.902626599462122
1727 -4.928600886029914 -0.1115572360727691 0.2822770162932377
2556 -3.1549089681755405 -2.570222073040917 0.045670492158854034
2304 1.5188159687049625 -5.632568281716338 0.6084806440140595
2844 -3.425293327987522 0.200264231051371 4.748038498196264
1691 -2.2619206181333595 -0.31326234141400905 -0.8885167690835385
1728 0.3588118039468518 -0.19681032269929913 0.08956989294620778
1979 -1.0543248486563968 3.6557202557300994 -2.3405722610954243
2592 1.8640003060756523 0.5745697898773001 1.1072687039632052
2267 5.390634193797972 2.6303867262310745 7.599313666019536
2016 0.7289955459328071 -3.3870660638829704 -3.7673099281290794
2555 -1.3289688106741009 2.1072035061920715 3.8899632440313976
1473 0.18334870963524083 -2.7141366581682744 2.9479308648703273
2558 0.5201730153640493 -0.7513220455794011 1.8806566259025321
1905 -0.8895301147485696 1.3935481879039335 3.3740126041331786
2845 -3.153941811324049 2.2977529481988346 -2.617637979385484
2557 7.913738526689523 -1.4236755187097672 0.4591671798054702
2162 1.6205300207014026 0.590328487125986 -2.7103055738215813
2270 6.627201076957295 -1.481626354745081 1.2591774457188933
2809 1.1544756748862188 1.8253665446569687 -0.5801839486200926
1585 -0.7496767140354861 0.6039741129712558 -4.781643771360493
2884 0.30520984910762333 2.623652008054886 7.867053876093673
3172 -0.5882730059677076 2.822430360883939 -0.5313788741465159
3460 2.6629987331090272 -1.4061073654768597 2.0959654465156285
3173 -1.1013618287203117 0.9988180940084751 1.1975502411858023
3748 5.492826836724913 -0.4847918478220604 -4.143325410228345
2917 -0.5278779170874949 -1.9041740829902496 -2.4726092417847334
3817 1.5600410648725223 -2.2809142915436147 -2.7133847683751497
2595 0.6738161542493852 2.2031418170865096 -1.3945988269813592
2920 1.0723682547834088 -0.19496544754095366 -4.612893310702693
2883 -1.1839109611978806 2.654471463886757 -1.2928150411557169
3171 4.952949580561357 -3.670864342187302 1.6472962463817862
3208 -0.3244542528263125 -2.3203165852256014 2.535783835065883
3317 2.4792372367841664 1.197314271068099 -5.424830640042757
3459 -2.325128419196575 3.328952775936242 0.7010882694388091
3496 -0.25429056942082257 -1.3865936219028068 -0.7591892074663635
3747 4.7582629590364665 -0.502769724588572 -1.0578691252342318
2631 -2.7621411627397876 3.226661047660405 -2.146089158143529
2919 -1.3079203465754574 -0.024506176537545315 1.5988232095540833
3207 -0.44970080860968015 0.8392600885548628 1.2424091908548405
3495 1.0510484970527945 -9.322921704217825 3.321137778473257
44 2.6461096659346475 6.701786993659029 1.801971563026535
3858 1.3313228840433562 -1.3902788002047568 -4.902946712309439
3784 -0.5598135395900904 -0.14192319008626197 -1.4850861923204042
3783 -1.8294319592723522 -1.9593522809944508 -0.30768013725290133
3893 2.3378287622916063 -1.8178861413483625 3.848809387953165
2956 0.13366206653716214 2.8707559743468773 -2.085502582784925
3244 -1.5184113248164908 -0.6978408652435071 -2.396374435925085
3532 -1.3381541096435747 -2.937107516935953 0.5506882656893617
3820 -1.6638409055727235 -3.8960825885899473 -0.7872793480803884
2955 -1.3603536468273556 0.3474360545139169 2.958668363950824
2667 -0.7127874918641575 -2.170668706901109 0.7039731230632857
2992 -1.648700431013234 0.04389668416840276 -0.7464750977556812
3572 0.08973112606182071 0.9786863232286676 -0.2858264848831522
3243 1.5832151487563901 0.009039598497923126 -2.7708648095482893
3280 1.9218379050610437 -0.23830722341992447 -1.7169797852497348
3531 -6.178220627249967 0.25668978490896144 4.05173512926682
3568 0.6823296625997625 1.303519787248117 0.25387559100137114
3819 3.0437561071995587 2.0442960487315243 -3.0933787213969293
3570 -2.446428782811388 -0.502220438974927 1.4131632927500428
2703 -2.44360448036895 4.191919040323119 -1.6343788175149598
3571 -2.585648120817981 0.2042125347929396 1.945962216364727
2991 2.491889302448942 1.2450750184355521 3.0182560746867506
3279 0.5207390610122777 0.6477785894375911 0.4097627095117103
113 -0.8118597626427781 -0.6286681945380352 0.5697601379628844
3284 3.0346925689556574 -0.2634946491959337 0.4834710989353084
3567 0.6278045696505136 0.8010274183546692 -0.5563058979477532
3283 2.3699349453358685 -1.0033954086497379 -0.2867645937253675
3605 -2.4124320278360054 -1.6009785168913913 0.9375892396863554
3749 -1.1008410816539882 1.530710723919733 3.1075524105246113
3856 2.204829727522811 -0.12905852973193477 -3.128194109964935
3855 -1.5778877856116293 2.304588199675542 -3.1484735268160056
80 -1.1039077375170006 -1.5357167471931856 1.4005901843109643
2598 2.7757084119681816 -1.919548826295539 3.5460102365651376
2888 -3.193636276648777 3.1163381266407777 -3.2363153717810733
2886 -0.18829878266118838 1.062650962840483 -2.123865718696874
3174 -1.8938046699787734 -0.4157221574186282 1.2184653001644339
3176 2.4490358896970106 0.0031136102080765947 0.6474702709370982
3462 -1.6384836290148361 -2.186271973760658 -0.5280743452371274
3464 5.044045267833638 -1.7328832276073833 -1.3936262148578975
41 -3.3291874323926454 -2.040911822903645 0.38405503447794165
3750 -1.3872056247478817 -2.113389795986853 -0.42836508329018746
3752 -1.5090129858634833 -0.37348502319303695 -1.5692431436497691
2599 -1.3904323283850244 1.3028445791280328 1.2017086574040101
2921 2.2399257999449906 1.9824150064575388 2.545783285923956
2887 1.178857540135754 0.5568410863566834 0.29811229427809127
2924 -2.19404483641194 1.0574057961444725 -1.4005596429524985
3175 -1.4816015154184294 2.721527136502883 2.363526692928589
3209 1.6202049185093286 2.7317827471311973 -2.8606699806539915
3463 -5.400217114158363 2.068156321454232 1.270651185322976
3497 -0.942730978161282 3.282075975522299 -0.9136092515718552
3751 -0.08379853038484572 -1.4226728217425293 1.556850727627521
3785 -7.527010250924974 0.5969049129143115 0.9729763241805416
3788 -1.0201348040916638 -0.6244671595952179 -1.9558684364024013
2634 1.506135748778561 -0.6995586789136858 -2.122388138100721
2635 -3.53229346463814 2.074362856647443 3.998480983889554
2923 -3.4119565194140176 1.661445235221157 -0.04945751070566111
2922 -2.013586694167573 -0.6339239314150825 -1.0807191190454082
3212 -3.1950993490546655 3.3284541477039027 0.06038272076255039
3210 4.681592319366077 -3.550840806940505 -1.0246621149338886
3211 -1.07734907209644 3.034410671367212 -3.4349446938839754
3245 -1.2799865527728382 -1.3556356953921842 1.466414961938784
3500 0.4111095441371219 0.20145005256457804 0.20662483243279034
3498 -2.099750940953278 -1.4472122447126565 0.04989235466880461
3499 -2.3837635571060343 4.451150275624554 -2.186011368532697
3786 4.206630534368844 -3.266274985508054 -2.438424750881821
3787 0.40331906942495555 0.18249892583560615 3.6041311649639995
3821 -0.19578311388354325 2.6272530950764668 -0.6136964166760297
2957 -1.1472160221580388 0.4369814914644867 1.8414979440228112
2670 2.0912490919233058 0.6189949485914242 -0.011487589716422341
2960 -2.2570762764891676 1.370972305393074 -0.16319302443310107
2958 -4.037680499177302 5.585629938722251 -0.6496332560148259
3248 -3.2292689899671077 3.2784711570409883 3.0411932366112446
3246 -0.03193908007976173 0.06547711130946829 0.7847738487896917
3533 -0.09912533007488795 -2.8166709605815297 1.497760562899728
3534 1.022752917227255 -0.946122662425867 2.77061206901207
3536 6.219477551668968 -1.225500397034259 -4.854020368034373
5 -1.3027193491212132 -1.8839371200783852 -1.5763541687068388
3824 0.6748740200439655 -1.4551122552952236 0.4840850768639441
3822 2.633508552606891 -2.7570888342094264 -0.6744161554624464
2671 2.074833069272325 2.2292773004432687 -1.9943574182630184
2993 -0.5735528421288969 2.7471043700237163 -1.9536849851333784
2959 -1.1798017730293093 0.2204743584845887 2.9414706561653152
3247 2.235516012497482 4.245267839894659 -2.257980984491969
3281 1.6925585492131923 0.8300165079924604 -1.431342787367447
3535 -2.3165888152136582 1.890580667569052 -0.4980697611578227
3569 -2.237094645124148 0.3456371929275519 -4.877586817987181
3859 -1.6525173117683079 -0.5846701172111305 1.6667761823097789
3860 1.275821065077867 -1.5361266020658604 -1.3989528749156903
3857 0.3450949657979317 0.5920058512234939 2.0112403504466667
3823 -3.2193853389960845 3.917575784926578 1.2270974279729223
2706 -2.488387835063571 2.1929087825613793 -4.241205450486518
2707 0.02589927547128772 -1.3842216417098012 0.08234637643357448
2994 -1.8826304406429222 -4.055182884251977 0.6344398274994949
2996 0.6268479993288346 -1.0230112649180838 1.2001799217057785
2630 -1.3098848865407655 3.451368657015622 -0.7640721290121713
3282 -1.598385998094797 -0.7162132739005269 -5.399454498089756
2995 -6.889027217833167 -4.781669349128477 1.51073674001768
3854 0.7264369834312354 -1.78241780452131 1.7917026991515332
3601 -1.6259081406129015 -0.2750751494819122 -1.3434305539759681
3889 -0.991291664222339 -2.66642750534942 4.764020932363658
3025 -1.3443518092055582 0.21548104187358685 2.8761693452913373
2602 3.2559027773236355 2.393897961989522 1.5250765299617148
2892 3.348972744682803 3.7811536327091373 -1.6783473358190601
2890 0.4981135916124568 -0.2390650136515326 3.168833564051556
3181 2.268643224756255 -1.8505496564369774 -0.6749888123675526
3178 3.7684202243742715 0.028760852483899903 -1.5958805011204622
3180 -1.711099912747805 -1.541460961835932 -2.011310383156277
85 -0.43507518964154446 0.7982028654758618 -3.4334636950313597
3466 1.7569317766989636 -1.1682821698872108 -1.8858999170167032
3468 3.6596498537518682 0.02169079408707627 0.006097554652275161
3754 2.4183211797684803 3.3305110970948277 0.9175222799240836
3756 2.9848117951361446 -1.6187617381916708 2.279644916386165
48 -2.72360677223078 -0.38081517141018006 -0.5180346463970004
3867 1.6758547374329993 2.2595319913256278 -1.0160418820656743
2603 2.954119983678751 -0.7404565563010712 3.4684943411079745
2925 0.9313852541510012 -0.9457595158277511 0.5071163217011655
2891 1.1791768838521879 -2.2366212789009534 -0.2283993282188118
3179 -0.2232169545337635 3.9974030989813825 -0.2578783700864492
3213 4.934066398778979 4.159394107822763 -0.800138236026411
3467 0.27813069102435173 -7.8162213728493795 -4.8782262878214295
3501 0.7959088311465539 1.6020759534205156 -1.1023821595931929
3755 -2.142365622469796 -3.6850807620962027 -1.530322887127279
3789 1.9497069382468 3.6946635016531957 -0.4695431909983921
3792 -4.502573460010079 -5.108910668734235 0.27542938279710777
2928 1.2713519441801822 2.950756731680298 -1.4479669434355762
2638 -0.32609856715449564 -0.7216512078892552 1.3706114704756065
2926 -4.541804183242172 3.9694195698748476 -2.3157116364129884
2639 0.6504475085058046 -1.4695435791193423 -1.1482138674728894
3214 -1.437980802446355 -3.313340064756068 -0.7612662387423821
3216 -3.1963379060331847 1.945790073073541 -1.781615888901492
2927 1.159248832214678 -1.3900881546019717 -0.38465475014168304
3215 -3.0161161923312063 -0.021988130549507292 2.7413015631496958
3249 -2.4971563400791164 2.738154978790974 -0.04850267522023071
3504 -4.898849381810297 -0.30587500420597247 -0.6922137191931396
3502 -1.917750431069632 4.471702675105018 -1.1234255471693213
3503 0.8092091875269006 2.3020344265932295 0.5755470971029537
3790 4.095796758752846 3.4525925224963494 -1.7974569667554057
3791 1.820535212801787 0.5374350210087507 -0.08653844013539164
3825 -4.2861571737876085 -3.8298567505046375 2.1849610848336374
3866 -3.308203712853181 0.8376448000735689 -3.2502748664713077
2961 -3.382723081962961 -2.7890925240906075 0.7999892404178595
2674 -0.5676909556397498 -0.028098627382176826 2.382128002519492
2964 -1.256737237869888 1.6877385488794605 1.283303200791316
2962 -5.422188091693494 -0.416967802590721 2.0409836286872216
3250 -0.42276351200728657 1.6017876639686748 5.1896401005148425
3252 3.196331274693425 5.5194382306478404 -3.802663925908771
3537 -3.1506663618135575 -3.933840382884208 3.4210157235647407
3538 1.518198056520728 0.49971710924814067 -3.295467829042935
3540 -2.7657854042714196 -0.39130689633922894 0.8383429531267298
3826 0.5165589226704863 -0.5714898149982002 -0.8227148524648216
3828 -1.322296187956777 1.0458686077495762 0.47454664858177664
81 -1.0088178030867028 1.4583374136798577 -2.486799916109797
2893 5.084328034083021 0.9878594043236553 -1.7159962496300751
2675 1.5770282530628446 1.1761603893768864 0.28469963965662304
2963 -0.3948634493415529 -0.010829342789608204 -1.5535606773345734
2997 4.654343881473265 2.785914825655375 -4.240272102005676
3251 -4.0477548998170665 4.037982318185119 0.5829608467844858
3285 -1.6134874165971163 -0.7755464257219249 1.528226246019405
3288 -0.13647595587842515 2.158549314800086 -2.8024368506705315
3539 1.886924406694108 3.7955072024580376 0.35674398319304407
3573 4.025246857748117 0.8070745658252025 -0.10348991258228352
3576 0.46288616992519893 1.2017934445939278 -0.23674201128977204
3827 0.05109555209640192 -2.3047070688361555 -3.8808382393956204
3861 0.8476678737083677 3.6955537944309476 1.1352588404082926
3000 1.1409306550603775 1.794486875364515 2.7223122446098866
2710 0.24337281871601196 -1.7383022066382627 -0.11080492167646032
2711 -7.057068757319509 -3.2472744821574415 -5.930307927907248
84 2.797930904923593 -1.9690301202233398 0.07343080009731903
2999 5.9680420296466385 1.1220157785775402 4.5751329220041566
2998 1.092039960664291 1.7927995496457834 -0.09654915159936403
3286 7.524470744856927 3.306787044013384 3.816524671296971
3287 -2.165715601705548 2.6868074048529 0.7963873894476814
3609 2.7338540229354247 6.4219150902258395 -1.6909840245856504
3291 4.2976543512247085 -1.30217114420417 -4.969264142876355
3574 -3.020337411212669 -1.7044492138531913 1.627327199135079
3575 0.6849120361884388 -1.6731348894906326 0.5180537697794803
3864 -1.3987085387664009 -0.5855784525933824 1.5250995843146198
3862 -2.113183679214864 3.9693339602017685 0.6032115109417777
3863 -1.9778533548226729 0.6826789371908313 -0.6918263854563655
2606 4.4103861187655795 0.26029871690971895 1.1154436564668284
2896 2.0410684974367674 1.6146270638886568 1.7101379435383133
2894 -0.5396879603820262 -1.429130384321144 -2.1245296270208236
3182 -4.605367739062486 -4.723832205980178 0.5385093148713049
3184 2.8738168672289413 0.1733802818630232 4.6309962126580935
3470 1.2558765503219038 -1.2740054220392958 1.5091654045845453
3472 1.5422122109429435 -0.28116850553211364 -1.8014061182450913
3003 1.4699509369557844 0.6916335341213259 -1.2795811057543645
3758 -3.5202163386238237 -1.9505048277393777 1.2227518293324047
3760 -1.1623707222245314 0.13761688634433591 1.3877299312925404
3579 2.1048102519563745 -3.5762476695460133 2.854799922992904
2607 0.5327461482430034 -4.376999506476519 3.3667859714026034
2929 -1.9814756821714095 1.5901562823673159 3.3790276567983613
2895 -1.0994494900564757 4.520153500897962 1.8827646125008592
3183 1.8301393746320922 0.9568927809403371 -2.509411387285107
3217 2.2609766600395775 -3.872027194854444 -3.313337106731142
3220 -5.331631738355177 -3.5132965169119226 -3.6782297253965583
3471 -3.8030073503223356 -7.150083621441613 -1.392455643325246
3505 1.3907295535056197 3.6578968836257157 1.9184226645998737
3759 1.602081632626277 4.795895381737796 2.7806689201882433
3793 -0.5112860628419424 0.5708133873076617 0.14040128359882043
2932 1.0502158765378993 2.2787102310316696 3.2344087069910574
2642 -3.97051237681558 -0.011747547955278308 -0.567931955827297
2643 1.7995007606903557 -1.7009303780194602 -4.320569834494858
2931 -1.8614674578866988 1.5402117220127374 -0.2834795781638793
2930 1.386694609335041 4.826519577776283 3.964237996746235
3218 -1.9804403091921432 -1.188028303124707 -3.3464991816442007
3219 -1.4817647458864858 1.035352645104885 1.7285969836272395
3253 0.5989834862905971 1.1771191271554833 -6.951307739244064
3508 3.792556780679821 -4.0563223788591 1.1488169905253725
3506 -0.6808929924829529 5.554291864665092 -0.6129043603871431
3507 2.8439953831934774 -2.1118002334084083 1.9551729976650594
3796 -1.722115059414521 0.8919551481994145 5.341726036318164
3794 1.9184154607964432 -5.192825618343222 -2.097147772614594
3795 2.0755113845044635 -0.6021480637384835 -0.6078134644381548
3829 -2.0488683791966373 0.6475831228724721 2.1091362502126696
2965 0.0001585608721228121 0.8304709766416841 -1.174622832645351
2678 2.917999711070609 -1.4540166386528457 0.8741684817428254
2968 -1.2139444626314368 -0.392801117740665 1.3851560743008344
2966 0.07092115458847473 -1.0569974488876384 -4.0308464690569865
3254 0.21469583802512732 -2.3268625252603656 0.5871319090277626
3256 -0.46692521752947835 1.5244345701715851 -5.684974629874507
3541 3.4259561074506717 -3.079967826371527 1.498787802281944
3542 5.073088089338271 0.13269100900959332 1.6051771724369341
3544 -5.143335460514503 2.393606670866341 2.735415915619764
3830 -1.1272249635613467 1.9872052825662962 -3.2744306944984767
3832 2.8527284915202076 -0.008876033634463109 0.543233328305196
2679 -1.7515795609548874 4.2220575003568825 -0.9346132668551063
3001 -0.9872993319867971 -0.7634365841025225 1.5999779764483113
3255 1.0392162181025424 1.6966056190926633 -0.2992361307220299
2967 0.28212411508614765 2.3726230972561155 -2.9261323534818633
3292 -1.8000607239432886 1.3618483834254305 -0.8036959601643892
3289 1.9181500871384152 -1.4195534098764744 2.975880665537623
3543 0.3012695322661796 3.7959586393200913 -3.855121788068889
3577 0.8912343320182509 0.9475844177069102 0.5421599124756259
3580 -0.7100148534448549 1.074355125262981 2.9907580311397353
3578 6.597580749840793 -0.2823361185575482 1.4490952000687043
3831 -0.5415582577676346 -0.2830891416056676 -0.5280545279641479
3868 -1.268399966098206 -1.3618413575435786 3.9727322909171487
3865 0.2740871763738286 1.2512318445723254 -1.1994104759573592
3004 1.1087792300672197 0.3338934469510215 2.569787419326459
2715 1.3518595227677541 -9.292736512884463 0.7238845496027997
2714 -0.08544164989177831 1.7197347665470974 4.415192488155993
3002 -0.6242334142781307 -1.5669106130296393 0.34999823188211454
3290 -2.1372479381649203 -1.1994976720045363 -2.5389753963681203
52 0.6146474283310326 -0.28966310633271874 0.2305962851665374
49 4.853723168424001 1.693940375509783 1.4416737285519081
124 -3.4836785193488606 -2.048170718921223 3.793283130778124
3321 2.6924486068653084 -0.0727780120433733 -1.1755701311871414
3325 3.8633669863816142 -4.775220784427192 -1.234578507602009
3177 1.2279138450719662 0.4591217566736527 -1.6100182778428478
121 -2.6658232029644275 1.4480308843064866 -1.387756895748032
2610 -2.8926228846622806 3.196084935231628 -2.6875497628351614
2900 2.4339464696347326 -1.021944099599058 -0.11893455504306676
2898 -0.17706931136979648 1.7501481381362052 -0.5802350378312535
3186 3.9717733029610502 2.7377403518955226 -1.2759994735813966
3188 -2.8694916376687982 -3.070498142066488 0.8688687114589352
3474 -0.39719499251700957 1.130569839019762 -2.811016960350399
3333 0.8888187200070894 -0.660566234767575 2.9632137274504338
3762 2.6523595960363644 0.2702993605333926 0.6190146942316854
92 1.567500139365152 -2.857256660448092 1.57783828435463
3764 0.014299421138749139 0.2822953219042238 1.0898947271147663
2933 4.499556262447771 -4.305859889025237 -0.21528762854520547
2611 -1.846909819133612 -0.2163429887420726 -1.768149720724593
2899 -0.4797114485849506 -0.761490156071157 2.9141886474016343
3221 -3.540399530565697 -0.7693578607923428 -4.7368143939104765
3187 1.029835958868802 1.824814473882973 -0.6244899427938166
3509 2.444545466635043 2.9216229316241717 0.18113754762153997
3475 -0.7738628888847585 -1.957530992445694 3.954051311607803
3797 2.0512089302942234 -5.845657484739712 -6.790593249956505
3763 -3.4402109165247703 0.9270289605018562 0.2632052725161933
2646 1.3897091011347291 -0.5153499854082547 0.0008420942187721922
2934 -1.2268694469114738 -0.671786619190728 -1.2196527322762596
2936 2.7082414779287682 0.4259120921949065 -0.4152610687791353
2647 -1.8903789789490697 1.5968694129472618 3.6050078407788457
2969 -2.075721778098168 1.7585068783293587 -2.302954520051029
2935 -2.137341679138015 -2.87980263339034 -1.4723992821100167
3222 0.22077023577124893 0.7552167862146875 -2.4860636023727243
3257 0.22541091083194087 0.0701097309380366 1.8450348212768144
3510 -1.9669001851102126 4.52648450647407 -1.862586552952329
3545 -0.09957767235842804 0.5937137022497636 1.7875961871529493
3511 2.7264060327155386 0.5653267139850365 4.710424406546031
3798 5.184067527959102 -1.0099785978486155 -2.8810110947416616
3800 6.50709479451532 -1.317113366029531 3.8279230492211798
2682 1.9683547570130706 -5.042132865838885 -2.717594771131398
2972 -3.705899075524115 -2.898020453543796 -4.220160044089513
2970 3.0122087751532116 -6.070468175238798 -2.2674361789482482
3258 0.3693254864481693 -1.7168767034940675 -2.5973148966345216
3260 3.588283105890678 -0.6205704346464247 2.3049429143177314
3546 -1.465001833312482 -2.3664136822932664 1.489890257086193
3833 -3.005663633653248 -0.3324883569902422 1.503221102492004
3834 -1.1492243907258004 1.951108612908894 0.0685697357855977
3005 0.2030936236436063 -0.5681126248183851 -5.203950600218014
2683 2.24463874730532 -1.6472102217658342 -3.0569270752123034
2971 -2.536980602713037 3.4649978035122495 0.722657161684542
3259 -0.21757505458887125 0.17596292964818133 -0.7360759505329719
3293 -4.081624130947237 0.379690633289493 6.267449960852476
3547 -2.578002060690293 2.568676969076691 -1.2044687235820604
3581 -0.930547010419917 -2.0736114872789284 -1.6538259094999035
3869 -0.4563939623958338 0.8864052213609774 2.9322870394968956
3835 2.541740373848274 0.2784487904755783 -2.17351699685559
2718 2.7149265381534233 0.9812795019908575 2.9348818032883424
3006 1.6344757632707765 -0.11047995780385159 2.2153256579345766
3874 3.301619137623128 0.7122355024130376 1.6926009193623925
2719 1.9768988143257165 -2.5779011236258866 1.0956932649048408
3296 -1.3312771814565294 0.4182247013824509 3.3892835769550533
3294 2.7942513332354273 0.02672567915580775 -2.3314390770314395
3295 -0.3443834694699828 -4.7987046173779255 -1.848154999671636
3007 -3.2375463503911184 0.8941369750201573 -2.2432883793262066
3583 2.3887119514502215 0.026659440059891865 -0.03406704153485209
3582 -2.6458936386098153 -3.3856154310624222 -1.2817784818751432
3584 3.070017645729005 0.9533031654928459 -0.7327318363142795
3870 -3.5906444847087498 -1.1244038312139422 0.7613227694506538
3872 -4.271609928794702 3.0537430248592368 -1.2777779848833326
2614 -0.7397005979264728 -0.8858627805482924 -2.920345171178825
2902 -2.9566550356347774 -0.8917714880069553 1.7360024137696703
3190 0.46049077444018055 -0.3291004710345117 -4.683159199888622
3476 -1.2459380788146297 1.7076109374862647 -0.39056518120079264
3329 2.840328630263551 -1.7793211495429992 0.9799258860450796
3478 -1.41781757350241 4.730118785456633 2.4154938967412165
3766 -1.3396464527952854 0.3388952181098382 -1.710665033069713
2937 2.9042418325776587 1.2728006748167344 -0.7968133801221037
3225 5.0273177256158865 -0.08088318298959532 0.7759893529013717
3513 0.9712094889536941 -0.24884245089357432 -0.46237386496365734
3871 0.1333407838168659 -2.7518556550365756 0.7734058049546753
3801 -1.537226359890258 2.900429221669703 -1.868842911089281
2650 1.7240363756522017 4.172284416473691 5.07532543788903
2938 -4.150005499708273 0.891362651459967 0.077294373132539
3224 0.5703073604154599 5.0801496783023445 -0.2755444396642127
3226 -5.921172877900554 4.240658051457352 2.867372119858655
3223 1.345250619888876 -0.07595924199671333 -2.9288647683078324
3261 -0.6085702619034177 1.5680412246296298 2.135895026914391
3512 1.2832163570181694 -0.022016872360548036 0.5012563317773227
3514 4.613497845407188 -1.0798808748691913 -0.017949582631974593
3549 -2.1944268176104478 -0.3092694481105048 2.5745406538475573
3802 0.28880352713553925 -0.4496046056552906 -2.2493570902053794
3799 -0.20524703216514725 2.427886894278549 2.9172702166824216
2973 2.7640954030533744 -1.7616776502998066 1.3314696890826632
2686 0.09813864579485275 5.141269713275016 2.834373592978983
2974 1.7340267343787774 -0.12541490633783914 -2.292241692602951
3262 -0.3012497902302811 1.3612343268495872 2.046641069014862
3548 3.161544368323277 -2.48052325676578 -0.9646644202953979
3550 3.063426113530555 -0.36361313715956756 2.6574389682539956
3837 1.1956661526812677 4.108112791335232 -1.3789896923177538
3836 4.578955306930604 0.06496517973928108 3.9594158184777872
3838 0.040329253024681294 2.202558168532362 -2.9725327770814864
3008 4.674075686314996 3.2701908288402453 -3.3794385858648868
3009 6.817000535971608 1.5739170020356426 -0.5709325640228854
3297 0.8654846274998499 3.451963012137884 -2.6511377862920007
3585 3.564581773827739 0.03030247641265013 -2.091730792321929
3873 -1.3546575494759538 0.9752767949794585 -3.3271634789932394
20 0.49826275094119143 2.6948353381846855 2.139588773303962
3010 -1.9062385270935815 1.412642161804167 1.7280937018850366
2722 -4.685698470481927 -4.836931275269065 0.8882330490319239
3298 2.1132986291386073 -0.12807994276997714 -1.215375503873565
3185 -0.9148079340055852 0.8506314832066522 -3.6102185987661084
3586 -0.15007558412931363 0.6782388932610672 3.4259499629178722
3045 -5.504241969130135 0.8570102358530123 -1.6150818643925582
3765 -1.1374092011110484 -0.08658051873111693 -0.2918246166067169
3041 1.6757698686018994 0.2576581747475258 0.47373283641236785
128 -3.7063147641910623 2.524289313173683 -0.25146735857148045
89 -0.381390146789486 -0.7904035074807924 2.9121802949326314
3473 -0.46817092117921494 1.0324761529586224 -3.8380721650262153
2897 0.29560041199532955 -2.4253289190400302 -0.8811192625822359
3617 1.0079041564743667 0.1845476759127565 0.4410149792193291
3189 -0.537988426943001 0.8052655223884458 2.3931958668907667
2618 3.5274649138848404 1.638017912292635 -0.40461244753738657
2904 2.2883515301381903 -0.6429797295556334 1.9333951757613423
2906 -2.278953440720499 -0.13907238377785638 1.4692037547704209
3192 -0.18909268772623147 4.13539709535785 -0.7855788721583813
3194 0.4233495116632558 -2.5887861313190563 3.3901124112793997
3769 2.2650420962197395 -1.8254836409103985 1.5823426323542429
3480 0.20915056080473005 -0.6716945700353996 -0.3377462631172048
3482 -0.40080119759582056 -1.0667113428042334 2.0039927692324664
3768 4.844603883148153 1.8632583237786193 0.8314279022658013
3770 -1.8349829478612962 0.8533195974235928 -0.521495536177879
2615 1.4925229554671933 -2.2766870334469336 -2.871845140646619
2941 -0.19118294152863236 -1.3683093996667786 1.0866035934596034
2940 0.6286077254982756 -1.433065123006133 2.9583675103983316
2903 2.3972056825514163 2.0306488035827206 -0.013493504842526365
3191 2.707978406851251 2.4784412255255077 2.6989743243443893
3229 2.2286029271368735 1.5229585121645617 -2.1252193579357965
3479 -0.41300776896252067 -1.0287061981683947 1.643993191752905
3517 2.0295889273232346 1.1608972644063424 0.647138579489963
3767 1.509652470348194 -0.5382963398100626 -3.6850233541276345
3805 -3.6218451474858853 -2.618678761511785 1.5680154056000037
2654 4.429456870856026 -2.044064577297917 2.2882007478034834
2942 -1.933634447598339 -3.120616104753652 -3.701697963436701
2651 -0.2845434552721862 -1.5217616149116648 -1.2197404319278307
2939 -1.9079306623792816 -3.3382862999752594 -0.46783642209118
3228 -0.529757545231993 0.8871011677458472 3.6198724331859586
3230 -4.423509387251339 0.5158830674563405 2.780652188349692
3227 -1.093150850854977 1.3630853564890941 -1.3363544887738679
3516 5.908748179360732 1.0216021948070366 1.5925233267193486
3518 0.04193016424272142 0.7274247685555553 1.6597450358734849
3515 0.988339722341073 3.0237750352138284 2.3444355050366013
3553 -3.460836420719288 3.1836558385576 -3.243152054020661
3804 0.8140164446684451 0.9674429266308855 1.6429102381996579
3806 1.756138928467645 1.1711224056052227 1.7985599187467374
3803 1.680056913482373 1.0366219595105695 1.672564650193766
2977 -2.598098049132027 1.7849063147569 0.31378916308431065
2690 -2.9970567740894345 -4.471181232401664 -1.4591486576583201
2976 1.985137647287285 -0.5098255473290113 -0.482070706266599
3265 -1.0449027038184362 -3.070238298109005 -0.9277182313107976
2978 -3.920288894951397 2.4552310056766977 2.3229102073306658
3264 0.6649682740391681 -2.586556685323368 -0.9292734356549535
3266 1.1574913238905724 -1.1383955335028109 0.8219485850528379
3552 -1.1953976423417851 -2.74856729531735 -0.005531322484722782
3554 5.509372630167797 -2.4875014005528735 3.645233997275363
136 2.010714063782473 0.8859574724989369 0.9959815390186987
3841 -2.528558064105475 1.4469059499912484 -3.0313224268409935
3840 -3.351848614233656 1.751742732865612 3.108932327096131
3842 -3.5623685688140343 -0.6509719606695266 1.461034864214114
2687 -0.18590856231687852 -0.15977746788172098 2.6034018144859803
3013 2.4256877981047142 0.8436018158344224 -0.47362739604414716
2975 0.489315522807205 -2.7054622155099266 3.5543738501785893
3263 0.6499542091199226 -0.3105592649019265 0.2930740427766891
3301 -1.3408273967318252 -1.228720643463016 -2.90149825719035
3551 3.2348206844053404 -1.185664201252798 0.5051978011475776
3589 0.25082420305111325 0.9150165306420394 0.8025293138941022
3591 -0.35388871494624713 -2.1978048423367524 -1.1849532049313793
3839 -0.12281456358593362 0.44498252308669245 -0.2476258160910352
3877 2.0179142608711356 0.5956018598308862 -0.3901307712735556
3012 -0.47435747412953294 2.820655836811361 1.837155406542062
2723 -1.7587952004921106 -0.359150364258473 1.6110706355830653
2726 -1.494670237814547 -0.49535686382091204 1.3217586784985966
3011 1.5017548673125938 0.7564305120344024 0.3938946002996717
3197 1.7526018208598955 -0.6933752456225459 -1.233941928784199
3300 0.38522051773847465 1.6514820214001835 1.4568242831720177
3014 -0.383383030065726 1.438209180388638 3.376161723943741
3299 1.7821372012340126 1.4809980307131296 3.056835314280165
3302 -0.05694775992518662 -1.9256326945101292 -0.7707618596957114
3588 -0.6119149760171861 -1.9569133030447328 -2.3919919995812666
3587 -1.1542064293960879 -3.5649869233121425 5.170266115908575
3590 -1.9972967846956624 0.8065541393876418 -2.4520866604596807
3306 -0.18230853621651433 4.0903892904472166 2.3408646326276714
3876 1.9412881437670162 -0.9025073748449464 0.46464882356346454
3875 0.9480926209672227 4.608830253570565 3.3504250418980352
3878 0.17324317174117562 -3.6685790812964476 3.3859523118064643
28 -3.5374323574477393 -3.1114888303764747 1.5976721995189087
2622 0.34405365676350025 0.5152531013077324 -1.1663080811555484
2908 -1.3028492955932112 -0.2851435640662922 -3.4334439906516496
3337 -0.3982068955730771 3.647807265639718 0.16875346079246784
96 -3.0948364120583314 5.102866688580822 2.4046475670267475
2910 -2.320902319176825 2.9580486638284538 -2.2204325369722038
3196 1.6703905053768933 0.19013303225697628 0.03315711162084039
3198 0.5600420257009148 -3.7064735655098655 1.6191724842096333
3484 -2.0665681702048335 -0.9512044702217031 -0.04030003034328882
3486 -1.0362240857579161 0.11100944220179228 -2.088100275272358
2909 -0.598361411325379 0.9305344075383323 -0.9034223959896813
3592 -0.838797960307064 0.28189493381397307 -1.049360529320979
3772 -1.2171658398825214 5.388246754684326 0.13796240084696798
3774 2.5626844335541334 2.600300970483443 -1.3489622527647411
2619 -0.012740907469288595 -1.5158785895043427 0.45228024393423116
2945 -0.2624204307137446 2.017067407936628 0.8771458584076423
2907 -0.29975393093360897 3.0252709504035202 1.3740744002504324
3195 1.4562139483410506 -0.6058434437041398 0.8858225261676792
3233 1.619886931820416 5.300823187094937 -0.46057930811860043
3483 -0.0543455102241552 -4.8481653839426055 0.18672612229614544
3521 -0.1384906873469371 -0.23006049999882977 2.6990284364014867
3520 3.511449907758663 -3.0956457170449445 2.7900014503232984
3771 -2.4904918212302687 2.872724209033075 0.7637593962556901
3809 -0.9119199660575305 1.864270045744425 -2.720219392402487
3808 -0.0035431068745865385 3.333821709565638 2.8056020096015586
2944 -0.7158399847721341 -1.0096717622968645 0.5012239714109417
2658 -0.25042942251637934 2.3283009052679944 1.2339980057888178
2946 -0.5141874230082232 5.453451182075786 1.5902078891186613
2655 1.7847860172597088 -1.4249766267199715 -2.85479804553004
2981 -1.6088742377430547 -0.015743640458484955 2.6644090683132258
2943 -0.32913576838204517 -0.31786946114725523 -0.36617223888995687
3232 -1.2200914427270058 -1.322305863969458 -2.8805681003468457
3234 -3.5966775405619047 -5.392454389960274 -2.953510798871539
3231 0.45880591922386715 -2.0825389564583046 1.43373610978258
3269 -1.477496863934863 3.2513509121532365 -1.6519839575904744
3522 -3.119884990386624 -3.6487220687057924 -0.15326389917191785
3519 2.8938731025034783 0.9859520894942716 -1.804644809874263
3557 -1.6953820723707067 2.868327505913802 -3.3765491183397276
3880 -0.7924585752988494 4.737019473096801 1.286571649416137
3810 -3.847738893429835 1.3433713096378077 -0.147994146239177
3807 1.258361963570078 1.6864599455824878 -1.392157845020542
3882 -1.5619182453964557 -4.102508425636571 1.8702093864040543
2980 1.3707493226305192 0.7065880490677892 0.8208723683878103
2694 2.8692995051674246 -0.4326960979537049 4.616968594975434
2982 2.9374820321139414 -2.169869998263935 -0.35604070203675614
3268 -1.7854220362930202 4.961407750205161 -1.6816942310903593
3270 -0.25478766021351595 1.9581694688675881 -3.772474777089375
3556 0.5643129274611477 5.762733813971387 -0.4236738508845423
3558 1.7959071396478545 -3.551270480500907 1.6983764044432779
3303 4.766370349242106 5.524410582617306 -1.9387259404215809
3845 1.3801544875162166 -1.2256995943855806 4.230497285944973
3844 3.121354529898382 1.6356934558197158 -0.8768880393786246
3846 -1.4417959441709765 -2.129638660706347 1.322201327985542
2691 0.8618173021772277 0.9854181676781544 2.717098614428279
3017 0.9792866013861312 -0.6143787627360634 4.609749349627555
2979 3.394613744995991 -1.965803443317191 -2.8987449573149133
3267 2.4833314620276603 3.433875370913391 -1.8739777720862032
3304 1.5621605196020825 -3.287769177905033 5.4095026510003095
3305 -0.3809569685946072 0.8625793219828527 1.682245056966413
3555 -2.753023069888324 -3.6203642997658583 -2.3743931994287926
3593 -3.701306233165739 -1.8898844478249968 -3.53385781784144
3879 2.21107268284119 -0.004120108031198511 0.5682389119490692
3843 0.40369070536462864 1.7732712791388663 1.2860757844850186
3881 2.3262196488354867 -0.016239556072062542 0.8099810002799476
3594 1.743920580967713 -3.74003749415284 -2.221888225578683
3018 0.05684433251455422 4.407483908564773 -1.7662958074669233
3015 -0.6255148083485597 0.9527527183367894 3.1089574563604683
3016 -3.440430482625872 1.1640496016144786 -0.9251751669755531
2727 2.210956261508125 -2.7160829909782884 -0.8189247462641434
2730 1.8042035260150378 -1.3176853279719143 -1.2652516310195416
24 1.5372384303050757 1.397479906611446 0.4796208734687569
97 1.2862036665149157 -0.20910130135877186 -2.621802036313201
61 4.006835063489818 -1.5012442989100223 -0.8104245389040906
3625 -2.2158918653874276 0.6860397663269974 1.2232395090044832
100 -3.0220841242722063 -2.8208702020695795 -4.55624660565899
132 -1.9338450904374551 4.919829213150376 -0.9954354147487843
3913 -1.2985499039151336 -0.4804909085741258 -1.839881268529699
137 3.8605772056942653 3.7423564244286527 -2.5032337238603057
2905 1.3473355004187428 0.40044564538506733 -0.6822679301620773
3193 3.0154807229410827 -2.4100660000641096 -0.7582824787957072
65 -3.082066498868874 -1.4189960570774693 -2.314802908197641
3049 -2.0366622471718525 -1.1359863281666203 2.00903321417473
3341 2.4695172730068986 -0.05036767146622908 2.646872613844855
2626 1.9919846526573908 1.9719163897143603 -2.833623265331378
2912 -3.944924360356763 -0.8687596520488818 3.9759165214437475
3853 2.502600094450018 1.831086588611963 -1.071520424666145
2914 3.379622204573802 -2.957048248353709 2.843094563694011
3200 -2.9858747005279738 -0.010137248721368102 2.956537515398064
3202 1.5762937018335936 2.6266477783191005 -2.1833866925216245
2881 0.11462541010809685 -2.4657743444727402 -2.887599342555003
3488 4.911984034727721 -3.954409131555311 0.6215070104600291
3490 3.4676074538143493 2.1956668809408395 1.5809815572206862
3776 4.831252516068751 -1.8028355171062687 1.713652462364663
3778 -2.926114878557899 -1.9254903121782425 -1.0446324928864683
68 2.397358516302362 -1.4500654900890178 0.3384997092331587
2623 -0.703109713654063 0.10812993149925226 -5.4400138320419815
2949 -3.377267886994174 2.789446826992978 -1.1449062324168437
2911 -0.1001904551237569 0.724776713072885 2.393987804575444
3199 1.506192998887921 6.121740066515267 -2.189944451822738
3237 0.1259552258848136 2.300288870957013 -0.9644763892441891
3236 0.5777754953221139 2.831215242598465 4.0258781505421375
3487 1.373522393552847 3.0421873707260767 2.7629595512370355
3525 3.0108944699567726 4.577103078656542 2.6794440578301923
3524 -0.9149754932174461 0.18586942872111706 2.4707714636255576
3775 2.9029907787498375 -4.080929571246651 -2.756651569709387
3813 1.1712210300919956 -0.9323778902124114 1.3254785665587705
3812 -1.352599564723482 -1.582730753588759 -1.0808451973631852
2666 0.3176797011242047 1.301629029924454 -1.2452971227050964
2948 -1.1617080772102186 0.10362661690461343 -3.929225196726215
2662 -2.3488850390123104 2.0677071690907534 5.4529678209023995
2950 1.6093561212357983 0.26902329753878085 -0.4821804930164501
2659 2.1491321495981817 -1.8784140167352685 0.023129026886797913
3238 3.3471739676452485 1.5024738130526278 0.9830224024468156
2947 -0.6535854214644664 -4.6593553671436485 -1.3050205533626662
3235 3.370591472877155 0.1550366326873414 0.872401009722868
3273 4.223272921326253 -4.343028874773989 6.438146318558246
3526 -2.033096180211536 0.9702349991941038 -0.9342458052428444
3523 0.583851748690374 1.7379265844241418 -2.505670095367671
3561 0.2015917906499472 1.2505885939359982 -0.5504746968190217
3814 2.1048229668177596 -1.2328287361559487 -2.2177083525503405
3811 -2.646428507485891 -0.10558935680986269 -5.415610837167937
3849 1.3084297661728856 0.8737515073675982 1.5533764628436675
2985 1.1634396767622204 2.5362461168560544 0.029565901897716244
2698 1.0324653866634355 0.8031293059223182 0.23254766764236479
2984 -2.1350942880006563 -3.813136116749806 -3.4071044234127412
2986 3.1981407268153688 -0.06562580853202624 0.07456311628817049
3272 -0.07541702147125108 0.7246204102814158 1.6817584704804402
3274 0.806382588640408 4.521363267929945 -2.8654161408952183
3560 0.3148398427060977 -2.715555687026439 0.15939672084032325
3562 -1.0368397345126785 -0.40701459910261784 1.4950205857471353
3848 0.02790594275409378 -1.429196447600945 -1.4949720907780055
3850 1.2329750200450162 -2.847815611317472 -3.0255497568306557
2695 2.119227232343759 -1.8436280059331411 2.8787384413498787
3021 -1.7278248802192666 3.4290876519156868 1.9813911479209056
2983 2.7029470693300524 -1.7953646409765656 -3.7748247780839117
3271 -1.1671134533543275 0.20076193789274024 -1.810190489422152
3309 1.5314330058589174 -4.835721233923499 -0.28416927453572355
3559 2.764153131841181 -0.0921643167435121 0.9706994737967977
3597 -2.8772099382059166 -2.7793022336908018 0.5538418536844235
3596 1.9330866949861503 1.5708672426604908 -0.38593715736259354
3847 2.2544820114350244 3.0665790247656424 0.6798553610817148
3885 2.931528050591422 -2.359619334861876 0.10189941101472084
3884 -0.997490736394538 1.8983513493114101 2.178725875042267
3887 2.3721424659311285 1.282543654493282 0.8410267216068973
3020 -0.5806297276029119 1.039277731207768 1.605147785355146
2731 -0.7734213038872374 0.2012219751340479 -0.34749787511467894
2734 -2.3177096695874324 1.6110862039297862 -0.8068525227864634
3019 -7.020390115515361 2.171427496558709 -2.7721434982236772
3022 -2.2929042097645294 -1.1637575024980202 1.554703693358578
3308 -0.7319921559232856 -0.2791290922366951 -2.5309166231367013
3307 -1.7589208957691391 -4.192960053275157 2.7728683493728865
3310 1.240663141472734 0.023848614716499347 4.361763548684891
3170 -3.8800762050828945 -2.7774091245436487 -0.9537080426279303
3595 -1.0765080256775919 1.238564307072523 -0.7170107357674138
3598 -2.800342150931188 -1.3952750758679 -2.5533598013523395
3883 -1.609468651663209 3.5628820222358 -1.1674827030768729
3886 -0.10513835082895163 4.314519438739392 0.4389264701498948
2594 -2.1340064268793704 -3.509918788956916 -1.570641115329158
2916 -0.9944896543736893 -3.727334229321889 -1.0913486064282634
3278 -2.366962030572349 -1.6894573980183778 0.9313088689100796
3204 1.0392042988745884 -0.38870634734159637 2.416465066998615
104 0.4391682399958972 -0.829467683031577 0.1355338026830408
2918 -0.1349149528638768 -3.849810319550877 -1.5883426619784138
3492 0.7674662569109801 -2.306080514067581 4.677229963454292
3780 3.443236766233387 0.4178174182483049 -1.2678864046165645
2627 -3.239778846037158 -2.248328331877803 -1.2547075617103272
3921 0.7330457683509553 0.9668072300866484 -4.045466209969264
2915 0.301120344676476 1.8693574147468137 -2.353892736914892
3203 -0.2301213048865154 2.3045230738978653 -0.18859432621899191
3240 0.30721629315997623 0.40893176694039757 0.04466039179158967
3491 1.6991595607944991 0.1390527779305464 1.6546787749462315
3818 1.5293741862850097 1.145870248613518 0.10407037589480743
3633 -0.40739516321807395 -0.8197468934085725 -2.2900054525418994
3779 2.5589955386577565 2.9406007858084724 -5.689152838556998
2952 -1.788160677817624 -2.2007223598450234 0.6649138172575236
2663 4.056102570715577 4.3994040643352195 -1.7746625711406059
3275 0.43674611892116716 3.8495884037625294 1.1989380176362494
3600 4.428965122990515 1.5867611755465227 -1.6321228644592094
2951 0.7798904681578274 -4.257077669313157 -0.48782812595453806
3239 3.3164708258770537 -0.4648457393375091 4.1165722343060684
3312 2.2459591139875283 -2.2321453188901206 2.5121133954670536
3528 1.5421086830634934 5.127774290037965 -3.5279193139900085
3527 4.531155288128852 1.4858032284951725 -0.6148181896551378
3816 0.898649343422258 0.9497528743565359 -1.2931564815334016
3815 -1.3721939264517529 -2.8089556410872354 -1.7951142767785973
3023 0.8385031296264727 0.02651437595067893 -1.2354730150718716
3458 0.9685513893899411 2.702139991283757 0.9969827721366492
3311 -4.794459617979843 -0.09633867323692576 2.816945009827321
2988 0.3374291834207286 1.1204007906645772 -0.7668927446786159
3024 1.099910574618997 -2.597225954240087 -4.534710202648267
3276 2.273223448146264 0.8060748421478238 -3.0221156033633965
2735 -5.265055537164446 -2.141004387721115 -2.05252363462175
3599 3.1874153315937406 0.12416718985568038 5.072062452748849
3564 -6.974904442473609 5.34878631796365 -3.2357514516876007
3563 -4.122667136828971 3.112793506309473 -2.3258986748177604
3888 -2.1670743752732777 3.762233930464408 2.7334823283484275
3852 -3.165639155303742 -3.010615698947782 0.3362712789454613
2699 -0.021315513907174857 1.9394560520414281 0.6494840997064242
2987 3.4570130743946965 -0.31563977971089696 1.4550404468487843
3851 -3.006129815446541 -2.3426589458744282 2.530665725829305
2913 -0.6727635735922748 -3.3674630538984105 1.5899541224503984
3565 -2.798458245625326 -5.027382795873263 -0.44515175137771473
3489 0.4310847395643992 -2.3518553357173677 -5.275025020685248
3781 2.0759410374215586 -2.2098045623098947 2.5107575614766877
3457 0.8144550291142557 1.081923139728182 2.8740768764243083
69 1.4868781272685079 -0.8288056355704303 -1.8872737135470026
3782 -1.2975407490765318 -1.2120677696722335 -0.43508947430448014
3277 0.22222060611185956 2.418671458417413 2.0893938999140786
3530 3.5882520249389147 -0.7531114769810288 -2.5312804605170607
3241 -1.7554082296118187 0.09816792192985588 7.7044360048804155
2989 4.6888702957136426 1.0466873241244057 -1.4800530219721324
3529 2.503800307879589 3.287416407982714 -4.509225735310067
3566 -0.0582660212969274 0.6884789638047212 -1.4888892923074086
3242 0.7049515977828908 -0.9034507824316231 0.9006080024295557
2954 -2.508003455224302 0.5305869681411374 2.340068438167077
73 -0.3383507139229642 2.4514829470393034 -0.09914258016554905
3345 3.166396035245666 -2.447226027707325 3.2460816911096155
3493 7.470957723401922 -4.664983997665529 3.6645868383469034
3746 -0.2265607230174264 -1.9499552111094627 -1.2006074208565998
2702 -1.129491787550273 1.9956664157160675 -1.1651323596614884
2882 2.450456825563153 1.7753057941568557 -2.972681376374074
3494 -2.4848228765060987 -1.1617023776956361 2.323894216953856
2990 2.3032367706264263 -0.3666220948325578 -1.6928274051809398
2953 -0.5806774882546312 1.7214737637223845 -0.8658068404650289
3206 3.7316968899901175 3.081163430250511 -2.8032438910067374
3205 -1.012944077270278 1.3332491325769824 -2.5590867359804577
3028 0.46376855966358765 -2.8998075666474037 -6.688307226075462
260 2.2944244902388276 -2.2531951622530433 1.1405951834706909
3316 -4.243812356023082 -1.5480624315324576 -3.1004783394073314
224 0.4912261892667125 -1.15707234701278 0.5928290979522958
3604 0.4536425785061811 2.115062362023949 -0.6940368136599467
3892 2.2933712000574946 -3.856945515798497 1.2017659452722795
3029 -1.0785001553486602 -0.32829727291954286 -1.8696229982669483
2739 -2.3730104629016893 -2.821275862685743 -1.2372916138256789
3064 0.6637018261313548 1.0696906999528017 1.2483834658354032
3061 -2.5951850527687226 -0.9544497426403529 -2.613398277615339
3027 0.9753439327317525 0.6677656253772081 2.688381688023277
3315 1.1056033447155835 -1.0445844606135397 -2.9093440936110224
3352 -3.101001101901559 1.8472564060960015 -2.858829266635935
3313 -0.47634000441032576 -0.7769789689972281 -3.0459637082042077
3603 -4.081215821748216 1.5568154028405379 -3.5021212635787027
3640 -1.1574457245781975 -0.32338556671851676 -0.26702540893025606
3133 2.8913350151854917 -1.2523045192826248 -1.2345591526156603
3891 0.2921265437778033 4.861595116248658 2.389191203833243
184 -0.560494680193991 -1.1655272079502728 1.854845172786873
3461 -2.25244116970619 0.9104839384969424 -3.3591629202804985
2775 0.4978616773107836 3.004476044460641 2.28256446949825
3063 -3.3287929956594486 1.7337887852745473 -1.9822692962794914
3351 -1.0532735490508862 1.6810756857202758 5.164938982069248
3349 2.7540828012232526 -1.1419204450183682 1.1111899367641471
3639 -7.434048441788903 -3.3559298249101213 0.9072581165428601
152 -1.7364520197110105 2.580261013964899 -0.08343213166938301
3098 -2.7846072491352203 -1.2226495396607975 -3.362425039857579
4004 1.0555505063960204 1.5790816222965982 -2.551592898510024
3928 -1.501401535656488 2.9293162512136264 1.3002469320193064
3927 3.4706391293393413 2.851906873480186 -4.8600220279292055
188 1.8941551748341805 0.2078150534512828 1.4844011951243357
3100 -2.77197400759049 -2.392443949933613 -1.1735405385585853
4003 -2.020197153064227 -3.4907706334051554 2.6818970730422307
3388 -1.0958310465536967 -1.698096626831963 3.2619614538256716
2815 -1.2656952445681773 -1.282228179968141 0.31330076657866013
3967 0.16061426800539247 0.5677223175612219 -1.1110188691118013
4001 -3.369713290698173 1.6960706787867597 -0.03150973754851984
3676 1.3406997671031413 -0.7003542746442589 2.9705250482387995
3679 4.78493854327886 -0.5190856131937418 1.3627173392362941
3713 2.624567590260843 -2.4282914452090574 1.924482193485983
3964 -3.2082871613314827 0.8476988723054377 -0.4547426178996257
3716 0.8865384643673516 -0.6326065444681422 -1.2511650375568535
3427 2.078940975654922 -2.807832477980293 0.44649598553435305
4002 2.0144095377788407 -3.8438215193842082 2.299919374664624
2811 -2.479730170352536 1.9624004371743289 2.1544414653119675
3715 2.615253944982741 -1.6462530927605874 1.0228732568383954
3099 1.2562819030521462 -1.326668201687148 1.5693373325186857
3387 1.2406953516907735 1.4050707168946035 0.3770499373010049
3925 -1.6937602564793668 2.313039573340678 -0.25507436545701656
3675 -1.328645692125576 -0.26659650950065633 2.101528461226783
3712 2.290731009410135 -0.9429414121094662 -0.35143538673654295
2851 0.8381158978212029 -1.7568887457170594 -1.3291207232760351
3963 -0.21086979246786927 0.015352278963464016 -0.8359720718505751
4000 1.1546502484658177 -1.6203751622118636 -1.1212892980786433
2850 5.657443900716094 3.683313433582894 -1.7773526286209338
3391 -0.24849092515519092 2.4180963439116576 -0.13153913411842955
3136 1.0789738003089444 -1.631862117417847 2.4831066156242705
2847 3.9289446105869086 -0.3087165373830369 1.4423918973467709
3424 -0.8915505875942459 -1.5757858017984019 2.244151305248357
3135 1.071366478942128 2.570433249641482 -2.7413448945420456
3423 -3.1271661756137394 -0.4432224872199482 -1.2136416701238333
3714 -6.281334209353282 1.9789065716470666 -4.110301569868114
3711 0.2754812341313097 0.9936766472368325 3.5054976984043753
3999 0.29710761378153144 1.5759603356380203 -2.450145782539234
3103 -0.5876004237093367 -0.20511286707692536 4.120991439858604
2742 1.8460462438738283 1.9261049297020445 0.7130882626978636
3032 3.2709007829791554 4.5984773575947475 -2.2804825108710824
3425 0.6496032232354766 -0.185982784415365 -2.016813969657901
3030 -1.3531302410711938 -3.856481837596617 2.367009537675909
3318 -0.7356196693481543 0.23934233376003297 2.133854748276689
3320 2.407535968089976 1.4375275635073037 -0.02506952637313117
3606 -2.0711206906740625 5.022311460931345 0.009738054036146318
3608 -2.855528863496825 1.9201585613088619 -0.2885525577466318
3428 -2.1788461029454083 -2.685040595365792 -3.6103908690192683
3894 0.6635406232927135 -3.8200049444602278 -0.5907722321085577
3896 -1.234729296535318 4.704062637035883 -0.9457629066518871
2743 2.214694521331891 -0.4443448007293802 -4.503295117645971
3065 5.097528788999644 2.1441161961224164 3.0201375066445397
3031 0.10451160726271909 2.124367959040016 -3.129703569024664
3068 -2.1347139084673183 2.2451239326064676 0.28297802335452416
3319 -1.9287176898785736 4.301008181575966 1.235481909904418
3353 0.3049370964434857 -0.6102466236719651 -3.2712027965709867
3356 -2.46754660279906 1.4578602906760891 1.6872743094537876
3607 2.2066906195283265 -2.4289164154965386 -0.4124180721549849
3641 2.27183316229841 2.3219874410737535 1.5740439240748245
3426 -1.9509047121078298 0.4932051709313829 1.5992562467878302
3895 -0.8031510645264887 1.819155287298249 -0.9607486758687747
3929 -5.206968937091841 1.393038378261117 -1.5042983479535417
3932 6.356400560071932 1.5788097095476712 -2.578908418812373
2778 -1.21214140622488 0.5841782941175314 1.6984468499897176
3066 0.2580622066976148 2.5819376486880357 -3.3118166752263756
2779 1.093508347272518 -0.20302599036872537 3.2709482545387574
3067 2.858192848078621 1.3367390313636178 -0.09755554572500413
3354 -3.026101440284305 -2.0577167886751826 -0.9934878369941481
3355 2.093398856739974 2.9375824505957366 4.467262812025002
3389 -2.1350491053729215 -0.4796336352260035 -3.5439150574812586
3644 -0.9638792670840559 1.9144813542243435 -0.4685623635926822
3642 4.951100385105069 -0.18715022354395572 3.4246866755945944
3643 3.94659564476731 -1.1600761208222559 -2.8946332805902135
3930 -0.13526808014354105 2.1800445524199534 -0.09459362258811838
3931 -4.2791364118555775 4.262072706967031 -4.51132273736584
3140 -3.235766555452065 2.182003375410392 3.254803256060932
3101 2.333618220660945 -4.0555623023790375 -0.8558357422131726
2814 -0.5302058136987834 2.365829403351735 -0.39039237354898976
3104 -2.189139971389502 -0.6751460852521795 -0.7831400876592989
3102 -2.9807980585790204 4.492581000030675 3.85992756735521
3392 -1.111442156292135 0.9602264519914973 -1.6491379992166217
3390 3.8198987824780857 2.6497000707538882 -0.6903388957330836
3677 0.8325189274011446 2.957791105518714 2.7923126368143762
3678 -1.2437417797244854 -2.4918378638576955 1.482211898986426
3680 0.6080088379201349 -0.1203849214804044 -1.0863204844555554
3139 0.28438212307509564 0.6102827393793258 2.937925769396303
3138 1.8137296820374496 3.862111675163618 1.4065050417155227
3965 -1.7751296569908261 -0.508199098289774 -1.1401804890151772
3966 4.778582663091151 1.7593728727967968 0.9736987226612203
3968 -0.5570709213311944 -0.7724896746139347 4.724056963372065
3137 -1.9744263461140992 0.5492443792272003 -1.4256734323748845
221 -1.8448378798725287 -0.6660021340111981 -3.073569066733775
256 -1.14007732501324 0.5374364833207028 -1.089497183529221
2885 -4.744118273501413 2.361476680453296 -2.0591352117034565
3314 0.7556398253833597 -2.80731773404624 -0.6272232506889126
3962 -3.0689527000604735 -2.7121697291062477 -0.06674082990217924
185 2.048174648995967 -3.6391985023274045 -0.43175544951467626
3097 -4.315330821042092 -1.669720529032712 2.294934531791471
2738 2.5769418245681286 -0.6844379826109926 -1.1230563721107458
257 0.739701651903134 3.695798603073096 -0.8036916702677379
2810 -0.7264867325755103 -0.29302476469690686 -0.08157521961385217
3602 3.0520419132543233 0.5795373273565013 -0.17924791979348134
3745 -0.31456197901530397 -1.7087142832570998 2.8069396641605806
3134 -3.479144324841683 4.575370010943754 -0.6500909354071828
3926 3.8205296732316993 2.198788735949085 -1.0881909626394584
3710 1.2708300495718274 2.4818109332338643 -2.7564748464197266
3709 -1.8972700756006136 -1.5672243388746092 0.9043769126038858
3350 0.005106469660582991 2.547311612327656 -0.306392866040259
3385 -2.0377134462419555 1.9276637888581056 1.3176953119334127
3637 -1.856370974047615 1.425494324296029 3.8042027345019496
3421 0.3962485487079862 0.44665968014558294 3.150656385509996
3961 -0.24850393495411296 2.1231346146942807 -1.1295940697046298
3062 1.7425732017843416 0.9123525309037471 3.4275245664646894
2746 -1.3944707375853531 -1.8600651116038693 -0.18165601514382865
3036 0.21575433109286804 -3.5806600855659165 1.9743224714108598
3034 -0.41088701720637383 1.3119803899911624 3.6709294299187554
3322 0.6084694119137933 -0.542101753325725 2.9693111506261363
3324 1.0284943638591835 -1.952693180485532 -2.552949810096435
3610 3.4051389422787186 -3.804115905186496 -1.5255829322768626
3612 1.4484887180066588 2.0495543406588204 -0.928386484102057
3898 1.7796209489148938 1.0551569645527223 1.4511163264110152
3900 -1.8193330421055105 -0.6165928165804447 0.9292239533764178
192 -2.5991375560200107 -2.6608604526460784 2.973520910224701
2747 -0.40925609601857854 2.763989001417569 -2.3938250398143057
3069 -1.0164104866351191 -0.589421172612625 2.135667743702592
3035 3.0680380838318317 3.72787474387857 1.5765914648511183
3323 -0.862866932628761 -0.2072016213359757 3.6607544522593343
3357 -2.0259613447802747 -2.858684882697527 -0.278824593104146
3611 2.1826294669307864 -0.07983846372798732 -0.9008684204847242
3645 -1.358558598289977 -1.4688449113064954 -5.500148390755943
3899 1.450212629308563 -3.593998881372112 -3.896718167403606
3933 2.1257613632867867 4.741404394824097 1.7533405705501786
3072 -0.23721144762694854 -3.362368070263959 -1.7617133863477576
2782 0.07671984664602927 0.18914230607210328 -0.8094170202778999
3070 -0.4452191499192062 -4.270472120028661 1.4555368738297352
2783 1.587664955902976 1.523188377728304 1.81682022547956
3071 -3.878446648963361 3.468385653349953 -1.9917699014723178
3360 1.9169164958794624 -1.6692600693762591 1.6638646497132574
3358 2.7859681352245396 -0.028959357744152734 2.719861489864715
3359 3.071193325566148 2.7786639857031052 -2.7737380398434923
3393 1.4244824272655696 1.5691152719050225 -1.3037901754746073
3648 0.849222585951306 0.13454637009427428 1.2403653920666835
3646 -1.5467222844426722 4.225818711628761 -0.614985936542148
3647 4.022537132285133 -4.258691710397018 -0.10375024204811108
3681 -0.7223146333163781 1.3124824424354595 1.0702909804348673
3936 0.33195999472829174 -5.122740541628521 0.20467494210884787
3934 2.678514717783417 3.8459420281715615 -0.9675397321078357
3935 -5.204143048629621 -2.0096944966473522 2.817431991412266
3901 -0.3946606098980546 -4.378709209303055 -1.4300916455975947
3105 -2.2432469141742333 0.4724014753977041 0.3288829142314203
2818 0.7103401495015791 -3.3212977173387275 -1.4028040358056983
3108 0.5501402710317966 0.013327461194198984 4.731048653157931
3106 -1.060897385157689 -0.7597333822213402 1.4218811670874645
3394 0.5557179198160832 -2.048748089580999 -4.524550771489713
3396 1.1374615481054542 3.568874882729774 4.3692148707631215
3684 -1.5631639780230413 -2.579542090303317 -2.065879471180603
3682 0.5865834841190831 -0.7879479133020962 -1.090934386684577
3969 -0.48696574331217074 -1.4309269095613013 -2.2241166402143153
3970 0.568470078162979 1.5689133631258492 -3.4485189913718917
3972 -1.4175148880630604 0.26754559106463294 -2.080935910644491
3435 0.4957182008995641 2.1731508458553086 0.5886840627048787
2819 5.4370495889966985 -0.733702167158194 -5.122414369087756
3107 1.9873578088781887 3.2880041172824037 0.7080346448461291
3141 1.2937825118879658 -0.7471104393263707 -3.189691920690318
3144 0.1612123085802421 0.6078867057442551 -0.7306958559548575
3395 -1.6383746159926578 -1.855312292493732 -0.14080653162658743
3429 -0.07850874573746737 0.32613030989712805 0.4637279566346225
3683 0.1876520335231077 -3.1232468731550584 -0.31573725003935144
3717 2.0688733749128003 1.4244531239625329 -1.7679257117723928
3971 -2.9511243624377825 0.3140379570917376 1.4554894444745294
4005 -0.09614416460359938 -0.37037103812263866 1.518550711216114
4010 -1.5675221456092248 -2.0397449400393795 -0.8237984251581205
2854 -1.2854328869049199 1.1882373147754204 0.33712587072684813
2855 2.8640470562653912 0.3890539657836255 1.1686776499997644
3143 0.9261523456918506 -3.8763099221144315 -0.417147415492099
3142 -0.22777610908478987 3.5025120556637557 1.9658725594387376
3432 2.3388720491714574 -0.8234573572226983 0.39902187150328733
3430 2.0561188076296713 2.28440711380018 -2.33647933319697
3431 2.3293684201892972 1.6741255142307974 -3.5693799532174024
3720 -3.243320554992128 5.490839175054387 2.498347040075979
3718 -2.042802420499545 -4.637044628172195 3.890124318110782
3719 -0.9530370897440206 -3.6647984861252416 1.885991780209787
189 -2.070093364189945 0.24996579296194113 -0.23825810018422922
3613 -0.040110536180938974 -0.9255565403394906 0.19062072394009552
4008 1.1681750702698626 0.012793280407575262 -3.528433235159063
4006 2.489544424644099 5.606651347591171 2.5604540720583615
4007 -1.556218614743929 -2.977558710126141 0.18100180799993013
229 1.1198751870819323 -0.3123230542392741 -2.2050257381746547
2750 -3.9245609293698007 0.7426208826569293 1.9014115045065985
3040 -0.3371849787183039 0.9282227773102549 -0.5465993764759913
3038 -1.7903577297506525 -2.1882628397333947 -4.092247775507876
3326 2.5984994854012373 -3.4493780929808397 1.017704813013192
3328 -0.807778880333452 -3.0227938487797124 -1.9069401063241749
3614 -2.6067693269456043 2.027838176317402 0.8039700438375167
3616 0.6350644871368268 -1.1937502774763944 -3.3356155430936996
4011 0.37993372824414967 -2.266075173702066 -1.322826179001835
3902 0.3015189677940509 2.075427512030359 4.5325126159200835
3904 2.433820043441494 -0.9227511615164428 1.9948641221655745
3724 -1.228105888551336 0.501219778090435 -0.059570326794651865
2751 7.605797885662164 -0.6082428041611612 -0.6746134483472916
3073 0.4158370731131504 -1.653709698876286 4.256344784164919
3039 3.0834665635477374 0.8836861113712334 -2.102422403782167
3327 0.6163243104442595 -1.8709987599339697 1.6259820762513617
3361 -2.6113773967829115 3.071970356467314 -1.014792140549015
3615 0.5945756837090704 -1.1963893272421449 2.4119541543846497
3649 4.655070644538464 1.9058558611446745 -0.45543798734161073
3903 -0.37919521791704486 0.3941043788800524 1.1063603007914302
3937 -0.6613806244413414 -4.20019571339873 -0.7769650203218067
3940 0.6299375266146285 0.5962662330351389 1.5002125995801252
3434 -2.8798158724616196 2.5727152916911322 -0.6218493886421154
3076 3.628111492376905 -1.8709098512735576 0.611224912851204
2786 -4.308092950224424 0.7578903489736037 -0.7959759057229692
2787 2.0058848262365703 -1.9016789074504685 2.828175241552007
3075 -4.277122659304389 1.0827407688582442 -0.29036070722836005
3074 -1.275778698870375 -1.214817606242182 -1.5328503948063847
3364 -6.236415568010617 -1.83087701326866 -1.5325564724859626
3362 1.1629543554585777 -2.5042339194434313 -1.5232516967375174
3363 0.24374760075644838 -0.7767550205210083 -5.4428773340253125
3652 3.317789221285527 -2.845396929763667 1.1878496275039403
3650 2.2576345483830145 -4.641060664852963 4.260806450631703
3651 4.898926684976933 -1.301501817924753 2.9616816266827604
3685 1.4040478102167793 -3.2779844403284337 0.9469059128998988
3938 -1.3729973500947799 -1.0945947793833783 1.1919762141891976
3939 -0.36704588074460287 0.3466860578962911 5.623541773367244
3973 -0.9758394947336865 0.2077538867094552 2.4140616595944393
3109 1.3886219439863332 0.05917608891657441 2.4357805612461423
2822 2.9505193000814667 -1.4470551418039053 1.8979369048905095
3112 -1.6466071241311564 -0.5340820184380597 1.289166543525654
3110 -3.2083062110745635 -0.09445441231169681 3.626210512170777
3397 -3.6775261483772503 1.9500308387842828 -0.46772057850372767
3398 -0.4744086542611384 -1.634328269983306 3.1884350320500072
3400 -3.422462542697014 4.075017922545185 -2.325934863906168
3686 0.3929711654413178 0.412971433370016 -2.0923977018068105
3688 0.008682307919056899 0.9797008779266385 2.7356570905883175
3974 -3.679667484615741 -3.7130943221892956 2.2774627426115703
3976 -1.238574027918013 2.951749488956065 1.8813628673436917
264 -1.764892901511789 0.4674487152337386 2.052921318708722
225 -2.2761590300105645 1.4320988117881797 2.1189245334611706
2823 3.5780325727862095 3.5967492031116755 -1.288448718622197
3111 -0.0010722254093613614 -1.0414760129270115 3.345025073501357
3145 0.9209511783035413 -3.273052652685408 -1.1497403394833825
3399 -2.4280470869127755 0.09069821295513568 -0.8686071924693176
3433 2.2681516240026496 4.31799890681414 -0.16015460694407116
3687 1.246552158931632 2.7555866614759505 -0.6605171885789977
3721 2.147583419405163 0.8386793116611146 1.0245780461129508
3722 -0.8641033183197742 -2.969039770130508 -0.2645319194525187
3975 2.3280776186811307 -1.2061026933989714 0.4051066836947851
4012 -0.5169297285220611 3.4840703577956935 3.767578303739628
4009 2.2376909324563226 4.105803609876876 1.6283239709165136
3723 -0.33976333048806295 1.8151218297898384 -0.98514930393488
3148 -0.15490220634859514 0.29406014153380455 3.2674707694033427
2858 0.888889064557226 -2.6159489070483994 -1.1451672397450245
2859 1.668394461405043 -3.5066514949645335 5.260271679172159
3147 2.1938591143329624 2.3511886705176877 1.8358004444004408
3146 1.836784256781635 -1.7572257160364322 -1.7088055322813145
3436 1.377546402972808 3.0487125067471545 -1.372387889398772
3037 -2.23584167300662 1.4004608799618585 -2.646336440145438
160 -0.6167278316516089 -1.1784123769610564 -0.9665157757757648
156 1.5761014050873585 -2.3840109098160367 2.1773841169037564
228 2.2328784535011255 -2.311771737596104 3.657667305353049
232 -1.7752920220648423 1.6943811415331087 0.06136438364747633
3897 -1.0603419600148265 -0.8462500771375874 -1.1166093463342706
3033 -5.8528870355048035 3.1694613618604106 0.9452594865421597
3465 1.7752812170686185 -1.4177792981144546 -0.20570215040352607
2889 0.4195828230400767 -2.492423834853485 0.40499596810030536
3757 -1.9542730359980287 -1.8318558154346793 2.7636963432092982
3469 -2.1406162755277776 1.963825124964669 -2.410903857266885
3753 -1.97432329969931 -6.246967371265598 -0.08450984274829411
2754 2.648704564843489 -2.118924371508411 -3.057604246012693
3042 2.2247988315155522 5.904155300922569 4.309220815653783
3330 -0.8252276795425899 -1.8466031897518593 -1.6855508550168306
200 0.3895870151914945 -2.70960366484894 3.3733331142554843
3618 1.6042228747438048 1.222692731396652 -0.5188370964363693
3730 -2.0988040521033735 3.593383030128975 0.6813863786294637
3906 0.18807230156391386 4.425342587226818 -6.45925754474227
3908 2.2483754331200774 2.960610088990521 1.1488231181145512
4015 -0.5362773280169227 -4.111359235461276 -0.05586689800768566
3728 2.3326025912728086 -0.4507159224260576 -3.6931635762606896
3077 -0.21533912508789027 3.6338008990271247 -0.362770444313597
2755 -2.8709659516205104 -0.3322161148938521 -2.664603833134497
3365 0.26369707057916336 -3.0678495270591877 -1.3541424513287421
3043 0.9694730972108899 0.7758899614491281 4.653533997677403
3653 -4.911594391688375 -0.11236928391231772 -0.46102266975615414
3941 2.508422998201385 1.4673256481504144 -3.125986556137133
273 -0.6396903254306078 -0.9053432587540824 2.3104475079412925
2790 -5.622658167548084 1.665702297627985 1.9386177871874974
3078 0.3580711199102807 -0.32195725312037116 -3.2821313775214853
2791 1.361067560072839 -2.627847097529526 3.4775185236652097
3366 0.869031167256554 1.0613511199177272 -3.3312368925560416
3368 -1.32690704438764 -2.5281144201139147 -1.9069659010885969
3079 4.911212781359387 -2.0050338113562987 -1.1773800556418275
3367 1.2785752389313658 2.795323121688113 2.3198746854064782
3654 -1.6406922382046218 -1.1970771974358723 5.29450575665255
3656 -1.2869061079931827 0.5326710392691302 -0.8604984529396651
3655 1.32996102645486 -2.061216389152452 2.46046965344842
3942 3.7937467827989835 4.89220377030261 -2.2021029950580213
272 0.7291552279241031 3.100323538753941 -0.7377810122226895
3113 2.0587447827845775 -0.29837424676878016 1.5637681658642029
2826 -2.920433740264419 -2.7191971750909634 -0.932647391603563
3401 -1.187999791003216 3.346846791465112 -3.0429991023681784
3114 1.2207415174432268 0.1489636751520881 4.133814530808277
3402 2.029406143269475 0.45893375776883544 2.5044192371048153
3689 -0.15842587486112225 3.1378494654011497 -0.22560964192046387
3690 -1.5695447366066122 -1.1821344752057392 1.616120701640786
3692 4.337884549548807 -2.940890024478007 -1.6931109646520144
3977 1.5235886498476254 1.1450859282153978 5.381760832073243
3978 2.027597669993018 -1.637225883487534 0.23067064711061813
233 -0.3867634153276265 0.4541689086294144 -2.841978026774839
2827 -0.13763349018667073 -0.07641651424049829 -0.27727836443605514
3149 2.651740734494871 1.9761845591049756 2.669247867330041
3115 3.8020680310087704 4.50917284127434 -0.18657685385328834
3437 -1.3853128416403897 0.9034307619181972 1.484297493594611
3440 1.4535681411939596 -0.09920009291943246 3.5261431350035655
3725 -0.37922996054364544 4.73831186824781 -1.414746374761202
3691 3.9532395134862672 -3.6521659914824913 1.3083509027406497
4013 -3.6414778574059983 1.686993951443236 0.985589771469711
3477 -2.354171794067146 1.8768296645724674 -2.6023083969837484
2862 0.57200272577242 1.7819209760607368 -4.243035142051277
4018 -1.5481266386476655 0.012266949663856896 2.695643339719886
4016 1.2264555623448645 -0.18063514117138987 4.161290206159391
3150 -0.23038466561405554 2.589014226854536 0.8725552216431067
3439 -1.0571700760925844 -0.022771795699636006 -5.030638498286399
3438 0.11040131525661535 0.8571097476257284 -2.197211515532868
3151 -3.514764124270833 -0.5493181481581519 4.570822695722631
3726 -4.14366988267822 -0.014756170565421152 1.9003025610159823
4014 2.5585402766830514 0.3196379609508603 0.6994205495080823
3044 -1.2489033392420739 -1.1956956115137627 -2.9466662130601327
2758 1.4003745358201138 -2.525501999272206 -0.5335894529662217
3046 3.2511348017399984 3.172865377262086 1.3596669967120492
3332 -3.629787283707956 1.3496678998135447 6.378867920948329
3334 2.912568005533036 -3.014685584501907 -1.4513754545565904
3620 1.0549123561646159 -0.6854382594592082 0.8815441169072069
3622 1.5448769566985339 -2.3844294442590206 -2.42195128023968
3727 -2.4483390134669643 -5.241229896901583 1.1198445217867774
3910 3.5073802010548767 2.7552497509680327 -0.9102141421413635
3621 0.8939401068901596 -1.546294068836061 0.5624516089435242
3081 -1.1463914249112406 -0.07741272341768053 3.2603199788671815
3331 0.14003341832394195 -0.7975400932163008 -1.3172990244038445
3369 -0.3911816517649457 -1.2283422726624456 -1.6602152261573002
3619 -0.7885056799137937 0.5786610042514142 4.463107119842851
3657 -1.3262932934942542 1.7076340027320132 -0.2410417426426415
3907 -2.4778209572229546 -0.16655074506709025 -2.404612362306888
3945 -0.571064550105985 -1.6847080958530842 2.1237261214057925
3944 -0.4453639079745229 4.019554611933591 0.11320805398092655
2901 2.0438598750275663 -2.236094785200546 1.4665284080409975
3080 -3.099641174992803 2.1901549989124307 3.725207790873489
2794 -0.6373928497511655 2.5372587161517663 0.28544629661865334
3082 1.5894804987310265 1.1395792965746128 1.5987450649824553
3117 -2.4826017262530704 -1.866011121303198 -1.9669571069584275
3370 0.4138297932617947 2.310018743155694 2.7237540019896436
3405 4.107373018466801 -0.27196167658507114 2.0495641910911306
3658 -1.4172694640409622 2.8955475095651932 3.7047182089505206
3693 -0.030377209869831213 1.0174770591028581 0.8150419133751925
3943 -1.8959936936126633 4.0652629582333715 -3.290609945518508
3154 -3.3230341437433197 1.4849202891082032 -1.6020073047082897
3946 0.1460835876639316 -4.613013061953316 -2.1721699604665736
3116 0.3140519239624612 -0.5445627145758514 -0.6714533162002085
2830 1.205277647478043 -0.09893609221926965 -1.3656042503416281
3118 -0.18230942302693548 6.5802949780562265 0.5097415577901547
3404 0.13342450929545238 1.9832819613807013 -0.7459399064378666
3406 -0.5363091147570793 0.23406871995943024 -1.917314927212367
3694 -1.4865849328163367 2.7743711330081164 1.946083244350503
3980 1.7251062813046518 -1.4774299698025037 0.7089611425984568
3981 -1.9126089191060334 0.695203119862356 2.650055320677751
3982 -3.4104425750376115 4.783407098347799 3.0087648342925104
3153 -4.434604613439113 2.4436627413012255 -1.7620722768391197
3403 -2.2208332305034157 3.511969430632251 -3.1550305449540312
3441 0.5036427893397839 3.1365252033115123 -2.3769002347657007
3729 2.9902964979416065 2.1071928756856964 -0.6452386342165449
3979 2.8285241518190207 0.9382992588358041 1.5953052095809739
4017 -0.05226789926433408 -4.891277252033965 -0.16251787513846813
3442 -2.6093716466475567 4.187376458746986 -2.8895149488588876
3152 -1.4050545248930912 4.240211277702152 -1.705604641844656
2866 -2.3975548361381724 -2.914091006508645 0.16944001060333283
2863 0.6237993699549028 -5.437745246014665 -1.3288721512873554
3905 -0.8992431457373077 -4.0357788352561474 -0.799555240027132
236 0.6923404644868462 -0.8776560701015017 -0.8632102997754442
164 2.9418374794062276 -1.6990154753910984 0.599612366111363
3761 -0.08266794626265812 3.33822214635478 0.7818943939938623
165 -1.2364359130777431 -2.213791337683887 3.651103691607473
3909 -2.0789568093281665 1.273582748390249 0.3223695762952084
2762 -2.889986135649039 -0.15645729413129358 2.317433868616545
3048 2.6548869884085224 3.814624076436199 1.1377358372006865
3050 3.384658941367206 0.7621174148044008 1.2691810356092732
3735 -0.9004684010437106 -1.762366869359687 -3.2521937862141708
3336 1.9472645005199292 2.834156773231975 -1.9733575979823157
3338 0.4851096706612099 2.9462108647075413 -3.0519318870529
3624 -0.5316669373007862 1.197490013431909 -1.6162006260574926
3626 -0.699195311164237 1.4419394641137584 7.079813243405224
3912 1.0263984345130834 0.4901579148105935 -0.9807532993506148
3914 3.7361698926438502 3.8754586763213568 0.9733212418150536
281 1.5492807968562272 -0.08052601353938615 1.4288344542039626
2759 -2.6359463641381082 4.781243489200618 -0.04297846395027025
3085 -4.695839166803461 -2.9750794786784844 3.9116420550907955
3047 -2.516722439869049 2.3084964872239224 -3.409933316366923
3084 0.4681554368755992 -1.4640216735163674 4.206714920348727
3335 1.4284763825805598 1.508330309642744 -0.5637133080626829
3373 -2.7478634361217624 3.7162824758828537 0.6304840437172947
3623 3.277106223354486 -1.3076288346073062 3.778134365953082
3661 4.397396132561952 0.057094588902293616 -0.05731766408084984
4023 -1.1325857467778224 0.41470503081335897 -2.343882564497104
3911 0.19412099872479366 2.5375802804394323 -3.02541538887156
3949 -1.6371961206162065 -0.2758108048345275 -1.931944991501749
2798 -2.1678658319749537 -3.059470890700014 1.6407472504505476
2795 -2.9378649013328997 -2.156417187769265 2.3069530994961864
3121 2.7787113068542473 -3.649219656907673 3.1360989567332953
3086 7.150504559338062 3.5851864475398414 -2.390930836121053
3372 6.785037188723653 -7.841891959082761 0.06268596626450408
3374 -2.281429010509262 -2.1325889783680667 -0.2295966482109057
3083 -2.7107317073758046 -6.741789153787081 -1.8154590426589783
3371 4.52206614456117 -1.8586861864855253 -0.6612191814842123
3409 0.4230021648713464 -5.617448926618962 -0.36908646505728204
3660 0.4239536852822106 3.929277256461171 1.3508666955742619
3662 0.49708518035074795 2.7249332475557955 -4.923284337589575
3659 -1.0068478494675495 -0.8225040372904415 5.586556806183961
3697 -2.8527061157811278 2.0073073941034782 1.3366155080325894
3948 -0.5443397078149083 0.9127800113448497 3.615468456010478
3950 1.5869859297677082 0.9448331314698313 2.3105753083946756
3947 -0.8116016025900277 2.046247280268484 -4.272917820046515
3985 -3.9472568677454354 -1.599526284686257 -1.4481397847705537
2834 1.4483923635375173 2.4940492045174625 2.296704000743107
3120 0.8689860008122551 -5.32526036466907 5.398153558221116
3122 -1.3607200038482847 6.196993947633188 -2.4521703528785666
3408 2.158713764343641 -1.1288062172185813 -3.378525687103284
3410 3.6152160847527965 4.704678433357383 -1.1654560657560205
3696 -2.614053506390983 0.8008379631864945 -1.5684316193410341
3698 -1.207204060800375 -1.8689751599797901 4.139172131205965
3984 -0.5354677389848771 -0.6280008774220087 -2.061185145968588
3986 1.2605966780488267 5.470829053280543 0.6627209924099405
29 -1.3485167525877977 -0.08724470282712744 -2.6027732187171773
2831 -4.0909674499719015 -1.1944434399086779 -3.7362126049784803
3157 2.1658060555963274 -0.29804648087360147 0.8513366323480556
3156 2.19516414983073 -2.1587275101241334 -2.3864778510994635
3407 -3.707214216595915 -1.6932340463745403 1.3040618387546024
3119 3.8420841963010597 2.60686467166887 -1.7656094686602413
3445 5.1254212800080055 -3.2734200710946477 3.541216160423399
3444 -3.5602437785395615 0.7029037846367117 -1.832282654693835
3695 -2.0407493259905203 1.5516236518555167 2.9293639814305488
3733 -1.9216849117011323 0.3624849071274227 -0.7661173028725256
3983 -2.8741749680231665 2.851428272798631 -1.2963296450844837
276 1.0222702664194576 3.8329098010766733 -1.9620514416086174
4021 -0.08024652793413509 -0.9496567078057478 1.6180299092458859
4020 1.3592759834342134 -2.350815701371815 -1.656398875856363
2867 0.5703288560198195 2.808217099447959 -7.444090873710515
2870 -2.4976853393127456 -1.928506178371416 0.3478636717126568
3158 -0.06376673610583117 0.6406654145355253 -0.9991458441974359
3447 0.8820803057621828 1.6840480343759725 -1.5598991604498567
3155 2.6079204319786617 2.7740057784936587 0.99675264294921
3443 1.1765485804532476 0.7884451908626545 -1.4494460845798554
3446 -1.165446622376512 -1.8839418990013228 -1.9111399282656443
3917 0.7988018882373971 -0.0023308954840518745 -4.201894306788451
3732 -0.597251455717015 0.014769250057520552 2.0214480593517443
3731 -0.6326622081052157 -0.04921479197099125 5.276253525009617
3734 -0.08584402732290794 2.792791741638824 -0.6765216813174428
3450 -4.804449818548869 -3.338618639489054 -0.7948065051628314
4019 2.007368955842664 -3.373918971623554 1.1007191876572633
4022 2.2017525602254 -1.0259102715929072 -3.5439681041415687
3162 -1.0145470569865074 1.886498712127411 2.3439954412393025
2766 4.715470363404277 0.5318751762071898 -2.2557434197322754
3052 2.4774674168191453 -5.712545992468097 -0.0328397380353351
3054 0.7097106766261606 -0.26132387874315616 -1.9428829284956552
3159 -3.710498127714513 -2.0033145499518925 3.795958186003294
3340 -2.803319035366377 -0.9819366773982353 -0.9843545007571336
3342 -1.9637177147652147 1.2844298155574319 2.2378090760358806
240 1.1005101520756986 -0.13700878674413874 -0.31931535260097244
2871 1.1815897008984926 -0.25797109983721866 -4.2573426817248645
3628 0.17641387278428478 -2.3830602706667863 -0.3371539562010676
3630 1.0805241869300086 4.522548457398341 -2.0601941967292925
3916 -3.6938662532414224 -2.0555875238273984 -3.7986172449041464
3918 -2.3722948806770003 1.6750110548339328 2.2397175740319564
3053 -0.7432946234729901 0.4120692111612803 -0.6016264715735742
2763 -4.845138115365434 -1.236572286469773 -0.5149948747247725
3089 0.6714359890970664 -2.1250262792771073 -2.743213246613325
3051 3.504810574621801 -0.3854166406927725 3.0258904185175814
3339 0.2545813493760642 -0.10368096775280357 0.044133464876509924
3377 3.1680795483894677 -2.3014949631027046 2.4012877471843006
3627 1.8831702874642977 0.534447051454476 -1.5199081295604147
3665 -1.1083227144172059 -0.48685814215906975 2.459070152928614
3915 0.7005032855034893 -2.5220327494855543 2.6445671894777885
3953 -1.3156624431635684 -0.3063624524447665 1.3403242168942164
3952 -3.0649116676218964 -1.8127274258669528 0.8354519510247795
3088 1.0594412154980895 -0.15904943899497961 -3.8266116738554183
2802 -1.5748519783103474 -3.4693026233974025 2.2822623650417415
3090 0.2935600326835143 -0.9686474926236568 3.4317381908485105
2799 -4.123386022623708 -1.3355567540308504 2.2719886975007646
3087 -4.005362335380229 0.13396193917154037 0.43765407730912365
3376 4.05310215994618 0.9194317250898166 3.194375121557621
3378 2.181486368695705 -0.09987812315784372 2.193346374787416
3375 -0.2453970551542786 -2.376126395029859 -1.8237016464575635
3664 0.8338978073378983 -1.3366892046882608 -1.3981234139554137
3666 1.9570505072788122 0.1903899315551331 -0.5842995153167476
3663 3.436477902968612 -2.5806566776838515 2.5820025642977216
3701 4.273789656972153 -3.633372275887986 3.5779661752872647
3954 -2.8929271591639925 0.32985504953638833 3.498397472883712
3951 -0.37269063794304386 -2.966847039193216 0.8966956262534782
3125 1.8636031230936998 -4.1240768747823 1.0390223940166843
2838 -1.0776024650292315 -5.228062732166198 1.077776953990486
3124 0.5027931561656892 -2.3823628551668556 0.8856703349017528
3126 -5.733693873852129 0.1927463498383331 0.9183171133785473
3413 0.4542999915599492 -2.283453923949386 -1.631015195283207
3412 1.4354364820818433 -0.6000573239963684 -0.2520025261614449
3414 3.641183318848105 -0.7910605619314774 -1.0567934468361762
3700 -2.0177456472372453 2.8721164657527463 0.5750910141256319
3702 -1.9536425078892607 -2.7915113640762512 -0.4372915431943863
3989 1.6063822795382534 0.7540103428214596 1.1402087460677857
3988 -0.05983501908268283 2.3903918936614077 4.3214560023647834
3990 1.9314734949904497 0.10303647695190173 -2.8565497330874243
2835 -9.748945065417113 4.261704525620014 -2.5054406143489674
3161 2.772444245076855 0.3470215823653558 -0.7757532996977292
3160 1.5238497745647726 -1.5164922226361615 0.2791752560054363
3411 0.7394764158664247 -0.0021690935725568374 1.5018212130316904
3123 0.8520679901302963 -1.2224828900557814 -1.1355447466172905
3449 -4.332844453671937 -3.006119386873733 0.4484296206190817
3448 -0.4192555233272712 3.386524434358469 -6.0600262244153384
3699 0.23133145017372966 -6.130607662092316 -4.102516302798438
3737 0.3164154708164377 0.2703839865929435 -0.6591006510621293
3736 -2.275507583516744 2.913346409243592 3.145259046974482
4026 -4.684431956758448 5.762006504001376 -0.6880224664142314
3987 -2.7950062069056827 0.22139641074572694 -0.7378902641437837
4024 3.54172211857552 -1.4696876849913934 -1.6310495089327035
4025 -0.9049086768812665 -0.5864473684844672 2.508924949235117
3738 -1.937479054823952 2.1842910396316517 -2.9608428497430666
2874 1.5998965032099604 -0.002881417756660344 -2.005038586151662
277 -0.5514160109936254 -2.176390900576989 -1.0154652496760301
241 3.2295001535744636 0.45434949725384444 -3.1256208799247656
3629 -1.0644557942978357 -4.9027640041211376 -2.443240677951585
204 -0.8850496651281737 2.2632933448316335 2.7744421945411206
280 -2.5106860408936447 0.887644394143714 -0.5310295199698607
209 0.28446549757202555 2.7771537050956723 0.7323701627048699
244 -0.29921629761736285 0.9775758526443719 -0.6667334476640403
173 0.5021857349549474 0.6749377626993199 1.4911151004977474
205 -1.6201773377756203 -0.12611884746506977 3.1266927907235096
3773 0.7201732287726877 0.7583725401349057 0.4245041278294101
3481 4.247183713800891 -1.137842934163456 0.5137689710930493
3485 -0.88107830287147 -2.2515816292322826 -3.1895359763939406
2770 2.6824506832485087 -2.701139325922873 0.2569162563923119
3056 -4.013474764915547 2.6269510278733255 -0.5359997483121761
3058 -2.236310666901426 -2.323010393723075 -0.33138219593392393
284 -3.0042148793464394 -1.2432201339301794 2.4604762757241465
3344 3.3664093566311535 -0.1061864471997242 3.525389643399368
3346 2.3097714032431207 -2.234018031715736 2.613775504435242
3632 0.8184218226643538 0.25305866289725387 6.238861588775286
3634 -1.3254753050092511 1.1813048083406215 -0.9020635403709756
176 4.192488741386284 -0.9351571195022846 0.8766989355786396
3920 -2.1365251741726707 -2.1886935385335295 -1.723279238591856
3922 1.2726906695860782 1.836000551551102 -0.7418153755786852
288 6.502471033916695 0.018801237179947083 -5.207848327871702
2767 1.2309673151302296 -0.2709168368981019 3.243905301233672
3093 -3.4519457125466375 -4.695471158724154 -2.0285464407700746
3055 -2.365298627850699 1.9133805086195603 1.1240715103529477
3092 -1.1805297939073292 0.3803498893611213 -1.2300643662092572
3343 -1.098301278109332 -0.8773967676416902 -2.9237211386714677
3381 1.753752893176924 0.9828102666663205 0.5905284259433166
3380 3.1571366942975074 0.39600126043789124 -2.6798645892324506
3631 0.6497467024780128 -0.427026549358359 0.8106493468111476
3669 -1.9074763433368087 0.012459708483563852 -1.0433150150114079
3919 1.4495780792511306 0.3484418400279555 -3.5175524496867294
3957 0.614921055105082 -3.587691591730018 -4.59671864223436
3201 0.8124654652020522 -0.19787198610389214 1.600743278708485
2806 1.0155780470555815 -3.208880789909764 -1.385300306609328
3094 -0.28429229441467835 -1.6527896317319855 -1.2739134930514893
2803 2.6174404693161515 -2.0846248206609093 -0.41247632628226427
3091 0.43777160287820993 2.3745219402060154 3.5020429881070605
3382 2.551826078901579 -1.5888867284627788 -3.908757305866079
3379 0.7224508560749217 0.22336405204804516 0.5376437009081311
3417 -2.4589838245515843 -0.06564301576832303 -0.7193147560080088
3668 1.8736044399064968 1.458676742406965 -1.320500658739754
3670 4.429350185959562 4.332551451145826 0.9972445002806835
3667 -1.2686039042435324 3.368725491454496 2.3079718334103045
3705 -0.8369567775630532 0.5090098926903236 -1.1820034942817113
3956 0.019073477565970654 2.1225539005250544 -0.28104766277188103
3958 1.8738159321138341 2.202683857582593 5.483062339740711
3955 -2.569237207130106 4.620599580948021 0.8612286657659347
3993 -1.0787886079773235 -0.3759397395043811 -0.40692922628870903
3422 4.6269477765417815 2.6340532474195664 1.0314376774263005
3129 -1.6252818381913416 1.1866329125152453 -0.4627006724388805
2842 1.6503340854510973 -0.22664805299088978 -0.7893962659255395
3128 -3.9893428775136233 -0.0053013086927169 0.13871517948448198
3130 2.1361773652180664 0.465473493235811 2.2178495269929597
3416 -0.6436311545192334 3.1043139285408294 0.9964007448865684
3418 -1.977525186090105 0.7200314875670821 -4.822021878151378
3704 0.46626733621855987 -1.4762297217053633 4.109386100418269
3706 0.7224962095661013 -0.6845689552248253 -2.3997828177174827
3992 -2.849767369552319 -1.0921929679698938 -2.905681402716563
3994 0.788991289099976 2.9806735792071186 -4.411271050718885
2839 2.758286640748055 1.611794560471561 2.8648287520693767
3127 1.6724697486331075 -4.219049975154135 -2.614139771641022
3165 2.1041250341694493 -2.7890397949944026 -3.3189343372536166
3164 -1.599386000564241 -2.302734695003568 -2.264948778341345
3415 -2.1976101291708243 2.282127193733431 0.4562816332150701
3453 -1.495482751004975 3.410785840568003 -2.0097123213637276
3452 -1.7293757922335222 -2.3467491667479354 0.1901387389232681
3703 -2.1572839660521375 -0.4289399344234283 0.3018529965276377
3741 -4.044919058257849 -3.521079277308242 -0.17408952886465445
3740 1.4917268241223496 -0.0659762267639252 0.6278635734984326
3991 -3.7725272852357676 -1.6879807403156002 5.958165683545628
4029 -2.687392050611752 -4.59799847797524 -0.6289846632021867
4028 0.41141584188740127 0.12831428377216275 -0.43182878433955
3638 3.96993687108181 0.6287213952535351 0.5163318962358519
2875 2.273747832834012 -0.5520376011365752 -3.6874946632178762
2878 -0.10505702181554188 -1.1880676823244596 3.3297256527459327
3166 0.008322726101363418 -0.15087799637483573 -1.3457478116374875
3163 0.06367782357424658 1.6565004059169226 0.4661868226388743
3451 0.5393980085620329 4.239345650192716 -1.6294943496349599
3454 -2.671078460290814 0.7832603602394912 -1.757270175264391
3057 0.12214363194138583 -3.5759325225311227 0.8684880681705661
3739 -0.27853666126047805 -0.23617724818832153 -2.9653103441808293
3742 0.09678996985403569 -0.9945075352535531 2.4596032306780757
3777 -3.819497516066186 -3.710453688260842 -0.9806309712523763
4027 1.5708209768521 -0.6009786940748709 -3.4808971188266775
4030 1.9692990704440643 -3.011214310579986 -2.5722271715348377
3060 -3.39507923147492 -1.3697077501887622 -0.3811058302894623
216 0.1837968882234358 3.6507623622860654 -2.327997228630909
3348 -1.728860915087574 -0.4308825238294954 -0.7406960475125325
2846 3.5330748801778187 1.8116792531472943 1.0705055232608016
3636 2.0217871172361437 -5.342533374470358 2.6718496635538522
3674 0.486165254618048 5.271132486617493 2.6329895027851737
3167 -2.5203701340915416 1.1074769398084077 -2.648466531682762
3924 1.790737244305049 -1.9496398854475996 -0.49702382967166386
3168 -0.7286564975331595 2.690735772876349 0.5832359966895704
2771 1.1741911179258164 0.3627816216115091 -0.32566720883436373
3059 -2.3513931481150663 2.5379255148427613 -0.6636689861898933
3096 1.866826850601171 5.78296008212121 -1.4925374559540718
3347 -1.4886754445475776 -2.177065017441829 3.2531992228254247
3384 -0.14637931696719364 -3.4914834701713127 0.9752745007515243
3635 -1.9303695287475169 0.4972571481131286 1.7741097385011957
3672 -0.20165800155365884 3.671972188683915 -3.8792202588563467
3923 -0.5401277565956012 -1.8586748151718933 -8.442269542033683
3960 1.4246496727450892 3.6200015674650166 0.18179126784498312
4031 0.4024630921709556 -2.354899207664862 1.5892346398375239
2807 1.5551206355956115 -0.21159338088161048 -2.577626446098389
3026 -0.26629766100008373 -1.9575622807993691 0.568989278718086
3095 1.6223800568089275 -0.8022725188967509 -1.3843017398856425
3383 -0.4509278943892188 1.5752991273948687 2.6169419410483896
3671 1.7130317744629169 -0.5119634480095283 -0.9318295768917162
3959 -1.651396813424062 0.09533136648794552 0.12226710433752674
3455 -2.4555258140248775 -0.5415455859925431 -2.4983829202649352
3132 0.6456085330020074 -0.32795443290047077 -2.211805795889285
3743 0.4311714833895011 3.970522750256165 1.3445673151432187
3420 2.0908646633450876 1.568000398599642 -2.2914184931019115
3708 0.003513558548894927 -0.1315185104122521 -2.561565552779058
2879 1.445852566726184 -0.12037295143336406 2.155776944687458
3996 -1.7989000257718275 -4.686569531131562 5.221136402017164
2843 -1.561341467106217 -1.5658226909841857 2.4418582818476646
3456 2.5526926439958317 2.148951520066438 -1.216476917742654
3131 2.793710246069492 1.160239533490112 -2.237156336632137
3419 0.09571129997632596 -0.4209484860710888 -2.9186653261361424
3707 1.9256476223126713 -0.8643488231510118 -5.131642966170413
4032 0.3653414149624254 1.6056277045624785 0.130601427138811
3995 -2.6595668620371136 -2.250245692900147 -3.686083634405764
3744 0.02520937393439874 -3.1364106716054287 4.18134928346295
3673 -2.390727575319713 -1.8962173023685513 -4.6325952203560155
181 -1.3244987579887577 -2.042278829307644 -1.5200845200690016
3169 0.8353953455192753 -1.7748934118979718 -4.039677123338326
3998 0.5855422400127706 1.228574197720327 -2.879769127170003
3890 1.3757114521097868 -1.9544256096947576 -3.3122102897138235
253 -0.7468618865946995 -0.0225698144311453 -0.731423280244642
217 -0.8021733775861781 0.09965521163257975 -1.991684792396756
3386 2.9370839768650807 1.8365464144809687 1.3373020958779394
3997 2.4347376391208027 -0.31185154795167896 -1.2077186661310229
2774 -2.2591932747174153 -3.112094727532848 1.295466686860501
