LAMMPS data file via write_data, version 22 Jul 2025, timestep = 3000, units = metal

4032 atoms
2 atom types

-3.1021867505270615 44.15018675052754 xlo xhi
2.1961152067724328 38.43086879322562 ylo yhi
0.7110701608345913 41.444929839165795 zlo zhi

Masses

1 47.88
2 26.982

Atoms # atomic

38 2 -1.3989137986657516 8.615544205525147 0.817980875033483 0 0 0
292 1 0.13633071299606003 3.958720145960692 3.1291516364421246 0 0 0
901 1 7.0452229319669994 6.477658995491308 0.7652387464688664 0 0 0
580 2 3.6078382829954156 4.05698135403666 2.932074346313716 0 0 0
902 1 8.752552767608638 8.660875023040415 0.7899326492388857 0 0 0
868 1 6.966743237275678 4.078366275885403 3.0690399649142126 0 0 0
1156 1 10.114950871744472 4.207756884313748 3.048096088996219 0 0 0
1190 1 12.06932076747978 8.590535334625724 0.7807751338842897 0 0 0
3 1 -1.4051152598298977 6.335241010732261 2.961682258019649 0 0 0
291 1 1.810409426042547 6.120635470733127 2.856058440896213 0 0 0
1189 1 10.242320214300246 6.376866853219847 0.8663807781521041 0 0 0
579 1 5.456980360161965 6.338759343551648 3.0135591943472946 0 0 0
77 1 -3.0719401377487934 10.90492606137358 5.155669967242026 0 0 0
867 2 8.517100865016097 6.368301841131098 3.0738451133245266 0 0 0
1155 1 12.015926013540746 6.16928050966523 3.1566623856242346 0 0 0
433 1 0.1301704975144764 19.946522999429654 0.8816733620332724 0 0 0
39 1 -1.44511333425534 10.676058052089132 2.6973196232469556 0 0 0
937 1 7.056989514789072 10.993201062119356 0.7708709578643158 0 0 0
328 1 0.42582966779976283 8.689424250657668 3.168273924290081 0 0 0
327 1 2.029433132301093 10.774593615934927 3.013181790811078 0 0 0
4 1 -3.0706162980242095 4.036009759966346 3.115991850656418 0 0 0
578 1 5.510777251299955 4.206204282596975 0.8690400385575616 0 0 0
616 2 3.6217428332065635 8.358917235490594 3.079272291336772 0 0 0
290 1 1.8571133060852647 4.0011798220584 0.7611113933661598 0 0 0
615 1 5.2001677553461425 10.910195327930422 3.0694833454405144 0 0 0
685 1 3.5952192676467893 15.501375389154754 0.871781572250483 0 0 0
904 1 6.817796528237817 8.71602865700688 3.073745291754561 0 0 0
903 1 8.662816987134555 10.921981937808592 3.111653161103016 0 0 0
1261 1 10.635736200659519 15.381000965179787 0.7354355038750227 0 0 0
1154 1 12.005732500821104 4.140032884099086 0.8678174273472746 0 0 0
1225 1 10.305512805645211 10.801225248646166 0.7174004623763351 0 0 0
1192 1 10.533726400105646 8.46713532232927 2.971129390632985 0 0 0
1191 1 11.948052724722615 10.755311606994852 2.9692716322991974 0 0 0
1266 1 12.05710517290963 17.622756502784195 5.253645675082054 0 0 0
978 1 8.833981153666137 17.6448435634003 5.101204106506993 0 0 0
364 2 0.1928191390755134 13.045731648094007 2.839966022984396 0 0 0
1268 1 10.415549731053162 17.71078861400528 7.418441338795282 0 0 0
652 1 3.627672759188169 13.245464391050511 3.0183397088012174 0 0 0
940 1 6.987805196906495 13.063009457243293 2.8609251933565316 0 0 0
1226 1 12.221920890579245 13.096497290327058 0.7123521881774199 0 0 0
1228 2 10.38145879127947 13.15776518325772 3.0697843714430024 0 0 0
75 1 -1.4283278544831577 15.350822086725643 2.858583606125123 0 0 0
363 1 1.9793068657791233 15.31078527607522 3.0292780298614317 0 0 0
980 1 6.922575417884686 17.624664284207512 7.453324665128227 0 0 0
651 1 5.643362678743023 15.526739522222101 3.04125731329233 0 0 0
939 1 8.741230897997006 15.465552564684446 2.7829531024442833 0 0 0
1227 1 12.049048484766104 15.270094730055321 3.107993466517789 0 0 0
979 1 8.749671496981748 19.912798441009407 7.306481531446652 0 0 0
111 1 -1.5483490668699096 19.944760331076886 3.043537514372234 0 0 0
400 1 0.4106909802858749 17.616326090695935 2.80847626378574 0 0 0
399 1 1.9399186253115888 19.83980164489532 2.9699938654463103 0 0 0
614 1 5.242110037931224 8.602418820504369 0.7341325445024798 0 0 0
688 2 3.591781830355716 17.470553531809024 3.020347324227698 0 0 0
687 1 5.307225296167638 20.079866884347464 2.8300464317784226 0 0 0
1013 2 7.159468221284238 19.9562082335085 5.021596503066919 0 0 0
1267 1 12.23491914766543 19.971107080862616 7.5739303626359025 0 0 0
976 1 7.061571504445168 17.80478898284558 2.7952439291348554 0 0 0
975 1 8.872071999900626 19.821550113690865 2.9279752729464747 0 0 0
1301 1 10.60835381674011 19.984454990316873 5.20602453287947 0 0 0
1264 1 10.416251070865151 17.588360380836235 2.874386370084062 0 0 0
1263 1 12.194543979547621 19.737923116957948 2.8605421187832047 0 0 0
6 1 -1.3896912465287565 4.073286106193173 5.417983053105882 0 0 0
296 1 0.4089931098080326 4.146793743081448 7.669267089322802 0 0 0
294 1 1.7721473150271825 4.05606665325021 5.203325340083219 0 0 0
584 1 3.4765961108003056 3.9993535774775264 7.5082094296614965 0 0 0
582 1 5.212353550773185 4.00323921457881 5.245571735366618 0 0 0
872 1 6.8019017104370105 4.047857246560318 7.4679097506119945 0 0 0
870 1 8.740289405727605 4.110961346562178 5.368250957463681 0 0 0
1158 1 11.848187015385879 3.9584642071219447 5.231618272799146 0 0 0
1160 1 10.408288218301717 3.9837215446007517 7.614164894055524 0 0 0
7 1 -1.4137444640410795 6.457040273406281 7.496622538135548 0 0 0
329 1 0.39281843759759383 6.352902256414888 5.293801594608224 0 0 0
295 2 2.062624704998086 6.392086206902322 7.554074176124639 0 0 0
617 1 3.4417976086948867 6.137565441073459 5.169604700114225 0 0 0
583 1 5.137945467426248 6.2387979707101 7.637903368624293 0 0 0
905 1 6.960960855984523 6.367850254331528 5.406827253936876 0 0 0
871 1 8.703679093804556 6.342154002740246 7.585250176210046 0 0 0
1159 1 12.108610928393851 6.282892544059747 7.63135640983941 0 0 0
1193 1 10.34901246288442 6.263668761500245 5.276149708977043 0 0 0
42 1 -1.5673399919217126 8.487504443025566 5.214689278092514 0 0 0
43 1 -1.6487447723047088 10.999048938715465 7.475159614017614 0 0 0
332 1 0.35891828149444827 8.544518769806174 7.4909591113653295 0 0 0
330 1 2.1473433583553367 8.523109642624874 5.426755534499505 0 0 0
331 1 1.9651672144887318 10.85921452918946 7.624065739205248 0 0 0
365 1 0.2947216470197116 10.726256485967621 5.247055954065125 0 0 0
620 2 3.596992780536527 8.640160771813456 7.831125918695467 0 0 0
653 2 3.612098896133273 11.00458018898392 5.383157477049334 0 0 0
618 1 5.188652990428827 8.586427062842345 5.373879207816627 0 0 0
619 1 5.346788733541573 10.924221534530748 7.586917119094803 0 0 0
908 1 7.077956752613427 8.56299489183457 7.648804907276168 0 0 0
906 1 8.765231033995363 8.551026889744808 5.180438645536859 0 0 0
907 1 8.827363628941523 10.930116583407818 7.529646504900185 0 0 0
941 1 6.970295812224436 10.66383773153873 5.334556444965819 0 0 0
1196 1 10.44476389633165 8.551263588958268 7.497511862075581 0 0 0
1194 1 12.155208895741133 8.54133839954201 5.395436465281094 0 0 0
1195 1 12.04465447679545 10.77161825551797 7.671082268765475 0 0 0
1229 1 10.385455545340086 10.711254719221198 5.228450451866131 0 0 0
78 1 -1.2999419596331403 12.966340964608563 5.28271807416288 0 0 0
368 1 0.16607930719787412 13.170228196175596 7.522241660455372 0 0 0
366 1 1.7871532669189731 13.180277970325143 5.0807560818699535 0 0 0
656 1 3.661221035377843 13.117230589686207 7.319006371363084 0 0 0
654 1 5.493424001899085 13.166055588140576 5.195024082700551 0 0 0
944 1 7.016207949678731 13.082150775583054 7.396909615398415 0 0 0
942 1 8.752512677252579 12.944603541854404 5.231715498083468 0 0 0
1230 1 12.053641136002877 13.169854952280986 5.191118617181857 0 0 0
1232 1 10.469470915471607 13.065538908423017 7.50877588924471 0 0 0
79 1 -1.5210194301176765 15.580281096386551 7.514466836396897 0 0 0
401 1 0.06858803592350204 15.398222028121262 5.2329918243792495 0 0 0
367 1 2.0201695296626374 15.455115873400134 7.382209809566944 0 0 0
689 1 3.8291599278127757 15.396272162817592 5.212811187396614 0 0 0
655 1 5.4068413654789 15.43704985513221 7.567977161038023 0 0 0
977 2 7.297359328108002 15.364616751708626 5.179968751530584 0 0 0
943 1 8.665787023058847 15.45068725308725 7.526979464424687 0 0 0
1265 1 10.259976960448085 15.21286139369148 5.287255001391803 0 0 0
1231 1 11.935082133719312 15.40478004960037 7.536659043301648 0 0 0
115 1 -1.4692999492058214 19.941851000675662 7.4839710628880525 0 0 0
114 1 -1.2842349472713672 17.632204494267107 5.242128553693502 0 0 0
437 1 0.3644521389432547 19.897627146326805 5.259924927352885 0 0 0
402 1 1.9247807535835522 17.562014158944095 5.155726094877407 0 0 0
403 2 1.9879109493814529 20.04789258547171 7.602330100592225 0 0 0
404 1 0.35659027328952675 17.743726911474152 7.433428056036951 0 0 0
725 1 3.699853031915124 19.941374763618203 5.096284747862325 0 0 0
690 1 5.3936930195695 17.79732008524264 5.114275814644087 0 0 0
691 1 5.573129273709575 19.84925718932363 7.377410783929058 0 0 0
692 1 3.676763707268278 17.70678450224004 7.39990496019737 0 0 0
866 1 8.529001795024822 4.143834661857837 0.7571285054281542 0 0 0
76 1 -3.057976822975288 12.994211766455967 3.063745388917267 0 0 0
613 1 3.6788552703812014 6.229216266539097 0.7529304158830102 0 0 0
2 1 -1.457071823082494 3.9817659752141923 0.7803315770059527 0 0 0
1009 2 7.03973703965914 19.955725430539367 0.7409664870791914 0 0 0
361 1 0.3773944322225349 10.762195589891899 0.8082870479212687 0 0 0
10 1 -1.4086119113596502 4.355962577110414 9.85156650446917 0 0 0
300 1 0.272037137494757 4.108403873545614 12.017749624838084 0 0 0
298 1 2.0859563016578972 4.354513261848625 9.921981133345357 0 0 0
588 1 3.5986688568651726 4.2936948381802065 12.247548868386145 0 0 0
586 2 5.000389781087237 4.236468548885581 9.76219917053619 0 0 0
876 1 6.716401870628551 4.176367354594618 12.1055471976125 0 0 0
874 1 8.499737921978674 4.078304004201403 9.771543308904631 0 0 0
1162 1 12.243758634471831 4.020805242254173 9.84377181599319 0 0 0
1164 1 10.345418202582984 4.080272868166552 11.969102356638624 0 0 0
11 2 -1.5323167418461883 6.432231122301206 12.066318741335717 0 0 0
333 1 0.2744096815691002 6.643343028638298 9.76419261488094 0 0 0
299 1 1.8407046721907623 6.506453895806604 12.166739780490154 0 0 0
621 1 3.5574362734939164 6.679494070798488 9.919162804232014 0 0 0
587 1 5.157361207432701 6.563415916090628 12.162262830438952 0 0 0
909 1 6.863748789362449 6.328323880459043 9.886942216294935 0 0 0
875 1 8.791305249767706 6.216346853470114 11.999038458878713 0 0 0
1163 1 11.998750716084643 6.500187941052157 11.967573361392812 0 0 0
1197 1 10.459079669023595 6.234675373137373 9.699138543709184 0 0 0
46 1 -1.4104299305923902 8.823879255512203 9.696028177995133 0 0 0
47 1 -1.5094702419676147 11.177473977903384 11.875647395222913 0 0 0
1276 1 10.317508058275088 17.511061518275703 16.61776556542909 0 0 0
336 1 0.1378024875266921 8.810241787454864 12.061147860819812 0 0 0
334 1 1.7128725102522466 8.831103986146456 9.862842892202023 0 0 0
335 1 1.7443842027142713 11.135869218209448 11.966436994757094 0 0 0
369 2 0.14912753804993617 11.140433384407778 9.666903099077421 0 0 0
624 2 3.4051916590404785 8.898772284658973 12.100268758547612 0 0 0
657 1 3.5763774128724988 10.875746678397133 9.965620817607816 0 0 0
622 1 5.45725859468203 8.717889800240215 9.915510794918212 0 0 0
623 1 5.298450943428311 10.84939075902422 12.10206401303633 0 0 0
912 2 7.263935658109999 8.58754387601546 12.03777529522523 0 0 0
910 1 8.654943863785071 8.421526307491577 9.737803306814792 0 0 0
911 1 8.805260287497116 10.901013063440828 12.135257636530136 0 0 0
945 1 7.078771655490592 10.774128956140633 9.944676988239594 0 0 0
1200 1 10.233076366934093 8.581537820294685 12.0832008771802 0 0 0
1198 2 12.138062960603243 8.694168874641548 9.832891460382172 0 0 0
1199 1 12.05295475077726 10.775863294863358 12.049505901059929 0 0 0
1233 1 10.30889356822443 10.872087638426056 9.872915678864201 0 0 0
82 1 -1.6446021631370975 13.258249487838658 9.793472092903892 0 0 0
1274 1 11.850203646071801 17.6683984742132 14.235190488511922 0 0 0
372 1 0.2373585417696642 13.303074091700351 11.937747698387497 0 0 0
370 1 2.047104430435243 13.20379608243756 9.722177223081097 0 0 0
660 2 3.6007532213918454 13.184762596316657 12.06148014426631 0 0 0
658 1 5.250492602245649 13.064251795192416 9.784222808728234 0 0 0
948 1 7.0923336779095125 13.024975025435614 12.106186494200502 0 0 0
946 1 8.913486151504411 13.100385055309584 9.789788429345155 0 0 0
1234 2 12.098847732518024 13.002141995630556 9.706192675916249 0 0 0
1236 1 10.624572583439086 13.137257896286501 12.071327018901409 0 0 0
83 1 -1.3142728840021163 15.424312903302797 11.931517508970748 0 0 0
120 1 -2.9698954030599114 17.721698736310593 11.846941963868415 0 0 0
405 1 0.397952981517093 15.588889204003728 9.671131906370034 0 0 0
371 1 1.989936267805131 15.446117214032178 12.096840941561915 0 0 0
408 1 0.30681198402358545 17.858579390018143 11.913449334807234 0 0 0
693 1 3.6613147981093057 15.471993856538882 9.735966568372216 0 0 0
659 1 5.447675103723996 15.404595801902769 12.140400324511768 0 0 0
981 1 7.045681827833353 15.278726072009183 9.828568046812972 0 0 0
947 2 8.908906688772067 15.208662321145258 12.060238742169627 0 0 0
1235 1 12.12605516928856 15.174209120540649 11.826604639705932 0 0 0
1269 1 10.476770711966253 15.303851325206754 9.661018100775566 0 0 0
118 2 -1.4810188584971267 17.701702566161167 9.65374241024458 0 0 0
119 1 -1.4171663470209919 20.050299650379856 11.985351607058144 0 0 0
441 1 0.1621529540285791 19.902195391242543 9.672265024757538 0 0 0
406 1 2.1698099785682334 17.85337580927245 9.680784334752664 0 0 0
407 2 2.0347694483401932 19.85033789203406 11.770770221257202 0 0 0
696 1 3.8047435077930354 17.65385449221932 12.113103267368947 0 0 0
694 1 5.487252290729006 17.59596453133961 9.827541079322483 0 0 0
695 1 5.47252597917288 19.851476165605 12.030236641462206 0 0 0
729 1 3.9278298163921566 19.945247968368665 9.733427277679928 0 0 0
1017 1 7.183382586613514 19.937251031468225 9.695141579857896 0 0 0
984 1 7.17113685984176 17.485738911441132 12.011764032380933 0 0 0
983 1 8.779387665182885 19.79516895829817 11.994350282368389 0 0 0
982 1 8.842417169644825 17.485573422386675 9.805938520313138 0 0 0
1305 1 10.203465109834585 19.83516975727251 9.741615164230568 0 0 0
1272 1 10.409867392672506 17.481021986304228 11.935875674797554 0 0 0
1270 2 12.09433313679132 17.761005909139723 9.715769128129631 0 0 0
1271 1 11.917102135665257 19.835400606685393 11.982824391591196 0 0 0
14 1 -1.414330437134943 3.987591456627245 14.431069839421733 0 0 0
987 1 8.945693550701524 19.818232889105772 16.63890943258705 0 0 0
304 1 0.11938463311364211 4.1142731794210565 16.501889816938657 0 0 0
302 1 1.8344843209199926 4.250672736541173 14.39162006638673 0 0 0
592 2 3.5373400560286354 4.186818010209573 16.66643803266914 0 0 0
590 1 5.452513607365625 4.335060197025223 14.508321538547882 0 0 0
880 1 6.869513738747085 4.171805953410063 16.667270479593892 0 0 0
878 2 8.564345209395267 4.081089802841073 14.12136072264627 0 0 0
1166 1 12.054961694940744 4.188055637454553 14.331924812007225 0 0 0
1168 1 10.045239157306632 4.127663504200624 16.48690388109944 0 0 0
15 1 -1.4719226752107504 6.519637735308019 16.51690774998975 0 0 0
1275 1 12.062350697542378 19.878551676261495 16.692527677366435 0 0 0
337 1 0.23068686768212388 6.379049482589773 14.24610958412389 0 0 0
303 1 1.872380688075121 6.380862554200792 16.640520793947953 0 0 0
625 1 3.651151211063561 6.4442431136288025 14.456010574006092 0 0 0
591 1 5.371779766652534 6.4537662108897305 16.610968286603686 0 0 0
913 1 7.1578091605719125 6.607623480049471 14.449725561321637 0 0 0
879 1 8.653921420555662 6.498258024168929 16.810962613331938 0 0 0
1167 1 12.084807153943839 6.4400824702933805 16.545430573425698 0 0 0
1201 1 10.271525184047526 6.337677132207943 14.372366467537125 0 0 0
50 1 -1.492332480630721 8.745137946716108 14.475573492117784 0 0 0
51 1 -1.5803205147528523 10.905258299911761 16.586817428178517 0 0 0
340 2 0.21189913495736734 8.611876094536616 16.8077996850222 0 0 0
373 1 0.1595868791455608 10.991722117627809 14.220443147540296 0 0 0
338 1 1.765694245972294 8.63151715559555 14.400874870352375 0 0 0
339 1 1.7595540317974345 10.776590369332334 16.635021793777142 0 0 0
628 1 3.567981381496434 8.630339871615814 16.639740485107193 0 0 0
661 1 3.5062333552113127 10.958608279771719 14.23688887729852 0 0 0
626 1 5.28128642384866 8.653031798894492 14.283495740358509 0 0 0
627 1 5.213293658947294 10.882304502133854 16.549422325291587 0 0 0
916 1 7.02210541983485 8.72593005769881 16.656728055060185 0 0 0
949 1 6.9180161766812445 11.00002405229631 14.395311380362193 0 0 0
914 1 8.751691366649421 8.715980585052858 14.403834409992506 0 0 0
915 1 8.907415525468036 10.86331230004371 16.576041124454953 0 0 0
1204 2 10.54223982920724 8.681283102543361 16.61048772437416 0 0 0
1202 1 12.020931589198817 8.551704115725588 14.292119470973502 0 0 0
1203 1 12.122422443766595 11.076846427093317 16.647777833530565 0 0 0
1237 1 10.587497525240519 10.899148722541597 14.346624545291895 0 0 0
86 1 -1.574221094075241 13.326974377017228 14.268915176329863 0 0 0
48 1 -3.0635006732611236 8.784106703183129 12.070932414261621 0 0 0
376 1 0.0677526673778388 13.194401144646767 16.579324280763572 0 0 0
374 1 1.8331186243130206 13.110101047889192 14.308364042912523 0 0 0
664 1 3.4559080697116658 13.149459525672185 16.676824985763723 0 0 0
662 1 5.371955814023161 13.161390287753626 14.38506362943346 0 0 0
952 1 7.096559402701058 12.925768118907753 16.553362759426307 0 0 0
950 1 8.80471035313284 13.09525954538661 14.261968527942132 0 0 0
1238 2 12.211177766854139 13.097611938830608 14.435144801635555 0 0 0
1240 1 10.411720685676222 13.13975141811619 16.7397715439037 0 0 0
87 1 -1.6136712583453452 15.631511762125706 16.53907898985929 0 0 0
1309 1 10.31454400907855 19.930381793578565 14.292058167164086 0 0 0
157 1 -3.054499453799778 19.983122162049032 14.252275314849037 0 0 0
409 1 0.2615662580180129 15.40263983102354 14.2522455639925 0 0 0
375 1 1.8871343932949145 15.396792582669281 16.67620031850974 0 0 0
412 1 0.1502375213185485 17.73754464770702 16.436399758380674 0 0 0
697 1 3.735765440398648 15.54386645158203 14.317866163522236 0 0 0
663 1 5.442952493194036 15.264496689903575 16.568348136597784 0 0 0
985 1 7.184040792600091 15.300706090436394 14.159000256289316 0 0 0
951 1 8.653659826118929 15.421195568104475 16.577826790658385 0 0 0
1239 1 12.105221935829917 15.394686271180143 16.583888079090702 0 0 0
1273 1 10.532832410397425 15.306252803584803 14.30248857714801 0 0 0
123 1 -1.4069413519023986 19.906536462083395 16.46468318212039 0 0 0
122 1 -1.3475707284824465 17.697351220522293 14.37083938061831 0 0 0
445 1 0.45476501716651896 20.047398915378338 14.191703198201562 0 0 0
410 1 1.8570619280994665 17.639071980784045 14.214549758881873 0 0 0
411 1 1.947213247696678 19.910626513384216 16.540513927313686 0 0 0
733 1 3.616090691935163 19.89192404410927 14.262106228845377 0 0 0
698 1 5.5096989197346184 17.670092340389687 14.29339109626227 0 0 0
699 1 5.167971898070868 19.80204356078695 16.52746674706828 0 0 0
700 1 3.5242775566700777 17.52945504843783 16.50962815529283 0 0 0
1021 1 7.13461351059681 20.071375633107138 14.232093204306214 0 0 0
986 1 8.697059683041662 17.617139190288363 14.395757435104985 0 0 0
988 2 7.059678214966248 17.651868812994337 16.6241781408785 0 0 0
45 1 -3.0719530217260287 6.623264898785651 9.804749794844255 0 0 0
12 1 -3.0682765298692516 4.111420493295019 12.297296369386654 0 0 0
16 1 -3.0836952684544485 4.190085350145841 16.62698557275727 0 0 0
18 2 -1.509032024408572 4.1553157871538815 18.949522751177938 0 0 0
306 1 1.836447848585884 4.061234050166096 18.77340412713609 0 0 0
308 1 0.19570040025964586 3.971498009903588 21.199936149709977 0 0 0
594 1 5.398261312793047 4.178687645490058 18.958521172410393 0 0 0
882 2 8.690152340644882 4.402409517271986 18.775515089900086 0 0 0
884 1 7.00323638632415 4.025621195791852 21.15000599746748 0 0 0
1170 1 11.931652987834248 4.059870689054204 18.612722834825412 0 0 0
19 1 -1.379450241875781 6.371916272939158 21.076619692581044 0 0 0
341 1 0.1922072564718973 6.409966629965838 18.818876306159932 0 0 0
629 2 3.6817438989183735 6.304000245520273 18.82919063150043 0 0 0
917 1 6.891648817881054 6.538480447953771 18.944432934828473 0 0 0
883 1 8.861507092389829 6.330390700516259 20.886645478602368 0 0 0
1205 1 10.691833414014845 6.43470277063482 18.85469432043082 0 0 0
1171 1 12.057382469214836 6.255096894219671 21.217025970369225 0 0 0
54 1 -1.4761044697180754 8.806824611707384 19.048843392128756 0 0 0
1029 2 6.834198327867772 19.77164277616902 23.44313680895903 0 0 0
377 1 0.29890384698813666 10.871204041247598 18.852748473192033 0 0 0
342 1 2.029118750148921 8.54962794119097 18.99775813345557 0 0 0
630 1 5.072756505067448 8.70983503471901 18.913428509595075 0 0 0
631 1 5.341294292407645 10.835306386243175 21.060708454999713 0 0 0
665 1 3.469667385418375 10.953539412324583 18.799829399644178 0 0 0
918 1 8.767579146266566 8.7726737039203 18.86563604680874 0 0 0
953 2 7.011406902623672 10.899021898005975 18.767322697046776 0 0 0
919 1 8.854541191021454 10.626339929770676 21.06858589880698 0 0 0
1208 1 10.514486933311492 8.575363645909786 21.072903313613416 0 0 0
1206 1 12.286641984471526 8.716276137322447 18.81373538611016 0 0 0
1241 1 10.413235091386376 10.884078150655693 18.974981009737576 0 0 0
90 1 -1.5345693456919922 13.076634574760886 18.948490508612316 0 0 0
378 1 1.8590169649774584 13.302393476497231 18.890101696094984 0 0 0
666 1 5.418507769410971 13.068741515020662 18.830968264910286 0 0 0
668 1 3.6797287659654536 13.058806055497783 21.047639857433936 0 0 0
954 1 8.678711679256299 13.202149757479011 18.84048451041244 0 0 0
1242 2 12.114830261001096 13.15680331919173 19.005758462786616 0 0 0
1317 1 10.406471606029154 19.998549337557975 23.336166270231075 0 0 0
413 1 -0.003039217945791428 15.360608975423311 18.848475190607484 0 0 0
701 1 3.7803390277064555 15.379212116471097 18.830457274331632 0 0 0
667 2 5.362719373069525 15.333154416219148 21.10117228316791 0 0 0
989 1 6.972619400160069 15.417152781095346 18.927306758112525 0 0 0
955 1 8.629345222751361 15.304671086301472 21.117508807630102 0 0 0
1243 1 12.05862321060188 15.279992062465535 21.158082564180464 0 0 0
1277 1 10.397868085423784 15.454260429132248 18.8378367590929 0 0 0
126 1 -1.5267914946006487 17.737868600980452 18.805412439320918 0 0 0
449 1 0.34615469577302216 19.79441319862444 18.743059162392687 0 0 0
415 1 1.9043304759803927 19.758920327070907 21.148758662340637 0 0 0
414 2 1.8683892232937866 17.480862010453713 18.90292127424591 0 0 0
704 1 3.6242189204121233 17.57015243571233 21.088446493107877 0 0 0
703 1 5.428520817967612 19.89939665413194 21.03611224596256 0 0 0
702 1 5.2704816606441485 17.66606613004894 18.76582113048632 0 0 0
737 1 3.497113721722614 19.760850476988008 18.870493171072745 0 0 0
990 1 8.762250015569958 17.717797216455633 18.85384524043413 0 0 0
991 1 8.762158873515425 19.95646181959938 21.18099489687858 0 0 0
1025 1 7.089363930650808 19.905242142750527 18.75069277316602 0 0 0
1278 2 12.187477953170092 17.616175922435275 18.883686595552827 0 0 0
1279 1 12.012689847189296 19.88394576163716 21.218327987078 0 0 0
1280 1 10.336576851366043 17.600290652465908 21.10669973627567 0 0 0
1313 1 10.449114939818056 19.903539499965298 19.022220263431564 0 0 0
22 1 -1.2915643678189968 4.120608032931619 23.46825162913887 0 0 0
310 1 1.986069965307455 4.104510525715599 23.402632934849372 0 0 0
596 1 3.6291176306855553 4.1124446037195375 21.097154959107854 0 0 0
598 1 5.263697635522445 4.134141063780195 23.438627052011963 0 0 0
886 1 8.400754695023721 4.116344107234296 23.481158985633662 0 0 0
1172 1 10.43218242299617 4.033124817340765 21.0376243262882 0 0 0
1174 1 11.855420281531117 4.004145009113091 23.40315466032062 0 0 0
994 1 8.74616156627167 17.70302912890361 23.289811101847416 0 0 0
307 1 1.964736115301955 6.227829420254729 21.04479359779278 0 0 0
345 1 0.2594941335596146 6.39508741659548 23.42391195110845 0 0 0
633 1 3.556408174128771 6.419961242771546 23.4422010243709 0 0 0
595 1 5.2085991168692365 6.272107209250067 21.140718245243995 0 0 0
921 1 6.9698671578378635 6.27294941802525 23.479546320275727 0 0 0
1209 1 10.204522302923987 6.311361078562934 23.355524726009747 0 0 0
55 1 -1.3826389644750294 10.934241270572807 21.111911514281363 0 0 0
58 1 -1.4000400317941812 8.750654126673446 23.26117422406191 0 0 0
343 1 1.825306934532386 10.861406564706835 21.239881662889577 0 0 0
344 1 0.2286318696641687 8.560449895016642 21.16312085411729 0 0 0
346 1 1.8747528868328533 8.822932184730787 23.615852955366524 0 0 0
381 1 0.2376682109030428 10.997597014004276 23.53006628267753 0 0 0
632 1 3.4656874120200456 8.58241000179792 21.221216741065426 0 0 0
669 1 3.728663210089353 10.89989401737002 23.3711904233357 0 0 0
634 1 5.333578149064414 8.50096247138368 23.445157348475128 0 0 0
920 2 7.074661182230398 8.543507437478493 21.046701990143596 0 0 0
922 1 8.602371509893324 8.55916229705658 23.310773867684645 0 0 0
957 1 6.987173803703185 10.820404978197296 23.272030023307483 0 0 0
1207 1 12.053793622100589 10.982489991496054 21.118082960791977 0 0 0
1210 1 12.13144666505082 8.40999211094558 23.37329858270915 0 0 0
1245 1 10.525667536016712 10.809565478185867 23.43904291306857 0 0 0
94 1 -1.2853407010420475 13.325658285722193 23.227687851995917 0 0 0
1282 1 12.025624991690453 17.53990732491107 23.43669730244231 0 0 0
380 2 0.30901777928270224 13.243406513556492 21.04768981808107 0 0 0
382 1 1.9593818807387322 13.126928733919703 23.321548183474498 0 0 0
670 1 5.387007229560171 13.169470204881133 23.294952031240218 0 0 0
956 1 7.022761414209371 13.048812199795732 21.039177993793437 0 0 0
958 1 8.671110027391848 13.01615721327568 23.44546622870718 0 0 0
1244 1 10.245661201775711 13.104533229804524 21.055688833002108 0 0 0
1246 1 12.188941178277926 13.22981647063072 23.45464911555813 0 0 0
91 1 -1.6225027705060169 15.268501769494117 21.076456394200598 0 0 0
417 2 0.2922687752951667 15.660365667280384 23.202537436922004 0 0 0
379 1 2.12162551468844 15.36288639173668 21.04785676482132 0 0 0
705 1 3.6484062640355335 15.355513750261187 23.419213553279274 0 0 0
992 1 7.001443923063525 17.61113666171618 21.166864249072137 0 0 0
993 1 7.047874574563649 15.321633535480776 23.310546653356404 0 0 0
1281 1 10.37015627023116 15.34069461599315 23.348047722942415 0 0 0
127 1 -1.4002311604555795 19.82476874108181 21.003483702626408 0 0 0
130 1 -1.58197010913435 17.643745864073892 23.422870369635138 0 0 0
418 1 2.1437533058039104 17.669187774823307 23.32182256913671 0 0 0
416 1 0.19062875682748537 17.640569889443228 21.026258472944185 0 0 0
453 1 0.3347928740299171 19.859643836008207 23.344384831589537 0 0 0
706 1 5.3757282416836025 17.50786422271819 23.270641916894807 0 0 0
741 1 3.839254570777748 19.88429191497854 23.26761019016524 0 0 0
161 1 -2.9537479640159696 20.00142640648955 18.689294961966738 0 0 0
20 1 -3.032826226055867 4.014143271327674 21.355324637388136 0 0 0
57 1 -3.0169697451901243 6.325442045444452 23.546479713650044 0 0 0
165 2 -3.023619507346183 20.038572564663397 23.28873197057709 0 0 0
93 2 -3.0550849507266022 11.091325180389724 23.26821808760968 0 0 0
26 2 -1.3421760651794852 4.2259124108344714 27.921802525998025 0 0 0
312 1 0.37478880334707965 4.081560372023968 25.630539560022132 0 0 0
314 1 2.033398803973319 4.232727669781507 27.988488721661042 0 0 0
600 1 3.5793752960339793 3.947045400791297 25.567577140026287 0 0 0
602 1 5.0551942747144745 4.20132310719735 27.727974014316015 0 0 0
888 2 6.966962468837839 4.132781136818169 25.70615564127397 0 0 0
890 1 8.758666288264067 4.149850572248235 27.99088992922831 0 0 0
1176 1 10.066041397368586 4.000062422187173 25.57772513255874 0 0 0
1178 1 11.829203278609754 4.156452291174405 27.833027425800616 0 0 0
23 1 -1.3238418314070086 6.33614316368028 25.786688258031514 0 0 0
745 1 3.688237488226746 19.972481370308916 27.912377960973885 0 0 0
349 1 0.4161867085973756 6.338707347499757 28.002020086720027 0 0 0
311 1 2.068570812263845 6.457741279961289 25.75410281582515 0 0 0
637 2 3.563311545874993 6.656580351141467 27.969389936786946 0 0 0
599 1 5.244179731055326 6.458825704548337 25.640893814740927 0 0 0
925 1 7.0086923398362595 6.298838502871311 28.007808493684 0 0 0
887 1 8.719993316228727 6.286983830125394 25.77768488955355 0 0 0
924 1 6.993834286568199 8.515427005906824 25.695252449900117 0 0 0
1175 2 11.910658896292258 6.209241688872971 25.5474654226878 0 0 0
1213 1 10.429673725800743 6.4869727387385625 27.994403808584153 0 0 0
62 2 -1.3846032505734243 8.711332236055732 28.004486524759287 0 0 0
59 1 -1.5609137301488436 10.894391314775435 25.521384252942816 0 0 0
712 1 3.675389132454989 17.733235590604615 30.227394004246158 0 0 0
1321 2 10.343698304670621 19.838715883954052 28.061658658864705 0 0 0
348 1 0.12847615070558271 8.60648966577499 25.7389720955886 0 0 0
385 1 0.10847657113103404 11.115701238667697 27.82248396610003 0 0 0
350 1 1.6685555374817822 8.790261446747689 27.89975231924563 0 0 0
347 1 2.0768682775276 10.906667881296563 25.690028762862166 0 0 0
636 1 3.6593187874571704 8.781948492051722 25.820198282097323 0 0 0
673 2 3.617594315717896 10.933340858734027 27.940330498646833 0 0 0
638 1 5.327348407802892 8.724926073954997 27.8595679234165 0 0 0
635 1 5.364303645219764 10.800863023673221 25.56784303529939 0 0 0
961 1 6.9310799223385215 10.972021472429077 28.01629370844297 0 0 0
923 1 8.73015567866333 10.923320553874447 25.718541757750245 0 0 0
926 1 8.615728732833865 8.67629346987034 27.990087145701764 0 0 0
1212 1 10.445220058155297 8.528568626429976 25.710191124151162 0 0 0
1214 1 12.179443966009519 8.807688892121469 28.11228042965598 0 0 0
1211 1 11.98422935062004 10.929227537225438 25.780761136368714 0 0 0
1249 1 10.355775587914334 10.99894891793664 28.002580888338915 0 0 0
98 1 -1.5444048958521748 13.248031868685727 27.769468391042967 0 0 0
1037 1 6.956256643865211 19.86706433272261 32.482373788200505 0 0 0
384 1 0.32009422864931647 13.172742595215743 25.627935334254158 0 0 0
386 1 2.037753932636793 13.25476576588888 27.92708180158064 0 0 0
672 1 3.734581094051056 13.263803906383048 25.610768707934284 0 0 0
674 1 5.205832193914975 13.150871809460124 28.035167790541355 0 0 0
960 1 6.883676523382484 13.141321344561273 25.731024396780185 0 0 0
962 1 8.669409317769325 13.230967098340583 27.86052198394934 0 0 0
1248 1 10.42562890366856 13.330776876645325 25.63481892216151 0 0 0
1250 1 11.994300462364183 13.142771220769252 28.033539960051474 0 0 0
95 1 -1.2928073258373356 15.461820654703784 25.52250968296284 0 0 0
1325 1 10.665966309968631 19.928780987121492 32.41474066265984 0 0 0
421 1 0.2167178117279711 15.423944780419156 27.784303497275285 0 0 0
383 1 2.0691764276564033 15.539960558805744 25.523000494114797 0 0 0
709 1 3.6670642945488234 15.540840272360024 27.991018249878817 0 0 0
671 1 5.3599235096033135 15.469394496211777 25.68270976385456 0 0 0
997 1 6.851173845885705 15.32260000082219 27.957680604792277 0 0 0
959 1 8.575613223941644 15.516715892287017 25.610684032228605 0 0 0
1247 1 12.411261001586642 15.467877874337265 25.577431718619273 0 0 0
1285 1 10.461099607370848 15.5499543886054 27.913251682904416 0 0 0
131 1 -1.4563309870315793 19.920477092552748 25.47735714086675 0 0 0
134 1 -1.5047680922235822 17.718278897924485 27.740592587237543 0 0 0
1290 1 12.221723139033525 17.71873964556071 32.54412015909708 0 0 0
420 1 0.36228466555484706 17.76894500592367 25.51416450438986 0 0 0
419 1 1.8988325331115172 20.02453416440634 25.591789866503586 0 0 0
422 1 1.961250444706578 17.72698832504313 27.808897372019022 0 0 0
457 1 0.19713550262177248 20.105583103078686 27.84147636899277 0 0 0
708 1 3.739889849266259 17.79445293031278 25.595978288355987 0 0 0
707 1 5.357937445041435 20.073569927428014 25.753572380762193 0 0 0
710 1 5.396488524791843 17.653775978801264 27.910991113337996 0 0 0
996 1 6.8888345089119065 17.692965415260176 25.636809913786895 0 0 0
995 1 8.79365988829229 19.80728398839057 25.602664012949205 0 0 0
998 1 8.72601243133919 17.607547329388296 28.047123844586476 0 0 0
1033 1 7.1310107675057965 19.83196470260967 28.05066848262244 0 0 0
1002 2 8.80980851065205 17.754012263033033 32.42711052225958 0 0 0
1284 2 10.472778512781623 17.49315667399074 25.707637478330096 0 0 0
1283 1 11.98349400637046 19.89334510784214 25.767709949507246 0 0 0
1286 1 12.208601359900236 17.78249874339708 27.90868326930516 0 0 0
1287 1 12.36405916414455 19.852220402406886 30.105969165213015 0 0 0
30 1 -1.3913920986234103 4.134824293277436 32.49653318344019 0 0 0
316 1 0.24554721565451842 4.233705914568588 30.17145178288017 0 0 0
318 1 2.092708016346296 4.3250686240429115 32.39160619643314 0 0 0
604 1 3.8339119347513684 4.256559901359957 30.40246939417923 0 0 0
606 2 5.3933423145219495 4.320592883666688 32.704090385810304 0 0 0
892 1 6.865480184746887 4.083153389658962 30.198402250511762 0 0 0
894 1 8.595368488730507 4.129604927594478 32.423165429246694 0 0 0
1180 1 10.245468931178575 4.116726227680678 30.230688786609658 0 0 0
1182 1 11.771559940464574 4.09358728095745 32.514125900839325 0 0 0
27 1 -1.395922462750758 6.525647580337817 30.21533211731263 0 0 0
353 1 0.3520837616584487 6.399878774061744 32.48507942983811 0 0 0
315 1 1.9819770332644264 6.461204070871633 30.220405787974745 0 0 0
641 1 3.888444357247055 6.511730599325082 32.53060729842076 0 0 0
603 1 5.407642546602541 6.583110378616293 30.136124624153698 0 0 0
929 1 7.040272745351982 6.4878294641012175 32.43497350554567 0 0 0
928 1 7.110732872770989 8.786655888679524 30.276405960592673 0 0 0
891 1 8.727850793839671 6.4845702343429314 30.163636535485768 0 0 0
1179 1 11.91947811338067 6.459668560871185 30.37195547001606 0 0 0
1217 1 10.186300062134727 6.459679055384068 32.58200023957234 0 0 0
66 1 -1.4005420386080603 8.536366184694115 32.5035579576838 0 0 0
63 1 -1.499618174185997 10.875995963576136 30.146949478703693 0 0 0
352 1 0.3044468484596221 8.664488090866552 30.42550071281335 0 0 0
389 1 0.2762245489479569 10.854772285079761 32.54212624299423 0 0 0
354 1 1.964536384602245 8.650849990415768 32.61928553599884 0 0 0
351 1 1.8781065297350175 10.865916637674465 30.094065342674224 0 0 0
640 1 3.561594438285912 8.719766363402893 30.120621346672095 0 0 0
642 1 5.238276619979268 8.839257080471244 32.49245247839434 0 0 0
639 1 5.353287148020548 10.953149901856028 30.286903774626644 0 0 0
677 1 3.5563136079995763 10.969143106700724 32.383015908080196 0 0 0
965 1 7.070338974347309 11.085539942994206 32.617363679290285 0 0 0
930 1 8.837405734006715 8.790300617606547 32.50244067286195 0 0 0
927 1 8.581038089476419 10.964512510579977 30.222461407770144 0 0 0
1216 2 10.448831391752687 8.769474890646038 30.243559703360084 0 0 0
1218 1 12.046342171976601 8.613309011430303 32.511683420624365 0 0 0
1215 1 12.311649935960016 10.940894953210972 30.16794517428633 0 0 0
1253 1 10.577107884396273 10.960560424679715 32.484164555192535 0 0 0
102 1 -1.4644671272936425 13.003326186009353 32.40686766968291 0 0 0
388 1 0.012427480995419682 13.129959547119201 30.09945303830923 0 0 0
390 1 1.7426480260459272 13.182232093651248 32.47227823485238 0 0 0
676 1 3.6060583799483297 13.231612384391633 30.385238395716954 0 0 0
678 1 5.258290653454 13.319414933973201 32.56780064788455 0 0 0
964 1 7.066072446629099 13.260391151424626 30.19384422768523 0 0 0
966 1 8.871666121665388 13.130422763439526 32.465067672516014 0 0 0
1252 1 10.41579810407702 13.172407074423214 30.226844602374744 0 0 0
1254 1 12.087053814702127 13.255413321041082 32.32752563771588 0 0 0
99 1 -1.5894370427889306 15.410951203019223 30.110090517538527 0 0 0
1000 1 6.978537778677796 17.654276421918645 30.473685956993503 0 0 0
425 1 0.10777757322599202 15.30573996199171 32.2791425426918 0 0 0
387 1 1.8853670566311687 15.437662982463435 30.187646576129925 0 0 0
713 1 3.2911188314991158 15.520092336837005 32.44566159476706 0 0 0
675 2 5.244547421000909 15.389842617284772 30.388310038111694 0 0 0
1001 1 7.123560960400963 15.32259353725693 32.40770661828143 0 0 0
963 1 8.782046549113986 15.549128891985049 30.15071135432784 0 0 0
1251 1 12.138445950871255 15.333487121751698 30.117630901963718 0 0 0
1289 1 10.427004733322637 15.496886258329537 32.42252126053245 0 0 0
138 1 -1.536399393448334 17.585141443817747 32.28926054933173 0 0 0
135 1 -1.5583862119517948 20.01432521572578 30.035441363000118 0 0 0
1288 1 10.595381757375169 17.700547757788158 30.336755065723988 0 0 0
999 1 8.76620140408663 19.75544383259339 30.28298476813395 0 0 0
426 1 1.5942665095174 17.55893018071915 32.33032719777549 0 0 0
424 1 0.1742387070971252 17.651336316695584 30.007560019435623 0 0 0
423 1 1.9909295776548692 19.936043822775996 30.153459285334012 0 0 0
461 2 0.13645384718587605 19.893095174538114 32.49853456426651 0 0 0
749 1 3.6432130519560264 19.989145643752416 32.39347762624921 0 0 0
711 1 5.390204828367895 19.872170602588877 30.081608520466585 0 0 0
714 1 5.294812865324473 17.56655409280731 32.66881165605931 0 0 0
60 1 -2.9716369478861195 8.458821074384769 25.790066803324166 0 0 0
28 1 -2.8703068682367388 4.096396815492449 30.26683674044949 0 0 0
61 1 -2.9216298581018036 6.448100032121756 27.986146743117715 0 0 0
173 1 -2.983685531329685 20.019843758452456 32.34023023644528 0 0 0
169 1 -3.010387259828337 19.919074366817597 27.58365907978881 0 0 0
136 1 -3.0700543119018846 17.702134773585872 29.94985268630486 0 0 0
64 1 -2.9957139676406257 8.572920154612884 30.1873002101146 0 0 0
34 1 -1.4322552668099457 4.00383857074683 36.86945004163614 0 0 0
320 1 0.40555595437679504 4.135426039580702 34.72682837930901 0 0 0
322 1 2.1268678109948915 4.14542142680663 37.106723383635796 0 0 0
608 1 3.582865805185077 4.162588926233563 34.7717411615249 0 0 0
610 1 5.230540661400599 4.178906414638403 37.03984648898066 0 0 0
896 1 7.146598376104053 4.196513396178826 34.84337623740977 0 0 0
898 1 8.83603729958459 4.191424976560987 37.1032920804213 0 0 0
1184 1 10.173146093869711 4.094492495335702 34.68659939138219 0 0 0
1186 1 11.944026670822893 4.066291308205806 37.00449095091524 0 0 0
31 1 -1.599453421062204 6.275187706552018 34.59028561909854 0 0 0
397 1 0.2952133035208937 15.328895232433085 41.34642816691307 0 0 -1
357 1 0.22301364233120058 6.253432313035846 36.98026956966184 0 0 0
319 1 1.936947432855379 6.5295974443711655 34.700902488810044 0 0 0
645 2 3.587981316003539 6.529584277866183 36.905581687189525 0 0 0
607 1 5.446244470762873 6.388497328117655 34.78735898399347 0 0 0
933 1 7.102431274196657 6.247139654934184 36.96947953826836 0 0 0
895 1 8.634556095724733 6.594634519422106 34.75577316851553 0 0 0
1183 1 11.863781773678554 6.244771099633989 34.720041527436166 0 0 0
1221 1 10.299831819639738 6.404600734821405 37.00612580418317 0 0 0
70 1 -1.398287977533947 8.666163941910085 37.06057376793585 0 0 0
67 1 -1.5273680471025868 10.906138874180728 34.59714404846588 0 0 0
356 1 0.08198508219338585 8.772528308872367 34.75975251638491 0 0 0
393 2 -0.008361474029351612 10.957779054125263 36.97783469038028 0 0 0
358 1 1.8457973259446732 8.644920263092526 36.9593716193576 0 0 0
355 1 1.8476243606456855 10.900061431557171 34.88840527602977 0 0 0
644 1 3.7348716259188732 8.747984488948106 34.92041145022435 0 0 0
681 1 3.693170849196428 10.865397497896085 37.102144522024176 0 0 0
646 1 5.51631298565919 8.5388778271948 37.10305241869601 0 0 0
643 1 5.183706875448094 11.187219785619465 34.70920495750502 0 0 0
932 2 6.7591561187669695 8.813348828214561 34.743331142977055 0 0 0
931 2 8.780722549628582 10.820294844246623 34.7573340248786 0 0 0
969 1 6.835707181492682 11.00930200887816 36.845658198505575 0 0 0
934 1 8.456232042284888 8.68509806323189 36.8627957803277 0 0 0
1220 1 10.451104424767184 8.784113385104702 34.77250940429212 0 0 0
1222 1 11.933136335445631 8.560967814791674 37.17013601696597 0 0 0
1219 1 12.11507002838071 10.903433464322184 34.72969213897795 0 0 0
1257 1 10.535339150934988 10.841394761734051 36.982864543499915 0 0 0
106 1 -1.5034243121899817 13.33222276579753 36.73084264057641 0 0 0
686 1 5.3542171513088315 17.71625949041846 41.37812049947752 0 0 -1
392 1 0.17219080599660286 13.101801702735816 34.65265624277825 0 0 0
394 1 1.7542342758912 13.111478198649941 37.095052544700096 0 0 0
680 2 3.2587095939847 13.345813546474545 34.740638079384695 0 0 0
682 1 5.140255284444751 13.223149323147682 36.8216693810994 0 0 0
968 1 7.320731011228308 13.137320227399869 34.735036349669684 0 0 0
970 1 8.8976033546943 13.211685353210067 36.919571275932014 0 0 0
1256 1 10.361199899238741 13.075347239930386 34.63821651913388 0 0 0
1258 2 12.271139236735891 13.185763233674821 36.81252260009788 0 0 0
103 1 -1.5142342476513964 15.347037578250122 34.58955844896889 0 0 0
69 1 -3.1007171622313088 6.366614436179578 36.96125875867473 0 0 0
429 1 0.18919748681520687 15.48855475691738 36.96902601087227 0 0 0
391 1 1.5652224639716792 15.568374619678615 34.556051642634856 0 0 0
717 1 3.435028566208466 15.34570457505422 36.93327432248657 0 0 0
679 1 5.168371750006293 15.381848268984252 34.62278081532526 0 0 0
1005 1 6.931610768551381 15.333449151098355 36.98116019673657 0 0 0
967 2 8.890904821024705 15.38041841115394 34.78057326736642 0 0 0
1255 1 12.152094802758977 15.21152547135028 34.74785214051737 0 0 0
1293 1 10.654439690606122 15.604349508942473 37.11864321068505 0 0 0
139 1 -1.4758191438039057 19.825389357512332 34.81376478448219 0 0 0
142 2 -1.401186779027304 17.717726146014066 36.791226652769424 0 0 0
649 1 3.5990150249671666 10.916521495591908 41.38313811007568 0 0 -1
108 2 -3.0871748720998915 12.901207124635851 39.10655411522869 0 0 0
428 1 0.20908661331557266 17.844383670722706 34.59353603140299 0 0 0
427 1 2.01425880146789 20.005642487089407 34.67718180892106 0 0 0
430 1 1.9127055497566339 17.720098920811985 36.914267844851125 0 0 0
465 1 0.3000499850006273 19.898728372164577 36.935451540661106 0 0 0
753 2 3.499125705537601 19.984512579540525 37.0951127445545 0 0 0
716 2 3.46013736130985 17.519041692501897 34.512779437878834 0 0 0
715 1 5.073845981989156 19.749711513689725 34.75205212325967 0 0 0
718 1 5.169693453042705 17.632498594925607 36.87982498925321 0 0 0
1004 1 7.060342364056088 17.43164142517396 34.68620548178292 0 0 0
1006 1 8.741739463679842 17.602218802953942 36.92954577491456 0 0 0
1003 1 8.76160211132932 19.890357506597947 34.62230392324972 0 0 0
1041 1 7.145145142857017 19.7963314732756 36.747877871305505 0 0 0
1329 1 10.306401546167855 20.062365424384257 36.89620468402681 0 0 0
1292 1 10.517377294772643 17.56102491066882 34.6691970972236 0 0 0
1291 1 12.444357460714034 19.84397308714747 34.65296774379402 0 0 0
1294 1 12.310461570521344 17.6574476504412 37.07441108295228 0 0 0
143 1 -1.4529973790028528 19.89487678807328 39.09989531612328 0 0 0
324 1 0.22777005158200092 3.994884477941212 39.35652331283406 0 0 0
612 2 3.791593531566372 4.021202132209465 39.49689471428478 0 0 0
900 1 6.911050411873846 4.2083173167375145 39.268693259164095 0 0 0
1297 1 10.483754314786353 19.83639223028725 41.194856077965085 0 0 -1
1188 1 10.375777522975081 4.135426115677754 39.455054878179666 0 0 0
35 1 -1.447267673845748 6.332340007647784 39.25948288745579 0 0 0
323 1 2.099303869044454 6.272706091994944 39.14758466136793 0 0 0
611 1 5.165823774064864 6.382206146356377 39.23468578546452 0 0 0
899 2 8.688583154194976 6.364537767685111 39.32186036942488 0 0 0
719 1 5.57489922106375 20.064964607701782 39.18553584376119 0 0 0
1187 1 11.99475344323724 6.401887848174404 39.27198386943125 0 0 0
973 1 6.910503341268753 15.376262976800145 41.39348969725344 0 0 -1
398 1 2.088558325006396 17.645892983960287 41.407343096780764 0 0 -1
71 1 -1.5555167082890244 10.606050467121117 39.375046961820516 0 0 0
360 1 0.30833480552088677 8.543910082876863 39.346785046146934 0 0 0
359 1 1.7090956970621471 10.881670470357095 39.21739038847359 0 0 0
648 1 3.5347488625767793 8.674135486558065 39.2221973587241 0 0 0
647 1 5.432154466630167 10.926697858550279 39.22745046242058 0 0 0
936 1 7.026849050624732 8.674811366353717 39.321412026031695 0 0 0
935 1 8.677985144075127 11.00318668801109 39.0482029748641 0 0 0
1224 1 10.176232065506191 8.624237413040584 39.24133135388587 0 0 0
1223 2 12.017968699322207 10.792859497227175 39.25720683951495 0 0 0
432 1 0.07834842301358602 17.58844828594745 39.09704433781941 0 0 0
431 1 1.6759308003166558 19.783171127650725 39.26409624274169 0 0 0
396 1 -0.03910423450769773 13.03532007324723 39.174066951789044 0 0 0
684 2 3.704176166284938 13.055787255523873 39.11855857641477 0 0 0
974 1 8.692043970215757 17.570169190368098 41.294090476760616 0 0 -1
972 1 6.9587425593297505 13.089637959802976 39.101362613929865 0 0 0
1008 1 6.934380194207097 17.656459116571106 39.152579608045656 0 0 0
1260 1 10.595591615469218 13.04898224191344 39.138060508943454 0 0 0
1296 2 10.457816762623711 17.82252866858976 39.15895226377576 0 0 0
107 1 -1.587601851253921 15.27424827058217 39.10149680979043 0 0 0
395 1 2.0112501221538457 15.44284960181726 39.16821398163694 0 0 0
1007 1 8.63450748866358 19.900356090384673 39.10690058471421 0 0 0
683 1 5.203513969530873 15.319260061176111 39.10680087736819 0 0 0
971 1 8.955130763666048 15.372758518870448 39.0773501523891 0 0 0
1295 1 12.35680498822289 19.90662056892086 39.020746913133934 0 0 0
720 1 3.646988219380673 17.707630306044315 39.143332832879 0 0 0
1259 1 12.279669938429873 15.46485305887547 39.32213599413173 0 0 0
141 2 -3.033599934628654 15.60129522315266 36.89070966735238 0 0 0
36 1 -3.0635968185674898 4.025587503849469 39.08571416087976 0 0 0
721 1 3.5726071207822754 19.892496019261806 41.33573759103997 0 0 -1
105 1 -3.0018839475727015 10.901534522162903 37.017676720169874 0 0 0
362 1 2.053104354824545 13.219178605147924 41.403718216308505 0 0 -1
650 1 5.229088406202195 13.17994789661501 41.3214405795207 0 0 -1
325 1 0.23843065917438366 6.238604119659302 41.40506216074232 0 0 -1
145 1 -3.0002385804727396 19.88031138288255 41.3886199881063 0 0 -1
74 1 -1.4889620460184347 13.087455035151065 41.34137747223907 0 0 -1
938 1 8.918864618303125 13.120380387122228 41.41489730102169 0 0 -1
1262 1 12.255218852768774 17.592349748588916 41.38141060036465 0 0 -1
326 1 1.994850915154621 8.537594543853714 41.41635170930906 0 0 -1
110 1 -1.5702427686441909 17.659592215762792 41.39897417684531 0 0 -1
436 2 0.29994312505581844 22.12690121032919 2.822101375956332 0 0 0
146 1 -1.5202773818670035 22.181261432009443 0.7602403414630305 0 0 0
724 1 3.597472882818354 22.18285697978628 2.944640715449196 0 0 0
152 1 -3.034821685310798 22.33769110387739 7.483323157316677 0 0 0
1012 1 7.156223147901607 22.054586023947266 2.8682461598589115 0 0 0
260 1 -2.837852762586924 35.97714645690164 7.479784950024974 0 0 0
1300 1 10.673797774634913 22.142179317319428 2.756939822608958 0 0 0
836 1 3.507694352613746 35.75523873804252 7.4513206981929 0 0 0
147 1 -1.3131482321306218 24.427860546405732 3.168635321871933 0 0 0
435 1 1.8602752216597418 24.36948176627339 2.953937145691003 0 0 0
830 1 5.392598611307052 35.71490739157098 0.7445841226678079 0 0 0
548 2 0.12268749758335273 35.81217955436918 7.371509879512599 0 0 0
723 1 5.564264774408872 24.58125619801591 2.913429804285142 0 0 0
1011 1 8.663711312340968 24.345427520983225 2.75744415188479 0 0 0
1048 1 7.152992579143532 26.777432809107882 2.8996410246612196 0 0 0
547 1 1.8531715609634043 38.05374196833399 7.546849678933039 0 0 0
1299 1 12.130861592286564 24.445505115710333 3.043337213284404 0 0 0
546 1 1.8200190717601226 35.55823198593518 5.270335055619412 0 0 0
183 1 -1.416019176728459 29.00271389982082 2.872157908704842 0 0 0
472 1 0.1316169426648841 26.772227295785488 2.8099731626627005 0 0 0
471 1 2.0189081936530346 28.840171312867202 2.901504166593246 0 0 0
1082 2 8.602511045273285 31.146149610647523 0.8063316254386534 0 0 0
760 2 3.6390183950166364 26.57318444360887 2.6800894693277977 0 0 0
759 1 5.290689341725588 28.77013254407738 2.779479804425136 0 0 0
1411 1 12.067403973441458 38.051024404612356 7.446385291942788 0 0 0
5 2 -2.9630433928316764 38.089877567217066 5.319352655203663 0 -1 0
1047 1 8.761577153535626 29.090653388847795 2.950105309217288 0 0 0
1370 1 12.02087432635808 31.17282221306454 0.7363183919887933 0 0 0
1336 1 10.398780164380678 26.70768380253029 2.958160746920176 0 0 0
1335 1 12.092921302307264 28.88425068382528 2.9477019059914324 0 0 0
1412 1 10.280677706942068 35.90401438396803 7.657667368330687 0 0 0
869 1 7.028949974144273 38.04768963335566 5.264410966106736 0 -1 0
508 1 0.3505152771962403 31.32968044063924 3.015826620163663 0 0 0
796 1 3.7550606451157895 31.144190678990817 2.9326847092456725 0 0 0
581 1 3.476554194235046 37.99524603674559 5.227842074425383 0 -1 0
1084 1 6.971804852650393 31.176481639564717 3.066400223252527 0 0 0
293 1 0.12891005467359706 37.93410502753149 5.234355134885271 0 -1 0
1372 1 10.371449399291446 31.157548376595084 3.0749281063887914 0 0 0
1410 1 11.978372625145571 35.9299208937105 5.3348293796721205 0 0 0
219 1 -1.5154337840693086 33.38779332092811 2.6900417438332522 0 0 0
507 1 2.207139299140027 33.430504857702545 2.972645177307762 0 0 0
795 2 5.326292310554982 33.46976783506679 2.8014966298450608 0 0 0
1083 1 8.609510687239304 33.53309902785203 3.065618084409031 0 0 0
1334 1 12.265570317565839 26.798271286467077 0.797254359964909 0 0 0
1371 1 12.219234892073995 33.386381456498526 3.084345674479255 0 0 0
255 1 -1.4319504934609921 37.84418050843862 2.95572455608448 0 0 0
835 2 5.1720438517300105 37.879544293485324 7.387970785412754 0 0 0
259 1 -1.3873557515535504 38.345363497394644 7.748192020786163 0 0 0
544 1 0.22047787862969281 35.64190382516178 2.8925781430301845 0 0 0
543 1 1.9197231019017327 37.856166838211045 2.7418734305529493 0 0 0
258 1 -1.5960409634513755 35.65145101081334 5.087434037485125 0 0 0
832 1 3.7338099280310866 35.78362274169923 3.0259883291095564 0 0 0
831 1 5.304101677287513 38.17588460664238 3.0033673605324376 0 0 0
1081 1 7.185003679247722 28.90865557540149 0.7408469279910008 0 0 0
1120 1 6.904947588374061 35.799371678565144 2.9191715793107473 0 0 0
1119 1 8.440593987354198 37.99873167457561 2.802079451456522 0 0 0
1123 1 8.61548256571329 38.122156945256656 7.6188301804521155 0 0 0
1408 1 10.419054448662276 35.51073962390494 3.1164130359075792 0 0 0
1407 1 11.844801659629649 38.13431581772818 2.9316623078129336 0 0 0
1122 1 8.728963964037117 35.70048551138966 5.264471324684788 0 0 0
150 1 -1.3883431801481654 22.1123233447558 5.149813414613993 0 0 0
440 1 0.1107827371173622 22.04970302732254 7.619765015065816 0 0 0
438 1 1.996399542992524 22.148544724013448 5.330308761040084 0 0 0
728 1 3.817604468956933 22.27535203785644 7.522195160307207 0 0 0
726 1 5.553634854573121 22.2424780193355 5.111451438731437 0 0 0
1016 1 7.143040347569808 22.171095532084276 7.295944475364157 0 0 0
1014 1 8.833594386424025 22.124874498255227 5.106028972701206 0 0 0
1302 1 12.170508004086422 22.380876277250145 5.141824167273293 0 0 0
1304 1 10.501782784489503 22.160288040641774 7.363762320075206 0 0 0
151 1 -1.3649803170672468 24.549748128908945 7.481011904202321 0 0 0
473 1 0.37376868591704326 24.4133681547681 5.398253608756537 0 0 0
439 1 1.9691836555453364 24.31229537644995 7.627920709116619 0 0 0
761 1 3.689406737886097 24.327995413294655 5.053083431066649 0 0 0
764 1 3.677824034430726 26.72686198148967 7.320559950005603 0 0 0
727 1 5.192614699951682 24.50714031272823 7.337728945822442 0 0 0
1049 2 7.198173474610184 24.39312451337984 5.209070673381402 0 0 0
1015 1 8.904093450805938 24.38582564932801 7.515947533198215 0 0 0
1303 2 11.950186049528682 24.470582354797983 7.446943197602642 0 0 0
1337 1 10.262648972496777 24.420181666533555 5.074692023155189 0 0 0
186 1 -1.43191725483478 26.68284148524343 5.227773219374938 0 0 0
187 1 -1.4270456409784076 28.939301424263128 7.467417970831366 0 0 0
476 1 0.5936216080983647 26.794901781716046 7.556459403294072 0 0 0
509 1 0.36244591024443995 28.840208073503614 5.20731377784029 0 0 0
474 1 2.051887656701946 26.645973107994216 5.072803962363979 0 0 0
475 2 2.129450456979126 28.9870769294186 7.378264831583887 0 0 0
762 1 5.407248883286612 26.69581624811858 5.067745894203369 0 0 0
763 1 5.255608354641381 28.9187098002777 7.542585504009764 0 0 0
797 1 3.7027003738598223 28.834707669693948 5.143599902875004 0 0 0
1052 1 7.0950329385091875 26.642730791741826 7.325338254734039 0 0 0
1050 1 8.805775133926339 26.7725237596908 5.330621717940345 0 0 0
1051 1 8.83740025980789 28.966436902934113 7.526407344351702 0 0 0
1085 1 6.9184224829054175 28.99220703544689 5.2364954472595375 0 0 0
1340 1 10.538689810179406 26.828077750465987 7.6209324653394095 0 0 0
1338 1 12.068049497806328 26.620187718704173 5.265828665594736 0 0 0
1339 1 12.332502961293851 29.06881225742336 7.416615812744865 0 0 0
1373 1 10.48785838644287 28.98584374443845 5.247970725049463 0 0 0
222 1 -1.4248123017032768 31.070856756708505 5.07303058115224 0 0 0
512 1 0.22222031278371457 31.112386386241255 7.547898816122001 0 0 0
510 1 2.00599430728124 31.037674779640806 5.148034740009265 0 0 0
800 1 3.677218883144997 31.342407012909774 7.593071634312239 0 0 0
798 1 5.299198363822643 31.33418226727253 5.233035169695255 0 0 0
1088 1 7.044471434858308 31.16507711793937 7.546923485562911 0 0 0
1086 1 8.66626769574605 31.16677958399533 5.286791163875255 0 0 0
1376 1 10.412829838446154 31.132031183666 7.4768085251682574 0 0 0
1374 1 12.231243938330692 31.174690351602322 5.13745101316083 0 0 0
1157 1 10.364596272541188 38.061096935537165 5.288975655867444 0 -1 0
223 1 -1.4932034736364366 33.45646645281097 7.3507267438144135 0 0 0
545 2 0.12692170958967397 33.47687890696598 5.0227994323218 0 0 0
511 1 1.7692450894282477 33.478899319395765 7.375905194653421 0 0 0
799 2 5.455148295059225 33.586566423228135 7.491211177218174 0 0 0
833 1 3.72579981041543 33.551627814533475 5.24086001468433 0 0 0
1124 1 7.099444138118748 35.74154111975966 7.533120331962409 0 0 0
1087 1 8.723283538482757 33.35773667222425 7.4226368946348575 0 0 0
1121 1 6.982277553908937 33.56036109718393 5.182249995276966 0 0 0
1409 1 10.498578766789148 33.5727452601334 5.366043903794945 0 0 0
1375 1 12.04300918587466 33.74392898170538 7.5923278929384415 0 0 0
834 1 5.362908493357989 35.793142936013794 5.3187027785952825 0 0 0
506 1 2.029861434941794 31.162116387327846 0.7494969521859502 0 0 0
1369 1 10.446985545289149 28.922223145864884 0.7364574405172846 0 0 0
1405 1 10.208889568865676 33.41765494172202 0.8155022197103818 0 0 0
1333 1 10.590543462615422 24.496518284056243 0.7943446311889772 0 0 0
1 1 -3.0809898787004437 37.96938095896181 0.7250743669445399 0 -1 0
794 1 5.520773484413838 31.216759058425293 0.7536186911987528 0 0 0
154 1 -1.4964483212379183 22.19926174412808 9.80634183158593 0 0 0
444 1 0.30082244939181724 22.18925591228788 12.074950046612035 0 0 0
225 1 -3.0631369571873934 28.97763882560782 9.778707640645745 0 0 0
442 2 2.049743117366871 22.06343085085513 9.76048204393438 0 0 0
732 1 3.687861102345284 22.0658793706475 11.912540822558995 0 0 0
730 1 5.672892469929123 22.209991784046753 9.695829217793538 0 0 0
1020 1 7.103504637784538 22.05030865194116 12.115000152220308 0 0 0
1018 2 8.628484349863381 22.360059846267877 9.687638097943573 0 0 0
1306 1 11.956242788645522 22.232743593831383 9.718728769381011 0 0 0
1308 1 10.27860365885514 22.283065937672664 12.062094311555128 0 0 0
155 1 -1.2589263453539474 24.43578485968762 12.006799035512302 0 0 0
477 1 0.4907451275320005 24.349438423841764 9.835976068938201 0 0 0
443 1 2.2274288159286533 24.350737122572593 12.025513408491634 0 0 0
765 1 3.8605304716369213 24.509152288869224 9.78325836546816 0 0 0
731 2 5.52912252327731 24.319038933706192 11.919895200716526 0 0 0
1053 1 7.014012368745903 24.671433501049567 9.424874877013785 0 0 0
1019 1 8.579419162764378 24.519051526199494 12.00154126559018 0 0 0
1307 1 12.182324065197282 24.559615376379604 12.000882298439542 0 0 0
1341 1 10.290357154625532 24.72232277396739 9.894546791678504 0 0 0
190 1 -1.277020083772843 26.60532431114282 9.682639299107533 0 0 0
191 1 -1.1793869601324147 28.820253125289675 12.08156406109679 0 0 0
480 1 0.3725789117305447 26.61261343009178 12.089485671325296 0 0 0
478 1 2.0896385094599834 26.614254369457637 9.795126795887773 0 0 0
479 1 1.9786476752600564 28.98192366056133 12.017544979150259 0 0 0
513 1 0.3507085622201842 28.952047979725005 9.721106516831377 0 0 0
768 1 3.839953081634171 26.618834902412555 11.970830634598345 0 0 0
766 1 5.2663216445965615 26.938830717588544 9.524662543081854 0 0 0
767 1 5.438519965418782 29.020885026900675 12.031506293883307 0 0 0
801 1 3.639207728834613 29.203769072866898 9.895471673626398 0 0 0
1056 1 6.981676584787235 26.790601371482136 11.773461033689076 0 0 0
1089 1 6.950616750413837 29.177907881785643 9.757787025009298 0 0 0
1055 1 8.708308658787505 29.080586359273642 11.987908697181709 0 0 0
1054 1 8.682797793267856 26.873955726103297 9.70138047885039 0 0 0
1344 2 10.402834973227417 26.72545336558344 12.027930366466562 0 0 0
1342 1 12.131126125567999 26.79057113072462 9.803860121603014 0 0 0
1343 1 12.147207314937472 29.18634346314666 12.033894591483563 0 0 0
1377 1 10.48509205098743 29.060171150485953 9.772173607969973 0 0 0
226 1 -1.4123199784926987 31.02330421594048 9.858398644296885 0 0 0
516 2 0.2448469578465513 31.250427476768913 12.055481420164778 0 0 0
514 1 1.8760633296578506 31.383884686573015 9.790173333402016 0 0 0
804 1 3.6926739367749697 31.31972813363481 11.970969483776141 0 0 0
802 1 5.453385721334418 31.460348763221504 9.704405914796267 0 0 0
1092 1 7.078751211258834 31.324059670396938 12.059346469930057 0 0 0
1090 1 8.746911648575807 31.193254247346868 9.687348110019824 0 0 0
1378 1 12.218849674856603 31.335808672437597 9.670408308443097 0 0 0
1380 1 10.521525644479443 31.394325426911358 11.884219916797923 0 0 0
227 1 -1.3242150923146248 33.50564200490102 12.027042061405774 0 0 0
549 1 0.054840258743214854 33.458242654876685 9.679945027263015 0 0 0
515 1 1.8325169841480262 33.6106575092122 11.973302267412004 0 0 0
837 1 3.6459870871769837 33.624221967331096 9.899715197444355 0 0 0
803 1 5.48601091634371 33.60067403758363 12.01911341638906 0 0 0
1091 1 8.694545513984835 33.57486140585803 12.093434511820977 0 0 0
1125 1 7.138454369384044 33.54130104933958 9.908160573400984 0 0 0
1379 1 12.086311760481962 33.69709071901757 12.017258782412354 0 0 0
1413 1 10.329926300076892 33.61894055068602 9.84691341932299 0 0 0
262 1 -1.3555118123003742 36.03938729953822 9.8364406072437 0 0 0
263 1 -1.4500271598246064 38.2026084186439 12.191245851313873 0 0 0
552 1 0.2661314621505131 36.014235568906486 12.066241345190795 0 0 0
550 1 1.7525590238366533 35.862444501746026 9.771906488042502 0 0 0
551 1 2.11838531928288 38.113387436031346 12.104887096265104 0 0 0
297 2 0.2860705197785025 38.32771306415483 9.99473206927063 0 -1 0
840 2 3.6084576265859125 35.6710316457573 12.006832638421365 0 0 0
838 1 5.361060526778746 35.88231059842171 9.726802716725748 0 0 0
839 1 5.051769349347327 38.02910599251105 11.97789374227613 0 0 0
585 1 3.523175858565012 38.05292655400421 9.63190317034335 0 -1 0
1128 1 6.802495123915198 35.85608983564892 12.138849976734468 0 0 0
1126 1 8.613797757319002 35.9669871881094 9.828544660538634 0 0 0
1127 1 8.520129307595592 38.11879816559083 12.111564643642069 0 0 0
873 1 6.908762693419123 38.07132577810443 9.865421257059223 0 -1 0
1161 2 10.39167652241089 38.110148748354135 9.924861136677555 0 -1 0
1416 1 10.332064722760336 36.00253169404611 12.079895481281634 0 0 0
1414 1 12.15810703345731 35.82699841047297 9.868819205646455 0 0 0
1415 1 12.184346357955853 38.23287271622784 11.891665167913251 0 0 0
158 1 -1.3566001617327632 22.18790292274076 14.203085526272842 0 0 0
1165 1 10.452541750094785 38.24846881179034 14.361956748106241 0 -1 0
448 1 0.3961468667834054 22.308415725408363 16.397031635348206 0 0 0
446 2 2.1893400054164607 22.27176931464997 14.234849619842208 0 0 0
736 1 3.603349253114022 22.14044653609264 16.62888318715329 0 0 0
734 1 5.249367593425009 22.1702685407535 14.235134639423327 0 0 0
1024 2 7.107820130386465 21.982136558645344 16.40021249230389 0 0 0
1022 1 9.017197635901717 22.281209611603543 14.364839472131663 0 0 0
1310 2 11.974950061779843 22.26060669039005 14.430584608958235 0 0 0
1312 1 10.425138464998458 22.108984290472513 16.618477819456523 0 0 0
159 1 -1.2800919066975518 24.578763834776822 16.449705164551894 0 0 0
481 1 0.4701641511010859 24.552000912893476 14.221939413277719 0 0 0
447 1 2.119834948312925 24.461560843866472 16.504203190063564 0 0 0
769 1 3.8877756694899492 24.442947118134715 14.288923922581976 0 0 0
735 1 5.5570734969960975 24.196654945453446 16.605981312199535 0 0 0
1057 1 7.149951533062297 24.324907176768097 14.314234486775348 0 0 0
1023 1 8.83879162864206 24.268979429560996 16.566956153862304 0 0 0
1311 1 12.024690290673316 24.454270560494503 16.57144184635451 0 0 0
1345 1 10.468444479158485 24.543900773489202 14.176898172761444 0 0 0
1348 1 10.31481586178381 26.72921788081829 16.41007031580062 0 0 0
194 2 -1.3726212965240738 26.70026447872401 14.331220816173436 0 0 0
195 1 -1.310366434207612 28.896144196145823 16.394578752071155 0 0 0
484 1 0.494221840029621 26.8029695160318 16.463435101386874 0 0 0
517 1 0.3010057616337005 28.99575273585983 14.315153166359469 0 0 0
482 1 2.1466500091232508 26.680988936019506 14.326280678421467 0 0 0
483 1 1.9894683200884415 28.89690453855655 16.59503630144613 0 0 0
772 1 3.858461944538301 26.658969608508933 16.391261718172302 0 0 0
805 1 3.9118101690960296 28.960342958338508 14.455184012138783 0 0 0
770 1 5.557130628266303 26.651209471991397 14.08001095874597 0 0 0
771 1 5.420976925366724 29.014428736819845 16.55132362426788 0 0 0
1060 1 7.1391719674648515 26.64827819122359 16.440274681208884 0 0 0
1058 1 8.671692166952443 26.779750183717997 14.167402746158526 0 0 0
1059 1 8.768173886486839 28.95576003831857 16.48285000203162 0 0 0
1093 2 7.098485730423389 29.085244468680667 14.230733189979054 0 0 0
1346 1 12.155679577160722 26.83478497295317 14.236637898709475 0 0 0
1347 1 12.14008255335223 29.107726251195228 16.57793766673707 0 0 0
1381 1 10.47225255417358 29.019322924834665 14.196833525519533 0 0 0
1418 1 12.193124788565296 35.85626606168441 14.22107178369411 0 0 0
230 1 -1.4804126006515976 31.356797580585607 14.290108307247014 0 0 0
520 1 0.27338182236797426 31.24948732924664 16.630430360953817 0 0 0
518 1 2.067555224905612 31.08666143298789 14.306854641007382 0 0 0
808 1 3.5854157137244282 31.23981005168285 16.584285243066216 0 0 0
806 1 5.306105906479217 31.367690764215038 14.28198377061456 0 0 0
1096 1 7.203695758646696 31.286940901768315 16.57964367795914 0 0 0
1094 1 8.820510679854042 31.320395103701426 14.187325330040437 0 0 0
1382 1 12.213027191147397 31.379851247099936 14.16042654174724 0 0 0
1384 1 10.576476294736612 31.365412351950457 16.388272818569757 0 0 0
231 1 -1.4855149991402403 33.49019682709219 16.393851338667034 0 0 0
553 1 0.28135661152248614 33.4495028404976 14.355353704710168 0 0 0
519 1 1.9871997541579516 33.676340004664404 16.509398287098925 0 0 0
841 1 3.462760192459694 33.455942165112575 14.15089903751179 0 0 0
807 1 5.205557143985621 33.45505628686912 16.56887932031881 0 0 0
1095 1 8.882725091787353 33.60173821538666 16.5527608223437 0 0 0
1129 2 7.179256761237197 33.54661633622278 14.417748601639692 0 0 0
1383 1 12.044169816451738 33.799538305006465 16.485666168393248 0 0 0
1417 1 10.363820494345727 33.60361637410428 14.280576780709527 0 0 0
266 1 -1.388341756190752 35.773087296715204 14.264397171122427 0 0 0
267 2 -1.4489976685414523 38.009965135462295 16.5256844880735 0 0 0
1420 1 10.590447775799092 36.06659734522372 16.476128858852626 0 0 0
301 1 0.320067958406149 38.13968779107199 14.338416048460887 0 -1 0
556 1 0.10333275063435599 35.740411164427265 16.49810407753668 0 0 0
554 1 2.1297305250359164 35.836849377490466 14.263464018427662 0 0 0
555 1 1.8928242535409128 38.11020796331872 16.582367303887985 0 0 0
843 1 5.310846230316666 38.19212121065054 16.532366499674666 0 0 0
844 1 3.7235219888567643 35.90421457163979 16.573450505892403 0 0 0
842 1 5.226421279449867 35.67153624272954 14.308135111168308 0 0 0
589 1 3.684768804158674 38.17043229956572 14.390143127241714 0 -1 0
1132 1 6.860259133208797 35.81304071110602 16.494723601857938 0 0 0
1131 2 8.529635455108384 37.8858830780617 16.394442034770712 0 0 0
1130 1 8.581380611807639 35.84195977166784 14.289130664811795 0 0 0
877 1 6.698688020575401 38.155357039261055 14.334400967472535 0 -1 0
1419 2 12.095994559905726 38.295239094524504 16.606972105230078 0 0 0
229 1 -3.030756319270772 29.071642962976952 14.292741399467698 0 0 0
261 1 -2.9103628847727765 33.66239071854763 9.65503700872698 0 0 0
192 1 -2.877107580551733 26.59524887499817 12.016717664783915 0 0 0
160 1 -2.8390161288616063 22.281342133546325 16.62232103287502 0 0 0
9 1 -3.084583400493635 38.13032140446249 9.776141311248889 0 -1 0
162 1 -1.269193068316017 22.09910109721055 18.767416066347575 0 0 0
450 2 2.0188607553078084 22.112427228626586 18.884177580897155 0 0 0
740 1 3.506856252087209 22.143458558366625 21.124876457115395 0 0 0
738 1 5.494422024714749 22.121450103761358 18.72641838611569 0 0 0
1026 1 8.848942056221468 22.25025367660718 18.716415089032683 0 0 0
1028 1 6.926503806735325 22.17262623935812 21.10394297736257 0 0 0
1314 1 12.121616683099894 22.166445411068267 18.946017403736217 0 0 0
1316 2 10.416273261231229 22.126001169989365 21.195438165104033 0 0 0
163 1 -1.1682262722765844 24.270413027040146 20.97878377035257 0 0 0
485 1 0.36174998284412263 24.35114269273372 18.69415411338365 0 0 0
451 1 1.970114229985409 24.35167541129057 21.11506167355752 0 0 0
773 1 3.746716084492917 24.45244187087944 18.797763222074373 0 0 0
739 1 5.299071605167321 24.462757252825583 20.96959900789369 0 0 0
1061 1 7.111984788864924 24.496949186923437 18.90140301020833 0 0 0
1027 1 8.774392118303215 24.38572340886936 21.085330392887354 0 0 0
1349 1 10.440894412267067 24.411129966331412 18.744010192606986 0 0 0
1315 1 12.085939821267761 24.268892853237926 21.162332401863036 0 0 0
198 1 -1.3223157134238166 26.78504610783275 18.707136261581507 0 0 0
199 1 -1.4680552164354073 28.874304688942754 20.98027340037882 0 0 0
21 1 -2.9133028674604633 38.10520524195739 23.387966162588548 0 -1 0
488 1 0.4058306098236617 26.611085954802277 21.1095503802336 0 0 0
521 1 0.28653682609638764 28.949620102912892 18.701893412986525 0 0 0
486 2 2.0349291507090514 26.702953953424686 18.76816225592012 0 0 0
487 1 2.0468643083381988 28.895886117289322 20.9492802387018 0 0 0
774 1 5.375236463894862 26.736433958079775 18.847169066162902 0 0 0
809 1 3.6506584809410585 29.073326256311148 18.77539514979726 0 0 0
775 1 5.27285938990454 28.985051149917616 21.08379816038893 0 0 0
1062 1 8.868592636008891 26.74275114291523 18.697844909808396 0 0 0
1097 1 7.062129939579248 29.01271303666493 18.876362961451832 0 0 0
1350 1 11.925062330060907 26.74471745155554 18.648048051591317 0 0 0
1385 1 10.452554106647806 29.03608801056317 18.828589652994957 0 0 0
1351 1 12.062310144110967 28.902767600566726 21.002713241988737 0 0 0
234 1 -1.3376914605210972 31.26024088522124 18.83405504526265 0 0 0
522 1 1.918979110856065 31.229265340598293 18.94661367119786 0 0 0
810 1 5.239032728418803 31.361933159710702 18.778398832847913 0 0 0
812 1 3.7788166940448944 31.201977733273623 21.046113449772754 0 0 0
1098 1 8.86967715445148 31.285701817304172 18.839753569959313 0 0 0
1100 1 7.044215315697564 31.251092566452748 21.12675029326813 0 0 0
1386 2 12.059421508876277 31.191131161437667 18.80600376884036 0 0 0
1388 1 10.346098368012903 31.234320689698407 21.02219359629931 0 0 0
235 2 -1.383313312778947 33.42014185268496 21.102472393797814 0 0 0
557 1 0.19624509676458324 33.547736342076604 18.832367043117873 0 0 0
845 2 3.5750152282684633 33.56450017483114 18.871932456721296 0 0 0
1133 2 7.097582667926834 33.553288698178555 18.67111073743716 0 0 0
1421 1 10.511135046164942 33.38827730960698 18.82183820872648 0 0 0
270 1 -1.464240412979877 35.77286781931245 18.763615514789812 0 0 0
271 1 -1.3723908496893595 37.952864714652065 21.09599220512185 0 0 0
558 1 1.865110344130592 35.81679265063418 18.83701675661738 0 0 0
559 1 1.9240166245405366 38.02029451864542 21.019007280337913 0 0 0
305 1 0.11660578665900312 38.08234249881836 18.824101814849147 0 -1 0
593 1 3.6511525814761248 38.16539754348339 18.795203020579557 0 -1 0
846 1 5.274722086379115 35.79259142990129 18.793346313942198 0 0 0
848 1 3.625962983097475 35.62419724815593 20.963042448813567 0 0 0
1134 1 8.674502436565067 35.73930943744985 18.767145942899568 0 0 0
1136 1 6.963218141475559 35.880432624198164 20.954272871430998 0 0 0
881 1 6.966537536420213 38.17228415972568 18.765318482038616 0 -1 0
1422 1 11.992575952465454 35.891589685412654 18.76304516380616 0 0 0
1423 1 11.906576808676835 38.10878525974836 20.987196551456986 0 0 0
1169 1 10.126874602395525 38.183604045745696 18.706006984587077 0 -1 0
166 1 -1.2046434622198594 22.276211881280325 23.4191868021404 0 0 0
1424 1 10.408590984177131 35.71219991363531 20.964609937845747 0 0 0
452 1 0.48990486717047954 22.126012536134102 21.0838206848505 0 0 0
454 1 1.90054027597541 22.24607456370467 23.532727284507246 0 0 0
742 1 5.3440379145389505 22.164856748414078 23.39810614091423 0 0 0
1030 1 8.48053205127518 22.02895009675358 23.34064197823731 0 0 0
1318 1 12.088845233565053 22.159051936586994 23.408173983039976 0 0 0
1426 1 11.974842182577657 35.805144994793025 23.390085008846533 0 0 0
489 1 0.240800641140821 24.508734064095822 23.43485495914431 0 0 0
777 1 3.597984404996076 24.4286460234603 23.35035967936951 0 0 0
1065 1 6.913044267938969 24.380183105566427 23.370938813589586 0 0 0
1353 1 10.219505326694708 24.320415659212877 23.429887015628708 0 0 0
1352 1 10.455699757891455 26.63465532328013 21.04969062357459 0 0 0
202 1 -1.4290111110640409 26.812706669051217 23.371411409788553 0 0 0
490 1 1.9913492756464706 26.73043958689159 23.465799856807127 0 0 0
525 1 0.4058906346784523 29.00491938779483 23.26739187631549 0 0 0
776 1 3.587622522296021 26.610247206382603 21.11418612348622 0 0 0
813 2 3.602661511231874 28.953042586646216 23.349558997861603 0 0 0
778 1 5.2668801914413015 26.59292771498632 23.38863003446608 0 0 0
1064 1 7.138989797266052 26.695273572491182 20.9603743496382 0 0 0
1063 1 8.831488031073881 28.917895047648702 21.05653169224625 0 0 0
1066 1 8.686818856879142 26.661833660571773 23.21839621305104 0 0 0
1354 2 12.056174259308726 26.584547577747465 23.39980599069297 0 0 0
1389 1 10.3160607149957 29.00805213957793 23.291884549090472 0 0 0
238 1 -1.437039887978148 31.345054737617197 23.4888357971938 0 0 0
524 1 0.25393824910069407 31.038168838531927 21.200039967538387 0 0 0
526 1 1.9733700816178272 31.33250843184634 23.421531843750753 0 0 0
814 1 5.190176226633398 31.14943746315444 23.393922767926448 0 0 0
1101 1 7.085928567355993 28.882131861893377 23.290676067614363 0 0 0
1102 1 8.65685480279883 31.25774381664908 23.315149589448016 0 0 0
1390 1 11.980421116695165 31.1395607452542 23.31721975429836 0 0 0
561 1 0.1950580627372882 33.43476081183234 23.38702946569348 0 0 0
523 1 1.8613217788702006 33.48239619976022 21.085592524710968 0 0 0
849 1 3.6643399483883528 33.457663818277325 23.337142515506503 0 0 0
811 1 5.425998507219984 33.54750162150939 20.917706019133455 0 0 0
1099 1 8.68514952125664 33.681895506018876 21.031244983619747 0 0 0
1137 1 6.981989321230679 33.45810120478815 23.34671009857075 0 0 0
1387 1 12.066296153805926 33.57991289896151 21.10479507546316 0 0 0
1425 1 10.28098925185741 33.5062645859916 23.316382406740477 0 0 0
274 1 -1.4027588379382714 35.72661353411973 23.16624682456435 0 0 0
1173 1 10.277703977796012 38.045655384550685 23.378056242618165 0 -1 0
562 1 1.9438668743820466 35.73530187805841 23.31548512874852 0 0 0
309 2 0.23004262972220246 38.088604969806795 23.39751533242914 0 -1 0
560 1 0.19887055881833815 35.63208370072416 21.097731083233707 0 0 0
847 2 5.275588150232086 38.02159888899137 21.064942104607148 0 0 0
597 1 3.5025517096129475 38.02758146582394 23.291588656007328 0 -1 0
850 1 5.303496998457658 35.76004728251273 23.15534595675905 0 0 0
1135 1 8.676902360394404 38.120308315997946 21.07213220276697 0 0 0
1138 2 8.627577284216525 35.758286654831174 23.285023857017006 0 0 0
885 1 6.935340365169272 38.078689427892435 23.333782972856167 0 -1 0
237 1 -3.0682949856006925 29.04296319403757 23.456835657510158 0 0 0
197 1 -2.9016274555364086 24.35043426112319 18.82947122879013 0 0 0
236 1 -2.9886746514987963 31.09333571097228 21.168643762749394 0 0 0
272 1 -3.0827657691901167 35.673496044491024 21.06157423153188 0 0 0
273 1 -3.0157413268770896 33.489095425445115 23.293134915978975 0 0 0
201 1 -2.9816389891138697 24.617508627772423 23.205466948807707 0 0 0
269 1 -3.0864543093743966 33.40668770488476 18.686349910962903 0 0 0
200 1 -2.9990130441962606 26.682590695558744 20.98383638661985 0 0 0
17 1 -3.0619919595159075 38.0468396703785 18.810835212766115 0 -1 0
170 1 -1.4774316521579793 22.416442890255798 27.774376168482597 0 0 0
1146 1 8.697638769832132 35.87217897813503 32.328717024466904 0 0 0
456 2 0.2847375588539047 22.332044551438983 25.7877240555249 0 0 0
458 1 2.041758557978775 22.227921599771022 27.96388794875952 0 0 0
744 1 3.6658395468343263 22.10237906166966 25.686415390554956 0 0 0
746 1 5.471490340042551 22.159045211829767 27.930108816238764 0 0 0
1143 1 8.543322843694927 38.1546353839721 30.280553426022472 0 0 0
1032 1 7.02638991613695 22.150081631396834 25.608726154090284 0 0 0
1034 1 8.850190214859513 22.02783953027172 27.80385426563509 0 0 0
1320 1 10.36384648746958 22.159191977866268 25.626638099058685 0 0 0
1322 1 11.996466972530609 22.1354629123567 27.975838197297463 0 0 0
167 1 -1.6084257135184328 24.515670258690694 25.533222313069917 0 0 0
893 1 6.86101309057715 38.10261457933378 32.54763302811929 0 -1 0
493 1 0.3657990178836057 24.430860764950143 27.730352977402685 0 0 0
455 1 2.125275991038529 24.408384242075087 25.60065226427927 0 0 0
781 1 3.7143055073060003 24.45381030623247 27.82368472376832 0 0 0
743 2 5.278560405360943 24.406359887901015 25.619209145146034 0 0 0
1069 1 7.037749417173285 24.415613045286044 27.971354328749257 0 0 0
1031 1 8.605046044308537 24.282205412629327 25.70887390535645 0 0 0
1319 1 12.10358201556948 24.51626348260883 25.669728618806552 0 0 0
1357 1 10.485515693665658 24.535774333494693 27.8595413027156 0 0 0
492 2 0.20808285982193153 26.595370745229165 25.696039244777072 0 0 0
206 1 -1.3414196403452108 26.83968141876648 27.850463806921667 0 0 0
203 1 -1.4171825959679123 28.902904597395988 25.672422950739143 0 0 0
494 1 2.107967567013284 26.71758915045219 27.966782872553644 0 0 0
491 1 1.8163750626749655 28.87234346663588 25.668915809430477 0 0 0
529 1 0.4395654189570992 29.085441342658868 27.778885763291353 0 0 0
780 1 3.618280503259496 26.765312100718656 25.666708505701887 0 0 0
782 1 5.480295122421253 26.679598379267357 27.799241932670334 0 0 0
779 1 5.383398690604724 29.046952768276885 25.578597078284368 0 0 0
817 1 3.631570871284005 28.956513863990594 27.90215433834283 0 0 0
1068 1 7.006736757793152 26.66105004309484 25.6132593252044 0 0 0
1070 1 8.707036093751604 26.565522448413436 27.76339239672369 0 0 0
1067 2 8.733730624792432 29.024941351637143 25.6448146122019 0 0 0
1105 1 7.013024328874796 28.89301092384723 27.81860318287023 0 0 0
1356 1 10.29401421140917 26.524407326852852 25.432554584761863 0 0 0
1358 1 12.038116713658631 26.76015026855203 27.74910638881839 0 0 0
1355 1 11.961033691958242 28.952664585677653 25.569911277693574 0 0 0
1393 1 10.264334937416475 28.988900977990912 27.803205453396316 0 0 0
242 1 -1.447085096619133 31.243836597919717 27.950416102236282 0 0 0
1434 2 11.746243716879384 35.70348997196612 32.287505912857156 0 0 0
528 1 0.2758515749878181 31.178765343147862 25.688308868133433 0 0 0
530 2 2.2116234162121966 31.247255105914608 27.9130598836837 0 0 0
816 1 3.588757528542737 31.125154219763594 25.638785430797974 0 0 0
818 1 5.243290079693941 31.215364003756292 27.85576795586876 0 0 0
1104 1 6.921138576550802 31.242931189123894 25.501369611163234 0 0 0
1106 1 8.732815890722247 31.38447992961317 27.680546001795 0 0 0
1392 1 10.404503013946716 31.16106484664493 25.56867950966593 0 0 0
1394 1 11.985915047213123 31.131392787037047 27.9288952764228 0 0 0
239 1 -1.4170924312232596 33.49637664711034 25.755453534787172 0 0 0
565 1 0.34515489469590044 33.47654872272669 27.77864826537247 0 0 0
527 1 2.0324344047218705 33.46074334463958 25.5618548290577 0 0 0
853 1 3.806039892246033 33.71384571635609 27.70385833400695 0 0 0
815 1 5.164171569109706 33.459151502823715 25.48546726796407 0 0 0
1103 1 8.565506368860756 33.52002900177543 25.509677604815632 0 0 0
1141 1 6.869940599883139 33.5623723959923 27.739717292153014 0 0 0
1391 1 12.109669081001247 33.40715570404936 25.611455823189583 0 0 0
1429 1 10.245007619096018 33.62402600699539 27.73295999466918 0 0 0
275 1 -1.3215931449409384 38.204927631141 25.665323081363027 0 0 0
278 1 -1.2034100402608705 35.80922389007592 28.012904689431462 0 0 0
1144 1 7.0169156570723485 35.88679841181812 30.079029793521673 0 0 0
564 1 0.38285122194124943 35.778414278689546 25.449296640341068 0 0 0
563 1 1.9911712381062188 37.99858617313687 25.568584085650624 0 0 0
566 1 1.8788628298736452 35.71724481418563 27.63723646577038 0 0 0
313 1 0.4137272838864581 38.144832582977 27.922569413951706 0 -1 0
852 2 3.6980644892553 35.76464770210927 25.582568823098644 0 0 0
851 1 5.222313974651455 38.07006022598896 25.59881860872217 0 0 0
854 1 5.522292876871403 35.90702984350116 27.7479186235461 0 0 0
601 1 3.6842590536961684 37.883177798573634 27.88146702903456 0 -1 0
889 1 7.089599219610359 38.25725502673696 27.970787859700245 0 -1 0
1140 1 6.863544373468216 35.7173126631555 25.37993540862036 0 0 0
1139 1 8.43789132453502 37.830961048619386 25.487383640915702 0 0 0
1142 2 8.52105027134974 35.88616163611237 27.71833580284806 0 0 0
1177 1 10.224862284170044 38.06671732151597 27.879974697390114 0 -1 0
1428 1 10.33357930258429 35.811898156236026 25.569191911564133 0 0 0
1427 1 11.93944470274225 38.02268230204538 25.605784597153153 0 0 0
1430 1 12.097004428970564 35.95678371147224 27.860853921310035 0 0 0
204 1 -3.0279726779488167 26.719891974732786 25.581718430561867 0 0 0
174 1 -1.459487542177328 22.253121182300116 32.31897225410255 0 0 0
460 1 0.12456374024683114 22.316248829797303 30.078355209611978 0 0 0
462 1 1.6239925087667393 22.218273265499814 32.337586219317714 0 0 0
748 1 3.6644326036815027 22.130121015941945 30.177756346990666 0 0 0
750 1 5.330097021306579 22.22857875413212 32.44236549776667 0 0 0
1036 1 7.196191608549241 22.178545487220536 30.204335409121985 0 0 0
1038 2 8.690250959987175 22.02414073954323 32.762342206034404 0 0 0
1324 1 10.451481603264188 22.138260930594466 30.18985758878318 0 0 0
1326 1 12.199045232951974 22.137436086137136 32.33790325118206 0 0 0
171 1 -1.582950269240943 24.522400870702274 29.95382678995039 0 0 0
497 1 0.05340474617802604 24.606846208256936 32.09861756810803 0 0 0
459 1 2.0088153347549627 24.49387972755322 30.133479808564662 0 0 0
785 1 3.5833476465792415 24.405813907043232 32.28787479746491 0 0 0
747 1 5.505219709374265 24.370101387966237 30.191717503812203 0 0 0
1073 1 7.246924602776908 24.525835017471838 32.32777379225899 0 0 0
1035 1 8.932323762830407 24.53969460223822 30.124666053950193 0 0 0
1323 1 12.007835495856199 24.486115712107992 30.145944594138676 0 0 0
1361 1 10.313297522331403 24.333858480971852 32.53056711953748 0 0 0
210 1 -1.576512608811282 26.845480537933994 32.32097487392009 0 0 0
207 1 -1.2112011952155795 28.962229326986932 30.096318450194513 0 0 0
1431 1 11.972921970260426 37.98763684740968 29.98593601662165 0 0 0
496 2 0.3097777118153666 26.64557456576022 30.163281863724475 0 0 0
498 1 2.0657855395909213 26.66895418114716 32.28631814828766 0 0 0
495 1 2.0096107566510657 28.990932010072626 30.095850371611313 0 0 0
533 1 0.35221548246165835 29.064374587798106 32.40904769319716 0 0 0
784 1 3.9187011209643057 26.71377473215191 30.217077517171894 0 0 0
821 1 3.7041354155815984 28.919288791431793 32.3659624096096 0 0 0
786 2 5.467296071343449 26.604111662960015 32.60753149568769 0 0 0
783 1 5.509151973981546 28.903329106538745 30.15862546801208 0 0 0
1072 1 7.056309243057194 26.718745532962295 30.25090629212886 0 0 0
1109 1 6.952868090249436 28.90375473140267 32.40330028608053 0 0 0
1074 1 8.879998153216015 26.8616717646027 32.44605790663305 0 0 0
1071 1 8.731342466955361 29.117518078126512 30.17228591991734 0 0 0
1360 1 10.315874659811684 26.75400154408824 30.130163405366755 0 0 0
1362 1 12.121065544034451 26.804833963536996 32.55486061609088 0 0 0
1359 2 11.897346240511013 29.030045734531033 30.20308793345722 0 0 0
1397 2 10.528701709703729 29.153002174149204 32.33110951982097 0 0 0
246 1 -1.1715029490005644 31.438890612543332 32.42869641620268 0 0 0
1181 1 10.305027299950673 38.072494441741696 32.3953106416976 0 -1 0
532 1 0.338821948541431 31.269239056673065 30.08883446166977 0 0 0
534 2 2.111694466129781 31.294026884180674 32.421087404008674 0 0 0
820 1 3.8215688364203038 31.12330428298807 30.146149353097208 0 0 0
822 1 5.454619602247726 31.332026213984776 32.4077680202799 0 0 0
1108 1 6.932896273552934 31.309450277667448 30.001346001617115 0 0 0
1110 1 8.56423918076911 31.23753960929181 32.388436779726575 0 0 0
1396 1 10.320153383185513 31.25582394047722 30.05497965182687 0 0 0
1398 1 12.170717471451951 31.332448783113467 32.45594580825433 0 0 0
243 2 -1.2754457834112831 33.72276526282475 30.205707848722994 0 0 0
569 1 0.5674481221669279 33.553997063304195 32.376770690413224 0 0 0
531 1 2.1019826555061787 33.295734685843996 29.97682891190273 0 0 0
857 1 3.7473650153167926 33.58677964631407 32.307929725993205 0 0 0
819 1 5.326748683013565 33.48070416711166 29.946216073818075 0 0 0
1145 1 6.817274989291556 33.74381005565576 32.25509713828216 0 0 0
1107 1 8.625969936078551 33.485799055825794 30.02983539957578 0 0 0
1395 1 11.827936066728117 33.51093636868907 30.075598605603652 0 0 0
1433 1 10.120200424183164 33.515843731866894 32.304008030298455 0 0 0
1432 1 10.24785066113186 35.75596895127487 29.90818189629784 0 0 0
282 1 -1.2718076887614493 35.700222828422085 32.321856685368076 0 0 0
279 1 -1.2154533359108117 38.03122081495888 30.14573046978097 0 0 0
317 1 0.25625398296173607 38.290927417888376 32.51573271376918 0 -1 0
570 1 2.053810509419524 35.96419971037702 32.38572629694923 0 0 0
568 1 0.6228951645281029 35.90291555512774 30.187281067036032 0 0 0
567 1 2.120566680189791 38.32979329322209 30.29454467154935 0 0 0
856 2 3.652637710662198 35.69584641418905 29.975069340666007 0 0 0
855 1 5.19350219631644 38.16904474532675 30.146603840992906 0 0 0
858 2 5.080596642806484 36.04488336596173 32.227111257089064 0 0 0
605 1 3.7526599270313588 38.35770895897387 32.60028214780074 0 -1 0
244 1 -2.865254050224177 31.3669615549403 30.191935576784886 0 0 0
277 1 -2.9266925970001827 33.727715591793 27.890978784908764 0 0 0
276 1 -2.8710173979876408 35.88720728458304 25.63709664882458 0 0 0
281 1 -3.0626901456774958 33.539773195253645 32.2307187557745 0 0 0
29 1 -2.923708582133988 38.08098007699817 32.3929915381895 0 -1 0
245 2 -3.0811438082805505 29.198003875124204 32.29038650889393 0 0 0
25 1 -2.9371118045327744 37.974619246820986 28.015285465665695 0 -1 0
209 1 -3.080010210092027 24.4062271270807 32.321074121615354 0 0 0
178 1 -1.5638512290052147 22.052431099283407 36.860042139271684 0 0 0
285 1 -2.98940730879262 33.67649466454776 36.90037334933861 0 0 0
464 1 0.1393675783240984 21.98103745296827 34.71250744034221 0 0 0
466 1 1.9084847625472383 22.273741907731143 36.742414191845654 0 0 0
752 1 3.6395929645512872 22.15817356683689 34.53216297912249 0 0 0
754 1 5.251011374178632 22.072198183350867 36.855730129520765 0 0 0
1040 1 6.860638083623262 21.864679596506395 34.74361541462574 0 0 0
1042 1 8.758439318012641 22.169356201714482 36.83993288174074 0 0 0
1328 1 10.772548821037194 22.08327968147134 34.751924779734935 0 0 0
1330 1 12.538104802364192 22.159679499404405 36.80190553615773 0 0 0
175 2 -1.4377556357292083 24.419398846023714 34.52471158469427 0 0 0
284 1 -3.0045491368345045 35.89157543858074 34.59264037573175 0 0 0
501 1 0.0571190431564772 24.430466463573467 36.94905971508349 0 0 0
463 1 1.7203674135002487 24.24631790584877 34.4702791963316 0 0 0
789 1 3.530131433858135 24.41774448813088 36.67537362830231 0 0 0
751 1 5.747797011156032 24.367907252313326 34.678120423389615 0 0 0
1077 2 7.203131356639738 24.4516683212492 36.988957928239614 0 0 0
1039 1 8.820766642929858 24.131274063334942 34.65557489313345 0 0 0
1327 1 12.24036598745479 24.47163125945076 34.673902918312436 0 0 0
1365 1 10.725934522405275 24.271891945918995 36.73953108250632 0 0 0
500 1 0.0923527472577228 26.62481393815169 34.606619812183396 0 0 0
214 2 -1.4779285525212094 26.80216267190461 37.01592763285804 0 0 0
211 1 -1.3727993715674764 28.99704260946453 34.630511372565536 0 0 0
537 1 0.26424068568314407 28.951253760147843 36.976323638266166 0 0 0
502 1 1.986492643156927 26.67145133416765 36.830664781538815 0 0 0
499 1 1.942578165280315 28.785186247033305 34.692110136052804 0 0 0
788 1 3.5963472999206694 26.375759204640698 34.58852799530149 0 0 0
825 1 3.7247635252737723 28.845908371048708 36.95057644744344 0 0 0
790 1 5.396365187364213 26.570019528054942 36.83075024496698 0 0 0
787 1 5.351475746307327 28.794736458663316 34.73895008760297 0 0 0
1076 1 7.325073120577538 26.726622463807615 34.83976142797337 0 0 0
1113 2 7.184666334561386 28.770371675273896 36.74811128472069 0 0 0
1078 1 9.106401835424606 26.50073161089345 37.11481339565161 0 0 0
1075 1 9.017765900698059 28.94433202193162 34.53074617069599 0 0 0
1364 2 10.389793959133005 26.534750190004175 34.8025595323259 0 0 0
1366 1 12.230190353974244 26.666191073910735 36.840935336521056 0 0 0
1363 1 12.080570969128615 29.134739630504594 34.670232310071 0 0 0
1401 1 10.52722524235152 28.93328941259687 36.956069241083085 0 0 0
250 1 -1.6395953776911307 31.366495401723622 36.875994704421956 0 0 0
536 1 0.5243756811551408 31.234865451049874 34.80755478214205 0 0 0
538 1 2.2088920924007693 31.253375744725705 36.969496555474535 0 0 0
824 1 3.6193821221783793 31.11130679814998 34.54538357671818 0 0 0
826 1 5.407742909969582 31.11973324653312 36.92746389197619 0 0 0
1112 1 6.990765104529161 31.073896047759035 34.6156122383742 0 0 0
1114 1 8.670596451022913 31.15852678312959 36.87363814522344 0 0 0
1400 1 10.301653714392707 31.332370879489396 34.50096660424178 0 0 0
1402 2 12.032952169240446 31.2778904888821 36.8215072529877 0 0 0
247 1 -1.3109073210932052 33.4110589565462 34.54310559920698 0 0 0
573 2 0.34126485127936057 33.2630581709722 36.877593657409776 0 0 0
535 1 2.1804546353056624 33.405782043678656 34.7051729409103 0 0 0
861 1 3.803770034486429 33.57349673713108 36.940178426731606 0 0 0
823 2 5.3388474722186805 33.30832052717939 34.54056531596164 0 0 0
1111 1 8.44597400392555 33.533463072226446 34.61000725550096 0 0 0
1149 1 7.049625455534096 33.60448718009931 36.80381178939173 0 0 0
1399 1 12.023588036868212 33.407183164749995 34.58371412900895 0 0 0
1437 1 10.26282240605591 33.58797531454929 36.74648068458292 0 0 0
283 2 -1.2576503891281778 38.041411311290744 34.74479605384141 0 0 0
286 1 -1.0176730860074539 35.66221661275535 36.921999639939216 0 0 0
572 1 0.38618961130428264 35.74379628574289 34.585670480909144 0 0 0
571 1 1.9299360481939152 38.03099970938472 34.75106723559601 0 0 0
574 1 1.968376547460795 35.67356484515301 36.91906728898388 0 0 0
321 1 0.30030160861571265 38.164693912853345 37.0261228249704 0 -1 0
860 1 3.7803280827447336 35.70517986305906 34.69063001489265 0 0 0
859 1 5.395254217632863 38.004000748036795 34.79436824018501 0 0 0
862 2 5.514859621057414 35.90739590110194 36.79923299241493 0 0 0
609 1 3.6281165867601777 37.997507068265875 36.91747014428421 0 -1 0
1148 1 6.828920027433543 35.73754726010662 34.454037329461286 0 0 0
897 1 7.209190283776452 38.34000865516847 37.00964341761001 0 -1 0
1150 1 8.609252644891072 35.83522012437864 36.81816909971646 0 0 0
1147 1 8.639405179496126 37.916800214506 34.77868461350772 0 0 0
1185 2 10.200063361022352 38.06042805290633 36.9849663501287 0 -1 0
1436 2 10.315631468652747 35.60616008969052 34.55431821306453 0 0 0
1435 1 11.78589924506112 37.924997636505324 34.745421403537364 0 0 0
1438 1 11.954137781284512 35.80335300786024 36.8897285723442 0 0 0
212 1 -3.071458086056113 26.766074691269942 34.804527137518846 0 0 0
468 1 0.17842381345342062 22.220304231118657 39.09299893868565 0 0 0
756 1 3.5260255763850434 21.925084704740154 39.177045726002675 0 0 0
1044 1 7.113883669260553 22.353327059040357 39.18555877050589 0 0 0
1332 2 10.59893489070156 21.9138226898032 39.00048669716297 0 0 0
179 1 -1.6133929444864996 24.530535323118254 39.09101867235633 0 0 0
467 1 1.9086428188162223 24.35468325366537 39.078576725329455 0 0 0
755 1 5.167999235546444 24.34127318265472 39.01790358229127 0 0 0
1043 1 9.117220528673915 24.196341965256032 39.190297973248505 0 0 0
1331 1 12.307482715491307 24.273776424613466 39.20941853421982 0 0 0
1118 1 8.601282525043906 35.75699693383071 41.41441850618959 0 0 -1
33 1 -3.0598005492200158 37.82048837719081 36.8168024852405 0 -1 0
215 1 -1.3629438994769834 28.916816180345506 39.258045480787246 0 0 0
288 2 -3.0872705390445154 35.59174561462665 38.94093333676031 0 0 0
504 1 0.27890592818969084 26.706811698570796 39.06565222138862 0 0 0
503 1 2.1171503458979686 28.93210741853985 39.139329844149586 0 0 0
1046 1 8.72152155069507 26.574974910717373 41.31050038247119 0 0 -1
792 1 3.709315072999985 26.730746021426093 39.280198177407726 0 0 0
791 1 5.553425470875234 28.99139650801804 39.039596550712915 0 0 0
1080 1 7.100103036006844 26.505539083091957 39.16811058588226 0 0 0
1079 1 8.713987561925027 28.793467351281826 39.11996300528702 0 0 0
1368 2 10.679310986394519 26.574990742535988 39.35053450391635 0 0 0
1367 1 12.113931874462317 28.965040542357762 39.20185732852262 0 0 0
1298 1 12.184945606882295 22.05615966516421 41.27965570146493 0 0 -1
1439 1 11.925908451646968 38.017229859305935 39.166100782958324 0 0 0
829 1 3.5613867903927936 33.374658193206514 41.27512970721709 0 0 -1
540 2 0.4212119722081704 31.259549279054138 39.09293670479647 0 0 0
828 1 3.912919074045721 31.19535070761909 39.15043362058968 0 0 0
1116 1 7.176995418335433 31.102703357998166 39.27466519755703 0 0 0
1404 1 10.26593157215289 31.144131079459733 39.14250066449806 0 0 0
251 1 -1.2067093320516007 33.41415027097638 39.08836183617315 0 0 0
1406 1 11.880792406126357 35.67437882516341 41.359566012600965 0 0 -1
539 1 2.0746248908566534 33.46834403940836 39.02242805065397 0 0 0
827 1 5.506336242035457 33.40499462402836 39.172195907684426 0 0 0
1152 1 7.0447654152063075 35.76399066179885 39.10883223738578 0 0 0
1115 2 8.565350386901155 33.43929963728719 39.10894846968145 0 0 0
1403 1 11.93329810283749 33.56237855581668 39.08534912341719 0 0 0
254 1 -1.4150458355508955 35.68849835879282 41.19765618766718 0 0 -1
287 1 -1.4179573159428043 37.96334242289159 39.12822439341046 0 0 0
1440 1 10.103163466615715 35.84402290919245 39.07229820439031 0 0 0
575 1 2.107851027271362 38.09058880435276 39.34217931448332 0 0 0
576 1 0.39522161746609097 35.82605036144866 39.248235682925596 0 0 0
863 1 5.450012004515197 37.956784137564036 38.95738290270937 0 0 0
864 1 3.7920839771294297 35.68316723638144 39.122807362177426 0 0 0
218 1 -1.2206174783911135 31.12621081287252 41.319245247357884 0 0 -1
1151 1 8.64191860723621 38.26132772644807 39.24395289082074 0 0 0
865 2 6.8166085272480865 37.99921798257185 41.34732193180582 0 -1 -1
434 1 1.9733907599229106 22.119271948543062 41.42090743134284 0 0 -1
289 1 0.16797030326977902 38.04792788820834 41.315567940247846 0 -1 -1
182 1 -1.3235951877609133 26.706301338920106 41.276824485126326 0 0 -1
1010 1 8.893531148714882 22.089795590156918 41.406111025702685 0 0 -1
1117 1 7.024405894571445 33.55141182258987 41.3642042939876 0 0 -1
213 1 -3.0836636907220667 24.427378928954663 36.87411472142581 0 0 0
1045 2 7.063921765287545 24.174216596259665 41.183076879084624 0 0 -1
758 1 5.4893628153051575 26.62047000733078 41.393279024498526 0 0 -1
793 1 3.6376016460450034 28.83200837537537 41.29862064881671 0 0 -1
470 1 1.8301552204826264 26.704618552618452 41.30995255013859 0 0 -1
722 1 5.374857398122097 22.126885749342854 41.357784450700336 0 0 -1
541 1 0.4231038506168505 33.42770512706758 41.31202108764391 0 0 -1
469 1 0.2770465419913144 24.39178906682934 41.361711188892045 0 0 -1
542 1 2.1500001174885464 35.87245507242611 41.36944351021387 0 0 -1
757 1 3.677219193463097 24.331914228455474 41.39822838439537 0 0 -1
1153 1 10.355590249431494 38.08682261948083 41.41001385021545 0 -1 -1
505 1 0.28361056420293185 28.945234069221527 41.41449516122247 0 0 -1
577 1 4.076218930682461 38.06931970560903 41.40935086273825 0 -1 -1
1444 2 13.855717420816639 4.051031970575822 3.043689551555135 0 0 0
1838 1 18.944937727692135 17.53172420277361 0.7149158079217449 0 0 0
1732 1 17.051920087888316 4.1212164042765815 2.8469937659475923 0 0 0
1801 1 17.104701955625192 10.816533981458827 0.9046167378190556 0 0 0
2020 1 20.444762840932988 4.14043536026964 2.8856177858389005 0 0 0
2308 1 24.02311275904257 4.03894583658933 2.9699778804413897 0 0 0
2419 1 25.699635984040736 19.751482191287565 7.615768898830597 0 0 0
2596 1 27.22040222455787 4.021225073593344 2.9841734773560478 0 0 0
1443 1 15.36146790859047 6.4627653126759315 3.2013485124647474 0 0 0
2126 1 22.165699935588076 17.437228879017056 0.8566075340909349 0 0 0
1731 1 18.60196692855143 6.393026629812667 3.0341597644101177 0 0 0
1877 1 17.104354602820667 19.98112603470113 5.342558716898995 0 0 0
2019 1 22.31984867473656 6.321907155261385 2.9919437793882735 0 0 0
2741 1 27.28631856975188 19.98600974583585 5.112469771119679 0 0 0
2307 1 25.818168084619995 6.285826383123649 2.7648076214602755 0 0 0
1480 1 13.656964450725123 8.526283177400112 2.9605796388039622 0 0 0
1479 1 15.284547830244737 10.880471312080926 3.04787257594064 0 0 0
1843 2 18.849932863954866 19.911562992285305 7.610714856435906 0 0 0
1768 1 17.278764290179037 8.811422147099087 3.1072179928796717 0 0 0
1767 1 18.995351675370838 10.93556389772252 2.9910615036531163 0 0 0
1842 1 18.810658724554624 17.67042658330213 5.290453358032237 0 0 0
1844 1 17.1525120304221 17.557428909443658 7.419341579187087 0 0 0
2056 1 20.56832497108926 8.496677958167574 3.052109707381247 0 0 0
1589 2 13.76988360511633 19.872843218957037 5.244032124836305 0 0 0
2344 1 24.132654998900723 8.438760465965762 2.9167202998437927 0 0 0
2055 1 22.253014165551406 10.70795127334753 3.0531314598437205 0 0 0
2632 2 27.34420699363365 8.526400795791666 2.9270929472322784 0 0 0
2343 1 25.810284917812375 10.816890261371984 2.934897665371629 0 0 0
1516 1 13.781970014248564 13.057486789652096 3.07692454084137 0 0 0
2418 2 25.64351284078817 17.772431774610933 5.29333150664721 0 0 0
1804 2 17.050021398179865 13.041556977863314 3.03670653249446 0 0 0
2092 1 20.52366615033947 13.187938346054759 2.957152186062973 0 0 0
2708 1 27.594422530701106 17.790270807934824 7.490531517193224 0 0 0
2380 2 23.972608849236444 12.968614513576405 3.1152428098868086 0 0 0
2668 1 27.468966286610424 13.042408276966217 2.929901215270694 0 0 0
1515 1 15.576711000341952 15.369614598200132 3.060724115060504 0 0 0
1556 1 13.81935534780898 17.605000319723423 7.509677374080237 0 0 0
2453 1 24.021331566575448 20.00418842250791 5.343395842620764 0 0 0
1803 1 18.693820798854116 15.314868704631348 2.9468692775967127 0 0 0
2091 1 22.367476719388385 15.233226753609207 2.9408251626239625 0 0 0
2090 1 22.321919914027806 12.954988218278434 0.8258135964524111 0 0 0
2379 1 25.64705078196454 15.219181918207251 2.954733679426558 0 0 0
2420 1 24.042585405991666 17.598258480788417 7.426248466692434 0 0 0
1552 2 13.733861700383585 17.480317755994193 3.0759627660575655 0 0 0
1551 1 15.378476815465454 19.913005194347125 3.0029904258043993 0 0 0
2130 1 22.219357509877756 17.67740945900102 5.292765869694842 0 0 0
1840 1 17.243124574010146 17.831403337343367 2.9967640302311844 0 0 0
2165 1 20.613116881632823 19.83682827479091 5.387511916876717 0 0 0
2131 1 22.160248572963727 19.886776218295484 7.60330049530478 0 0 0
2128 1 20.597686291284113 17.450509302412275 3.0586980050582664 0 0 0
1839 2 18.98776210983682 19.883730865792185 3.1220479248234065 0 0 0
2416 1 23.96621129215581 17.567840948098876 3.0201475427351747 0 0 0
2127 1 22.19186428174745 19.744662672944745 3.1407455695847606 0 0 0
2132 1 20.455770284296207 17.72190816482106 7.505519775009784 0 0 0
2704 1 27.186542399575956 17.64869227841224 2.8771314744255747 0 0 0
2415 1 25.480321087928495 19.999603732440157 3.0971758937441214 0 0 0
1446 1 15.468936972564457 4.154272226239764 5.25701368962068 0 0 0
1448 1 13.697988025876459 4.000861643276847 7.441283917719057 0 0 0
1734 1 18.816431136995938 4.306708388525243 5.2328799906501455 0 0 0
1736 1 17.349082241546977 4.091891815844994 7.57440206182523 0 0 0
2024 2 20.559845370639795 4.079305077261495 7.555015032975686 0 0 0
2022 1 22.214741375731037 4.252559930504127 5.219255148127312 0 0 0
2312 1 23.81540898171321 4.31653728843791 7.555415421564494 0 0 0
2310 1 25.697761746321373 4.2193276708176715 5.367613165879675 0 0 0
2600 1 27.415523795308342 4.072724522755003 7.521945087719687 0 0 0
1447 2 15.356524257976464 6.180008187197442 7.662212619378644 0 0 0
1481 1 13.727434517723164 6.184507891392068 5.332012816393971 0 0 0
1735 1 19.009342739980248 6.311682977217337 7.5786368523468886 0 0 0
1769 1 17.183219708573496 6.428966834503861 5.353492497232471 0 0 0
2057 2 20.48801237642657 6.465305659795671 5.139300283763336 0 0 0
2023 1 21.99247612493643 6.555127894915792 7.489704484465053 0 0 0
2345 1 24.011074308077692 6.327434898690873 5.344480281358196 0 0 0
2311 2 25.66859919282181 6.270539747896915 7.491131391358512 0 0 0
2633 1 27.354656401721716 6.535288343772046 5.193485114783969 0 0 0
1484 1 13.81082504038934 8.567674726964114 7.572941606380265 0 0 0
1482 2 15.396522635268866 8.615342356491833 5.252492583495549 0 0 0
1483 1 15.52680779596346 10.661182861367221 7.359365126422959 0 0 0
1517 1 13.660005985188086 10.815822124578586 5.305936199045628 0 0 0
1772 1 17.01268931306962 8.395772162270585 7.486460860627131 0 0 0
1770 1 18.75607021667544 8.687003816710023 5.297079247729643 0 0 0
1771 2 18.84094620998435 10.853122867768155 7.414815644293728 0 0 0
1805 1 17.223519631659745 10.939455659571387 5.294619483591031 0 0 0
2093 1 20.651335714171044 10.969848402147806 5.271037476474461 0 0 0
2060 1 20.533500674816228 8.728402093441469 7.473361013564281 0 0 0
2348 1 24.06756740402106 8.673163342960123 7.4799928311050765 0 0 0
2058 1 22.231075050144263 8.629840192759481 5.165539290459358 0 0 0
2059 1 22.40210143521658 10.9830254364392 7.386916829925127 0 0 0
2381 1 24.242324636111583 10.915230303156715 5.1018669700007475 0 0 0
2636 1 27.404780646097635 8.513554416568795 7.639674495878856 0 0 0
2346 1 25.71856515648759 8.758881267148801 5.309775597067738 0 0 0
2347 1 25.708503656880648 10.925802395410722 7.572342421446056 0 0 0
2669 1 27.41307478071598 10.889396343546373 5.321210456549756 0 0 0
1518 1 15.392843079350907 13.012098729677628 5.220033476140592 0 0 0
1520 1 13.701446225978934 12.961895973555137 7.636054490679981 0 0 0
1808 1 17.270842389900825 13.100567355303797 7.572533738785336 0 0 0
1806 1 18.938689118694427 13.1035917905908 5.204869364675575 0 0 0
2096 1 20.660584003985 13.29493756075703 7.548580674477157 0 0 0
2384 1 24.099164214040226 13.157575759781011 7.669819158142358 0 0 0
2094 1 22.293931244912194 13.09889766586327 5.232156275840079 0 0 0
2382 1 25.649008918348027 13.17335994235102 5.271829365379435 0 0 0
2672 2 27.40241871269426 13.179762760732999 7.449969816173801 0 0 0
1519 1 15.418472007683981 15.247359077313991 7.579659902024388 0 0 0
1553 1 13.748961291561987 15.355844633631138 5.319916212279348 0 0 0
1841 1 17.06765279699259 15.411025680600066 5.40756833418613 0 0 0
1807 1 18.968657370614018 15.345880618251906 7.6485499925404525 0 0 0
2129 2 20.61237406795809 15.439551124458204 5.212964300763985 0 0 0
2417 1 24.008538926333088 15.459582253169485 5.115888439588559 0 0 0
2095 1 22.280839508131702 15.437111171161344 7.473992860070156 0 0 0
2383 1 25.741155517317228 15.542100326337863 7.48238240813803 0 0 0
2705 1 27.3131321493171 15.5451649523058 5.265828189052975 0 0 0
1554 1 15.410117038028861 17.676504054704754 5.205140486732687 0 0 0
1555 1 15.410403854515462 19.974383131707434 7.571472686699706 0 0 0
2054 1 22.33465403910186 8.546957333291353 0.8101805354344035 0 0 0
2053 2 20.571603400650094 6.339714819687382 0.754599580379477 0 0 0
2449 1 23.898274817179672 19.804717163525428 0.8000943284317799 0 0 0
2125 2 20.493707379017145 15.150749728846643 0.9014946822883901 0 0 0
2377 1 24.146382292486027 10.649135395568791 0.7580052088612528 0 0 0
2737 1 27.09227738431458 19.9405242355579 0.7699580699671749 0 0 0
2413 1 23.96821523071685 15.269420912778486 0.771798073401582 0 0 0
1873 1 17.326032236956614 19.89196372342804 0.8352023270609419 0 0 0
1549 1 13.842802766358524 15.313533908435279 0.815528056003614 0 0 0
1837 1 17.060487893804904 15.365887304449537 0.752295140088095 0 0 0
1766 1 18.703383591353255 8.52460790480719 0.7590957530880674 0 0 0
2378 1 25.54371755502626 12.982267899462293 0.712833383087812 0 0 0
2701 2 27.4178490575618 15.132673504501515 0.7368123881693975 0 0 0
1514 1 15.511207078710822 13.158519428096573 0.766206144447068 0 0 0
1550 1 15.400609045216203 17.620453133792527 0.8058114472151345 0 0 0
1442 1 15.329916768946656 4.001125726048389 0.7451061448963685 0 0 0
2414 1 25.55924252923137 17.479185021764167 0.7274094980443095 0 0 0
1513 1 13.918913723288302 10.864658957456848 0.7341793524562803 0 0 0
1802 1 18.636456322448343 13.040354987620674 0.8134556091739569 0 0 0
1452 1 13.975676211382574 4.251452320264926 12.291940591668027 0 0 0
1450 1 15.460551710686126 4.022253180603311 9.772342447327327 0 0 0
1740 1 17.13413598747347 4.048748804000645 12.01473068340992 0 0 0
1738 1 19.00646716917326 4.090516420013532 9.898345923170718 0 0 0
2028 1 20.618962945733706 4.212119817442632 12.314365923270975 0 0 0
2026 1 22.14819768740914 4.135134507143372 9.913163729751501 0 0 0
2316 1 23.726012715103224 4.2246665747578955 12.225847799573637 0 0 0
2314 1 25.58515690892087 4.194649416084379 9.86681629194361 0 0 0
2604 1 27.41372370774241 4.0917813338001086 12.087931083281157 0 0 0
1451 1 15.491365514584917 6.459932236494772 12.043645328506347 0 0 0
1485 1 13.701977869211408 6.334834630327799 9.885541192675678 0 0 0
1739 1 18.705395151935257 6.383548610464004 11.88568557364676 0 0 0
1773 2 17.062497660087026 6.213659175024359 9.604450532881163 0 0 0
2061 1 20.590087106732202 6.393858189384074 9.891187414069773 0 0 0
2064 1 20.417610391370033 8.710476034778509 12.20292425725671 0 0 0
2027 1 22.10981723242147 6.566109752673329 12.325302766103057 0 0 0
2349 1 23.813665745695644 6.330144874574213 9.760857053522685 0 0 0
2315 2 25.71242474758143 6.274287885149972 11.978737243662987 0 0 0
2637 1 27.437565401187655 6.315636311929343 9.658870372914217 0 0 0
1488 1 13.822283820168902 8.573691030710755 12.04188953669251 0 0 0
1486 1 15.520790476307198 8.54602663208739 9.691087860597323 0 0 0
1487 1 15.492565045621472 10.896065762520276 11.985594751999916 0 0 0
1521 1 13.806440539053511 10.823019646822235 9.69588111410564 0 0 0
1776 1 17.105452542336344 8.740931209436546 11.957906599036654 0 0 0
1775 1 18.931271884919592 11.146202811836101 12.072245526755301 0 0 0
1809 1 17.347835748131697 10.829675624726562 9.688244015540821 0 0 0
1774 1 18.74793438971867 8.587992189077184 9.684863894302497 0 0 0
2097 1 20.519010456390063 10.833621146858732 9.696550711977903 0 0 0
2352 1 24.02199163643193 8.683606807543633 12.158353956090696 0 0 0
2062 1 22.31949726548271 8.67303215430893 9.888230791289333 0 0 0
2063 1 22.21660470575756 10.917665298401433 11.933141707675995 0 0 0
2385 1 23.9510096098064 11.094964968029004 9.850412862053128 0 0 0
2640 1 27.264153187134436 8.550328790560553 12.018306154392995 0 0 0
2350 1 25.583175301982838 8.747748913048143 9.659764096612047 0 0 0
2351 1 25.758555393623677 10.833343868329617 11.872535828706418 0 0 0
2673 1 27.67879982916278 10.785172070420995 9.651590315562979 0 0 0
1522 1 15.463219484509846 13.051061233373305 9.786025530172491 0 0 0
1524 1 13.669689821020356 13.005603987349073 11.962976045724444 0 0 0
1810 1 18.963062311523817 13.13338858900395 9.71620418569341 0 0 0
1812 1 17.080863337774183 13.19236749099254 11.967591960455294 0 0 0
2100 1 20.671695937264317 13.275704547146097 11.918296905092918 0 0 0
2098 1 22.227911761051562 13.400328656545293 9.758152789987179 0 0 0
2388 1 24.076402052412732 13.050409376625938 11.89324346388283 0 0 0
2386 1 25.86163990826339 13.117056320449004 9.726779912023336 0 0 0
2676 1 27.575757079995725 13.01973976885911 11.920625521006306 0 0 0
1523 1 15.239183363036716 15.341400637189269 11.933288107641584 0 0 0
1557 1 13.65375865223583 15.356761633363003 9.745464448409193 0 0 0
1811 1 18.778831531750544 15.519676111171222 12.118716523314278 0 0 0
1845 1 17.181114123542745 15.51060442119566 9.71710889447461 0 0 0
2133 2 20.47195649798146 15.50194499657732 9.921231140978472 0 0 0
2099 1 22.47701135402435 15.493277009794905 12.036513617171838 0 0 0
2421 1 24.064304105183428 15.464211061820198 9.730803020674363 0 0 0
2387 1 25.628564200536843 15.395032243699907 11.922796660294223 0 0 0
2709 1 27.45049070170963 15.551308944985426 9.60265862409059 0 0 0
1593 1 13.883919962068557 19.94680718589907 9.842767138803445 0 0 0
1560 1 13.7281844368303 17.651206896369533 11.9715807847435 0 0 0
1558 1 15.541745276329411 17.641207412197268 9.800595022068459 0 0 0
1559 1 15.424946714159308 19.811782118326377 12.216012335986342 0 0 0
1881 1 17.04555936039662 19.958089765309474 9.792243120234 0 0 0
1848 1 17.14190146075156 17.742901476759066 11.989648503839645 0 0 0
1847 2 18.752146361548746 19.86970923654691 12.004505275720879 0 0 0
1846 1 18.791363447288532 17.774964691655576 9.666944548912221 0 0 0
2136 1 20.571517654929877 17.86370633401971 11.949051435910047 0 0 0
2135 1 22.481930110311197 20.019274961944973 12.082468619083514 0 0 0
2169 1 20.775235334775743 19.924856256008255 9.846585960133229 0 0 0
2457 1 23.921789599406292 20.026232078883144 9.775356361563372 0 0 0
2424 2 24.15638275484329 17.76541634553775 11.949711289733342 0 0 0
2134 1 22.334736257504115 17.53053260113257 9.676244766733566 0 0 0
2745 1 27.666199799935512 19.95306426149352 9.737627082052954 0 0 0
2712 1 27.169468811942554 17.750145929817464 11.969677096124448 0 0 0
2422 1 25.711339385655517 17.72397323154999 9.713577941234716 0 0 0
2423 1 25.709282840393904 20.057542296805646 11.959693016630808 0 0 0
1454 2 15.649807824387228 4.210292569673151 14.362011122959432 0 0 0
1456 1 13.88549265592118 4.1519659353030445 16.41096134112562 0 0 0
1742 1 18.759081510762506 4.074550153602937 14.323904599319112 0 0 0
1744 1 17.223899041796024 4.042064738254564 16.67831246251778 0 0 0
2032 1 20.36333582477673 4.078771633801006 16.600836127679905 0 0 0
2030 2 22.258031273088257 4.2001063255844535 14.680721567815652 0 0 0
2320 1 24.07606023044548 4.2164835914199355 16.651079348756078 0 0 0
2318 1 25.671465015441758 4.059668490946162 14.291088556334504 0 0 0
2608 1 27.20571543200436 4.2316881217330735 16.69596370697504 0 0 0
1455 1 15.490251558159176 6.252108931528938 16.591459578887946 0 0 0
1489 1 13.8249150960058 6.387248521637255 14.339141860243883 0 0 0
1743 1 18.866585560129025 6.243416297378437 16.65789849677177 0 0 0
1777 1 17.293904769626327 6.476122424170909 14.3440588553876 0 0 0
1780 1 17.111862952998706 8.697226414386154 16.607845371327592 0 0 0
2065 1 20.303574744597363 6.3906986583654035 14.373683394149781 0 0 0
2068 1 20.54085961940538 8.579548530364612 16.574115811230662 0 0 0
2031 1 22.117466188246016 6.250989084533442 16.676180873758423 0 0 0
2353 1 24.049035159304363 6.335781509009066 14.327411833006694 0 0 0
2319 2 25.71709842863064 6.542393922721322 16.60350060153506 0 0 0
2641 1 27.17925964062466 6.310714840840419 14.283410190067542 0 0 0
1492 1 13.855211777426213 8.678069114212 16.406840015447628 0 0 0
1490 1 15.558095059392308 8.689200446608634 14.197887613580015 0 0 0
1491 1 15.368558609730247 10.936083919016244 16.411015370739705 0 0 0
1525 2 13.5914580097446 10.80128541604184 14.286157894500867 0 0 0
1778 1 18.80658594087591 8.705878203417871 14.295615331052637 0 0 0
1779 1 18.69117150818275 10.786265372067623 16.731288311978922 0 0 0
1813 1 17.134889636229097 10.975864685360929 14.398293893064972 0 0 0
2066 1 22.092835475897836 8.603275680049993 14.446251189429901 0 0 0
2067 1 22.2928948906155 10.82161841450146 16.497112768703587 0 0 0
2101 2 20.567155717791113 10.906370544541664 14.414024566760704 0 0 0
2356 1 23.814806762600988 8.52818160240982 16.479236246163737 0 0 0
2389 1 23.96794846144262 10.801517817624115 14.173875354205961 0 0 0
2644 1 27.541927698644688 8.662376268815876 16.549612868352632 0 0 0
2354 1 25.750596460919603 8.526014506582591 14.381885857951486 0 0 0
2355 1 25.64679952942703 10.878751589706374 16.467397100419866 0 0 0
2677 1 27.557173169824644 10.772695492353975 14.105612546362144 0 0 0
1526 1 15.335924223290238 13.20042185108532 14.327624331625204 0 0 0
1528 1 13.818776187250844 13.245419473707004 16.779140654149 0 0 0
1814 1 18.97853568797456 13.285466369924109 14.250447042579431 0 0 0
1816 1 17.157684061730027 13.177252248125468 16.40835783259704 0 0 0
2104 1 20.59073536549374 13.063171482214175 16.500387943142485 0 0 0
2102 1 22.229827115575688 13.120137031483635 14.305331583904223 0 0 0
2392 2 23.98199201585191 13.135180436733922 16.461594583194437 0 0 0
2390 1 25.847695857578152 13.124864169984049 14.184182595044659 0 0 0
2680 1 27.467792414121046 13.140278464078627 16.55874622991385 0 0 0
1527 2 15.415269715674341 15.444650176030171 16.648077298489692 0 0 0
1561 1 13.682789707355909 15.384745681054001 14.330941186905015 0 0 0
1815 1 18.942058727457024 15.476328903765712 16.45753049283899 0 0 0
1849 1 17.069579514441735 15.474451598492493 14.286395316162876 0 0 0
2137 1 20.655977246924913 15.466304370804357 14.08350763345003 0 0 0
2103 1 22.122702558055796 15.272572666092982 16.39989977676509 0 0 0
2425 1 24.244887734141688 15.286667646125132 14.35850261344305 0 0 0
2391 1 25.899013888571925 15.327626572869283 16.580867160290943 0 0 0
2713 1 27.381235050352508 15.602000193342626 14.173575981099694 0 0 0
1564 1 13.743684488661767 17.661602824064417 16.472860426557553 0 0 0
1562 2 15.415655484910978 17.78201778065809 14.194089325856934 0 0 0
1563 1 15.298132148426898 19.99271177868871 16.458960890266894 0 0 0
1597 1 13.543216849652143 19.947807126173622 14.209358201782715 0 0 0
1850 1 18.777657742660633 17.70652588906892 14.214578453652361 0 0 0
1852 1 16.979819203872612 17.683242120323406 16.445323600747116 0 0 0
2749 1 27.181033164890252 20.02348302492591 14.379647590721062 0 0 0
2140 1 20.571409025941094 17.67936354629802 16.280924011980233 0 0 0
1851 1 18.834249255081307 19.823209344870115 16.574006963733197 0 0 0
2173 1 20.64676813442694 19.797334833620692 14.162245722685412 0 0 0
2138 1 22.582869726431085 17.759580954271065 14.215881380548291 0 0 0
2139 1 22.574316310262315 19.70729071317105 16.466306062259974 0 0 0
2428 2 24.044718662856045 17.433612190456554 16.628322525479994 0 0 0
2426 1 25.609296498550975 17.804097290930798 14.418437812102795 0 0 0
2716 1 27.60319463510461 17.817520996938573 16.504836902494855 0 0 0
2427 1 25.635671938467894 20.01121620946139 16.70332714038871 0 0 0
1885 1 17.055716901641944 20.129878891783946 14.267686827607148 0 0 0
2461 2 24.14785576051381 20.127316305229495 14.307178741995742 0 0 0
1458 1 15.344924835863054 4.010696888544086 18.751971585945057 0 0 0
1460 1 13.705676565177942 4.109922391671237 21.101341282310223 0 0 0
1746 1 18.878720469742017 3.7992962351093356 19.045104499308394 0 0 0
1748 1 17.16163019082256 4.107741702628015 21.117038410618758 0 0 0
2036 1 20.381167120061896 4.021515573395682 21.340616698133775 0 0 0
2034 1 22.24529265262196 3.9809988608441316 19.0118543641174 0 0 0
2324 1 23.969996973868984 3.9750523186219118 21.11365945834296 0 0 0
2322 1 25.59165424026068 4.139157334864925 18.870508673659387 0 0 0
1493 1 13.7454256432252 6.072836140279838 18.837262567367475 0 0 0
1459 1 15.463439182041053 6.203806345988303 21.005468253182013 0 0 0
1781 1 17.15079257055832 6.195127106349361 18.988825605940605 0 0 0
2069 1 20.619545703551807 6.284446069138486 19.089268403611523 0 0 0
2357 1 23.743256552778075 6.242961419247711 18.803107209883855 0 0 0
2645 2 27.34653620185955 6.4396380275522755 18.74013279874134 0 0 0
1496 1 13.852043416854997 8.608024022433078 21.23295100159912 0 0 0
1494 1 15.331403628357531 8.560976337953598 18.917480499624734 0 0 0
1529 1 13.896990764940107 10.962481732035549 18.911752356895054 0 0 0
1783 1 18.82211783695672 10.902905895341153 21.23022530925949 0 0 0
1784 1 17.265409419465218 8.442236764719215 21.286557290004286 0 0 0
1782 1 18.872398158389053 8.575839823524007 18.97797176489197 0 0 0
2105 1 20.749274089422396 10.844192056966989 18.712348996802852 0 0 0
2072 1 20.627127302645608 8.59853893558811 21.160047290179 0 0 0
2070 1 22.305623891000693 8.533960350990775 19.011149307530548 0 0 0
2360 1 23.972695388847313 8.601669647211729 21.108438684825778 0 0 0
2393 1 24.02539069041017 10.824781108938257 18.774489969502376 0 0 0
2358 1 25.442370685214264 8.59560048540477 18.677190532780717 0 0 0
2681 2 27.3513200084893 10.797429855566403 18.678975223369257 0 0 0
1530 1 15.685774141076664 13.159450478095913 18.691008290342843 0 0 0
1817 1 17.042250598983337 10.757300445732882 18.946275704946252 0 0 0
1818 1 18.773131683148005 13.079139381257448 18.799613332975774 0 0 0
2106 1 22.40331007591266 13.21810140593205 18.70154838977659 0 0 0
2396 1 23.94597607603338 13.077633685081102 21.06983871380133 0 0 0
2394 1 25.672955411697945 13.113885821429447 18.76269255974686 0 0 0
2684 1 27.368067955936446 13.102205063414619 20.98092102510622 0 0 0
1531 1 15.741288912210447 15.471361352741473 20.912530717519587 0 0 0
1565 1 13.740597392910892 15.355474756055262 18.920102200298242 0 0 0
1853 2 17.246804598763685 15.453021400403204 18.47520193608454 0 0 0
2141 1 20.45913350543372 15.289753477153777 18.745671653460278 0 0 0
2429 1 23.973676294159894 15.486289569394533 18.721353027652714 0 0 0
2717 1 27.60101608223877 15.393605717656209 18.893741911384605 0 0 0
1566 1 15.279718321131405 17.57407675149483 18.717139982517462 0 0 0
1567 1 15.392665188540036 19.88435738584299 21.096270836255044 0 0 0
1568 1 13.93375348811782 17.481168549316273 21.179661362972546 0 0 0
1601 1 13.678901353155084 19.929016280698562 18.77845217216833 0 0 0
1856 1 17.268647599480573 17.717500104332874 20.76148259612532 0 0 0
1854 1 18.99634987488534 17.676336338280706 18.732700237233527 0 0 0
1889 1 17.01941307526735 19.74986486208212 18.72657232548013 0 0 0
2142 1 22.09125151118936 17.65309746253743 18.683738693067365 0 0 0
2465 1 23.960962269999026 19.92951515464473 18.885196563593947 0 0 0
2720 1 27.262133405942343 17.701112259672797 21.116772248589648 0 0 0
2430 1 25.840159239805338 17.678737192980307 18.706351910328788 0 0 0
2753 1 27.437518794572313 20.104858082239776 18.779553325986775 0 0 0
1462 1 15.48093944086747 4.068384247750767 23.378721425323647 0 0 0
1750 1 18.748606898021983 3.9945582872826506 23.567543089431037 0 0 0
2038 1 22.332043149530126 3.97555656034113 23.40617054169538 0 0 0
2612 1 27.24856811006339 3.902779217072001 21.204653094231613 0 0 0
2326 1 25.52530822306084 3.9799713002609325 23.347549751523346 0 0 0
1497 1 13.86318296154716 6.16729939280507 23.527956918758278 0 0 0
1785 1 17.220461914079802 6.344653480894122 23.38376038826892 0 0 0
1747 1 18.910646971199654 6.373857943361691 21.225792078895612 0 0 0
2073 1 20.402557904664434 6.46706084600443 23.44274054255253 0 0 0
2035 2 22.277853348630646 6.39070298318368 21.32896650187017 0 0 0
2361 1 23.91537633713914 6.401320312348204 23.446505278059785 0 0 0
2323 1 25.60873541543359 6.334783880457714 21.110388451302377 0 0 0
2649 1 27.22633378204591 6.324651409965355 23.46437318165416 0 0 0
1495 1 15.402172011752267 10.881036687926462 21.1924245880285 0 0 0
1498 1 15.50680254675708 8.577504727186804 23.501725235777673 0 0 0
1533 1 13.802222172669453 10.79933404506465 23.544462865817735 0 0 0
1786 1 18.919106153618525 8.701450840704787 23.540838111478084 0 0 0
1821 1 17.046965552510425 10.885691025134761 23.368061879991963 0 0 0
2109 1 20.70998230829143 10.873844269310958 23.451137345570856 0 0 0
2071 1 22.24574825433271 10.967439256557666 20.92311655095882 0 0 0
2074 1 22.292953426363557 8.50581065884727 23.373065787729885 0 0 0
2397 1 23.857518777902385 10.870040131184313 23.05151930439368 0 0 0
2648 1 27.246320562095793 8.56527942412415 20.989539637396273 0 0 0
2359 1 25.70592083948839 11.090648113022178 20.967556160502156 0 0 0
2362 2 25.77425422136291 8.648954670463457 23.28144031785854 0 0 0
2685 1 27.33267408247133 10.9756216702347 23.304898383909492 0 0 0
1532 1 14.039689863522614 13.304994886880268 20.986309451385043 0 0 0
1534 1 15.343288974678277 13.107088528877727 23.37456935052757 0 0 0
1820 2 17.107209887694598 13.002086035682746 21.103100040786362 0 0 0
1822 1 18.97349970996235 13.02864224679818 23.28124562942488 0 0 0
2108 1 20.50532062020531 13.14216777240844 21.03891797336407 0 0 0
2110 1 22.30676598996427 13.138979924957171 23.45164407799587 0 0 0
2398 2 25.506590319351716 13.108969381955081 23.321879398441652 0 0 0
1569 1 13.880734425700293 15.557626547548328 23.246948907354284 0 0 0
1819 1 18.79804277375027 15.387576232620887 21.004866491511958 0 0 0
1857 1 17.161907447639674 15.104880859634008 23.26915749312034 0 0 0
2145 1 20.500146015614575 15.352995514170303 23.204746733982972 0 0 0
2107 1 22.339042556093922 15.501659071908584 20.98412929743912 0 0 0
2433 1 24.025684488811873 15.399405122644506 23.283464487849045 0 0 0
2395 1 25.707862397880906 15.339372989991617 21.055392031848207 0 0 0
2721 1 27.23789543855771 15.440419577813236 23.35411399327929 0 0 0
1570 1 15.697365067145856 17.78684748714732 23.36438813327626 0 0 0
1605 1 13.783004178102274 19.82232747735082 23.491891384117203 0 0 0
1858 1 18.82680343397813 17.612171900396596 23.274562232114665 0 0 0
1855 1 18.918041460670384 19.963949378195437 20.67392148231283 0 0 0
1893 2 17.39124554166011 20.01485760782885 23.09578161706186 0 0 0
2144 2 20.555945572394556 17.632677545645286 21.083050452206155 0 0 0
2181 1 20.39058990339208 20.10673441595232 23.18042840694269 0 0 0
2143 1 22.20198262683026 19.906288223054627 21.0158722633438 0 0 0
2146 1 22.272173019149665 17.70700111279882 23.122349844958936 0 0 0
2432 1 24.126251818876185 17.660091130379467 20.943517633076873 0 0 0
2469 1 23.661012843119508 19.898128807373933 23.235941214744127 0 0 0
2431 1 25.627225888733363 20.09911611509115 21.219239841101796 0 0 0
2434 1 25.598375080671 17.812625785089452 23.332152857388653 0 0 0
2757 1 27.40826572503706 19.995334848245232 23.454191171142586 0 0 0
2177 1 20.77980012728759 20.076907445232102 18.677439617879966 0 0 0
1464 1 13.738243001572485 4.057493602966677 25.61191222777364 0 0 0
1466 1 15.243613141578269 4.099872154100541 27.96030559283088 0 0 0
1752 1 17.09447427980395 4.087289884978204 25.76826198101926 0 0 0
1754 2 18.885624702287878 3.8899499809605884 28.0970043998949 0 0 0
2040 1 20.606752458000866 4.054125977214207 25.649087493398575 0 0 0
2042 1 22.41468193114994 4.019974194123229 27.964346650331372 0 0 0
2328 1 24.00187231430528 3.9650807652321056 25.667706045217216 0 0 0
2330 1 25.739570551891422 4.243296040195762 27.908115357819934 0 0 0
2616 1 27.227733102545177 4.103100885910169 25.576668553602783 0 0 0
1463 1 15.490710274586114 6.307564949402102 25.712389987050184 0 0 0
1501 1 13.448688029789125 6.348844223530138 27.935788949646074 0 0 0
1751 1 18.976202221329086 6.289311206222335 25.757153439056754 0 0 0
1789 1 17.34410760357825 6.189040164722549 28.02728308181994 0 0 0
2077 1 20.516931390427597 6.229453844308891 28.09421790474719 0 0 0
2039 1 22.239549127232088 6.210741401431218 25.735113111194995 0 0 0
2365 1 24.006819493847697 6.274002912119361 27.829028577109984 0 0 0
2327 1 25.54391474186644 6.3453345818945515 25.66060358202945 0 0 0
2653 1 27.45915569453754 6.457541814015841 27.673774351335414 0 0 0
1500 1 13.690410617606219 8.509084857228242 25.690858634799806 0 0 0
1502 1 15.44486777285524 8.512160632656794 27.965593724050162 0 0 0
1499 1 15.533014428625584 10.77760347225213 25.622427854660224 0 0 0
1537 1 13.992555159963782 10.886568199897118 27.891207245127443 0 0 0
1788 1 17.266805922212196 8.506830241677108 25.70547064398669 0 0 0
1790 1 18.944189943782376 8.51428903676964 28.019947129262636 0 0 0
1825 1 17.240975690226858 10.751633475998977 27.812994938487154 0 0 0
2076 1 20.689623016587202 8.581290471709647 25.601437519631183 0 0 0
1787 1 18.7592731216451 10.802360361679193 25.629415129145404 0 0 0
2113 1 20.785713232510627 10.740658737225013 27.718603332185957 0 0 0
2364 1 23.804232984072947 8.482882571170048 25.616466755569736 0 0 0
2078 1 22.299263425987814 8.351686392297836 27.992455311055707 0 0 0
2075 2 22.48392473751515 10.796492566717959 25.416548627582525 0 0 0
2401 1 23.80708796843355 10.807557883902025 27.73878760304138 0 0 0
2652 1 27.170872668628625 8.696418340323902 25.71404419474768 0 0 0
2366 1 25.734097750685656 8.60988959138858 27.849611635524706 0 0 0
2363 1 25.4058082870712 10.858938533154419 25.359707401251512 0 0 0
1536 2 13.841957600960114 12.998775234210711 25.754688428152438 0 0 0
1538 1 15.652054848506062 13.250115618342935 27.777504327313732 0 0 0
1824 1 17.20547400923547 13.030773262645033 25.50402602254555 0 0 0
1826 1 19.03888616335279 13.0768078070155 27.8086083273143 0 0 0
2112 1 20.567905309297778 12.947115862279073 25.534043746915934 0 0 0
2114 1 22.141759415227984 13.12311027563493 27.887536996569402 0 0 0
2400 1 23.944648012216994 13.286312253623176 25.6955784312067 0 0 0
2689 1 27.313271918737733 10.99326526024697 27.783935274423413 0 0 0
2688 1 27.11151329246331 13.121060136231602 25.456657753857264 0 0 0
2402 1 25.656177023618596 13.051142002665836 27.8233817802218 0 0 0
1535 1 15.384115508719553 15.234755116082821 25.546989099455253 0 0 0
1573 1 13.849046534456896 15.395737916470363 27.912137884264713 0 0 0
1823 1 18.973361412258676 15.24583958138066 25.386669746550297 0 0 0
1861 1 17.32356559489181 15.32726616433834 27.745631333944257 0 0 0
1860 2 17.1431819648318 17.357119231249783 25.64922759717457 0 0 0
2149 2 20.52497975753283 15.323189490635984 27.673516026674474 0 0 0
2111 1 22.236313396072656 15.359887363811819 25.516264467423408 0 0 0
2437 1 23.865436683374543 15.407730287957705 27.803266702858775 0 0 0
2399 1 25.502006676244193 15.467569299716619 25.61212971532838 0 0 0
2725 1 27.12686234464362 15.559582592003304 27.898106546598253 0 0 0
1572 1 14.116729034095211 17.763232415108234 25.565765262009936 0 0 0
1571 1 15.704702312470825 19.933048497229564 25.506602379964193 0 0 0
1574 1 15.710689194209031 17.698025336995894 27.843241298057627 0 0 0
1609 1 14.013143567075709 20.07349573845615 27.805627443380974 0 0 0
1859 1 18.7858962609826 19.69804160733818 25.499055764858788 0 0 0
1862 1 18.854871255705817 17.55094703605831 27.842758135275655 0 0 0
1897 2 17.354363416350594 19.998073772764066 27.86637642214107 0 0 0
2185 1 20.485140310753348 19.999179603268132 27.735410295867688 0 0 0
2148 1 20.596308007808496 17.567197261007184 25.39523140095595 0 0 0
2436 1 23.874261380395634 17.732459499543744 25.60495736043141 0 0 0
2473 1 23.73499539924549 19.91834171266112 27.610149592223287 0 0 0
2147 1 22.049270492275795 19.987891768026124 25.425113120374302 0 0 0
2150 1 22.12775028918949 17.52091392782245 27.695082427883786 0 0 0
2724 1 27.215008730011032 17.740170679030772 25.892893691040854 0 0 0
2435 1 25.591710548699766 20.03750975611512 25.466835046901714 0 0 0
2438 2 25.493441218172407 17.749601130699073 27.959611633596836 0 0 0
2761 1 27.000188828454498 20.064184967157914 28.02458520851321 0 0 0
1468 1 13.323332076022975 4.09155505521414 30.17602276874097 0 0 0
1470 1 15.326794759684894 3.9006115076981116 32.43307171145125 0 0 0
1756 1 16.999781406169205 4.017620496662214 30.17706630188023 0 0 0
1758 2 18.867159400837387 4.066522483920875 32.30549011185378 0 0 0
2044 1 20.73244052790438 3.9077812559171035 30.192456685429544 0 0 0
2046 1 22.338852150492528 4.0606315119623835 32.28420121424367 0 0 0
2332 2 24.156111132353644 4.0890594107664 30.219194794604782 0 0 0
2334 1 25.657474986583747 4.16758732786354 32.48357354803143 0 0 0
2620 1 27.39722731452921 4.007963669525424 30.303753210185626 0 0 0
1467 2 15.244789139490422 6.1015579129047675 30.06645216843337 0 0 0
1505 1 13.617632560054133 6.298748858975897 32.686308368657535 0 0 0
1755 1 18.8363149963404 6.135564697429027 30.23105883994681 0 0 0
1793 1 17.014639173377603 6.177464018535032 32.3069792305666 0 0 0
2081 1 20.670167619914224 6.186701991427759 32.377591273035335 0 0 0
2043 1 22.36674149786346 6.216864458149063 30.11704611558654 0 0 0
2369 1 24.02562181363574 6.409448647190161 32.424417635422614 0 0 0
2331 1 25.708037224923796 6.422447844691634 30.042866751585663 0 0 0
2657 2 27.42397704267397 6.334714258768239 32.37523317472669 0 0 0
1504 1 13.672769902789383 8.553546511311726 30.251432479585322 0 0 0
1506 1 15.30211392550962 8.537880222272463 32.509148480204615 0 0 0
1503 1 15.542629350543518 10.62696508785747 30.210855071711457 0 0 0
1541 1 13.70358652830263 11.022707895664954 32.46042063140674 0 0 0
1792 1 17.077891746686312 8.389130733688614 30.345656147380264 0 0 0
1794 2 18.93485922601689 8.3198511521469 32.327494749197655 0 0 0
1791 1 19.002229683384954 10.769793671220658 30.068585404520636 0 0 0
1829 1 17.323813342887973 10.523991976159387 32.28620931910366 0 0 0
2080 1 20.616404194869006 8.52621613893304 30.18065852046945 0 0 0
2117 1 20.57804881468147 10.790545875655532 32.26437953202776 0 0 0
2368 1 23.852778071159282 8.495057695381067 30.22561902120797 0 0 0
2082 1 22.154989798774128 8.463650832003301 32.33100917911291 0 0 0
2079 1 22.25148730104222 10.888554377023961 30.074059566837278 0 0 0
2656 1 27.50698018764876 8.69159431815018 30.010438284202614 0 0 0
2370 1 25.77923068447345 8.67844323752582 32.385245012417116 0 0 0
2367 1 25.550716960897592 10.842288406952015 30.081667782752085 0 0 0
2693 1 27.407234651725116 11.097860500004083 32.396671252810904 0 0 0
1540 1 14.08679099942718 13.127600473343723 30.23528416960359 0 0 0
1542 2 15.83591674851013 12.868626662157121 32.48119625948137 0 0 0
1828 1 17.25108430531124 13.00014100451764 30.07253695042126 0 0 0
1830 1 18.688963648223005 13.017560565786576 32.344149887273886 0 0 0
2116 2 20.528464622964805 12.94573991839178 30.451644824330597 0 0 0
2405 2 23.936543490440414 10.738467814862682 32.33137430325722 0 0 0
2404 1 23.82761027263662 13.173953670483144 30.052478172635823 0 0 0
2118 1 22.40274493407843 12.968807177621517 32.54314927904463 0 0 0
2406 1 25.501849797304462 13.155303963162801 32.40717486059042 0 0 0
2692 2 27.275898638080974 13.139280270529989 30.25484256730375 0 0 0
1539 1 15.75903783482753 15.209769539412335 30.154884838783243 0 0 0
1577 1 13.92703116325891 15.304713094931524 32.37697840548018 0 0 0
1865 1 17.290126904524474 15.293172002873458 32.46860032104583 0 0 0
1827 1 18.961479208764892 15.258676572229358 30.199822104322493 0 0 0
2153 1 20.648473694300066 15.1113400746015 32.32641711511928 0 0 0
2115 1 22.20613420642728 15.240095856490171 30.107093421858202 0 0 0
2441 2 23.754310066689094 15.403764255639615 32.42139722199927 0 0 0
2403 1 25.489653877042034 15.382769857786718 30.075962298046566 0 0 0
2729 1 27.06244712639729 15.359705790032194 32.285343610334905 0 0 0
1613 2 14.01478673987054 19.937645369878723 32.32874170733648 0 0 0
1576 1 13.975864267534298 17.460402054048203 30.268780162860768 0 0 0
1575 1 15.659221376665247 19.83010882057337 30.125429365088703 0 0 0
1578 1 15.67105693564763 17.45878620894443 32.47238190170508 0 0 0
1864 1 17.40344360440087 17.51778802303295 30.29764043202759 0 0 0
1863 1 18.980022589549904 19.82293968200647 30.135256161159962 0 0 0
1901 1 17.278057951932634 19.865569097208798 32.355221549041985 0 0 0
1866 2 19.057657069159063 17.59691032059385 32.44459521888671 0 0 0
2152 1 20.47251171184639 17.488279808777627 29.94443188225599 0 0 0
2189 1 20.48450054534837 19.937350117551315 32.39339105459423 0 0 0
2440 1 23.609362871279505 17.58667372123983 30.17171269942224 0 0 0
2151 1 22.077558611830586 19.91497574132488 30.004985322980072 0 0 0
2154 1 21.925905572696703 17.590231301574654 32.351510988337914 0 0 0
2477 1 23.75406628487107 19.961174149820977 32.35291662798612 0 0 0
2442 1 25.392470966002794 17.70730176948271 32.53021269204109 0 0 0
2439 1 25.310950751572545 19.934078321413693 30.15990863813241 0 0 0
2728 1 27.076811176628794 17.719390742978554 30.261770698211365 0 0 0
2765 1 26.996850122774237 20.047008748934537 32.40740553419537 0 0 0
1472 1 13.491867963995709 3.9599858384022317 34.64897694728971 0 0 0
1474 1 15.320756350722114 4.028613039933446 37.03234939494378 0 0 0
1760 1 17.101922517004994 3.9863668693201166 34.55601586292855 0 0 0
1762 1 18.852545363320928 3.9800538215875303 36.786783166461404 0 0 0
2048 1 20.525363533677183 4.127556940142499 34.59236619253382 0 0 0
2050 1 22.538600237360825 3.9582022022548617 36.83177418008387 0 0 0
2336 1 24.061035515844758 4.107540186299138 34.5685852132643 0 0 0
2338 2 25.710778600805444 4.199811425738968 36.9058130950406 0 0 0
2624 1 27.450095851969706 4.0403157379585135 34.622573232612226 0 0 0
1471 1 15.445092205105134 6.20144844417762 34.695886973051586 0 0 0
1509 1 13.640089256970725 6.403860965012811 36.97012900481012 0 0 0
1759 1 18.837993764368136 6.294466398015321 34.498375383097965 0 0 0
1797 1 17.11793953694081 6.22896949821521 36.92872164012853 0 0 0
2085 1 20.472188750291892 6.086687532331906 36.97525976291789 0 0 0
2047 1 22.165840667261843 6.249887325809078 34.67692053268276 0 0 0
2373 1 23.90479729524915 6.274249706526491 36.96525019936173 0 0 0
2335 1 25.778802316247166 6.4117592445345215 34.63689673516008 0 0 0
2661 1 27.44110119511245 6.311805152491541 36.95372383165693 0 0 0
1508 1 13.651024351159489 8.506786705367379 34.823957933214345 0 0 0
1510 1 15.502454817201421 8.485426001786752 36.9996215293821 0 0 0
1507 1 15.589202112692092 10.735975396127202 34.63473389604522 0 0 0
1545 1 13.832689627040434 10.845661297555626 36.98965028151265 0 0 0
1796 1 17.23690936580107 8.430279208446397 34.594067649196106 0 0 0
1798 1 18.7780144347899 8.561128023312843 36.94287957040979 0 0 0
1795 1 18.802679720524218 10.665385292320563 34.7752607365736 0 0 0
1833 1 16.988339506400063 10.777739020698508 37.05109630710146 0 0 0
2121 1 20.592319159710108 10.674230046551486 37.02691034228104 0 0 0
2084 1 20.476726038196972 8.55317388888761 34.66152584900328 0 0 0
2086 2 22.127338623188056 8.429135510794257 36.91476637423753 0 0 0
2372 1 23.888873401961828 8.506289667417928 34.70074440913879 0 0 0
2083 1 22.234678210471813 10.630477755772194 34.603897517417934 0 0 0
2409 1 23.90577562356593 10.703835260581164 36.94440368084177 0 0 0
2660 1 27.316493310006145 8.828816371941473 34.73808332831173 0 0 0
2374 1 25.61145894199676 8.576816809083308 36.99567100944019 0 0 0
2371 1 25.568491390246788 10.862410126433575 34.63756556880415 0 0 0
2697 1 27.34041215455911 10.881129636160855 36.85583736563194 0 0 0
1544 1 14.06943298503693 13.148155133716534 34.559496039563186 0 0 0
1546 1 15.250201576371133 13.139018323981583 36.963491129952885 0 0 0
1832 1 17.285273236441487 13.002663018383364 34.87906044894916 0 0 0
1834 1 18.99191855031507 12.891913632155772 37.053235863874136 0 0 0
2120 1 20.53072321627079 13.077922707136205 34.615467639052454 0 0 0
2122 1 22.03777771642009 12.842496897561373 36.97178951352028 0 0 0
2408 1 23.870961571130813 13.14846117269154 34.836091228117056 0 0 0
2410 1 25.605521162727637 13.069684751630565 36.947399987970385 0 0 0
2696 1 27.20029451881764 13.240198283202576 34.69915306128925 0 0 0
1543 1 15.70959484206221 15.42190221735128 34.831008553244274 0 0 0
1581 1 13.902452729162867 15.408925342798877 36.97866947641815 0 0 0
1831 1 18.981615408866112 15.318805618428838 34.70832374437096 0 0 0
1869 1 17.323888983600128 15.315830602367232 37.01852485832853 0 0 0
2157 1 20.66763336136352 15.192507324960898 37.06575419467022 0 0 0
2119 1 22.137308770876245 15.269138314094107 34.644832885178204 0 0 0
2445 1 23.799611990124312 15.170575206423033 37.1065747683859 0 0 0
2407 1 25.34161573429081 15.464984548996332 34.69314216594856 0 0 0
2733 1 27.308900387041643 15.377683035952188 36.8925380887503 0 0 0
1580 1 13.977434394748595 17.478026905858727 34.76068035083851 0 0 0
1579 1 15.615124936370052 19.882935947788972 34.70255164720268 0 0 0
1582 2 15.645645446473267 17.5069835471623 36.98632755018565 0 0 0
1617 1 14.112245330766754 19.823148479570744 36.8498779670269 0 0 0
1868 1 17.413204258422173 17.789742804655113 34.67789972558411 0 0 0
1867 1 18.939012223600756 20.000520620329358 34.65058410137752 0 0 0
1870 1 18.84476512103852 17.644914917568144 37.17909202004493 0 0 0
1905 1 17.13574763664809 19.824191951463927 36.98081451680069 0 0 0
2193 1 20.556736431394235 19.894775921512203 36.97839286354184 0 0 0
2156 1 20.533917596844717 17.745014046316996 34.91072060067509 0 0 0
2481 1 23.875387276386906 19.9082303148574 36.859654503360474 0 0 0
2444 1 23.749440565260066 17.56843126994896 34.63810780579915 0 0 0
2155 1 22.101820524972133 19.96862883401422 34.643957556437016 0 0 0
2158 1 22.30308900206648 17.630190388619702 37.082670693562974 0 0 0
2769 1 27.094980691101178 19.82321821585647 36.917270966930175 0 0 0
2732 1 27.09822819149078 17.656201694222432 34.71216022434544 0 0 0
2443 1 25.482642636174823 19.91684193285817 34.73148045847876 0 0 0
2446 2 25.377121193671563 17.569837706567128 36.91754277334435 0 0 0
1476 1 13.672152197990279 4.138973095961285 39.26480297472082 0 0 0
1764 1 17.062066719011952 4.072278513651731 39.17866105122789 0 0 0
2052 2 20.623526420239298 3.769731072672797 39.06140099421886 0 0 0
2340 1 24.015344491351048 4.129363513089865 39.15617027647703 0 0 0
2628 1 27.473614633544834 4.0392434244589515 39.25865502780546 0 0 0
2306 1 25.8435942310691 3.9493165373084844 41.28143565141933 0 0 -1
1475 2 15.302920583115728 6.3096677639996805 39.15684693944388 0 0 0
1763 1 19.007836502630838 6.062377529511686 39.280483058513866 0 0 0
2629 1 27.44214507619836 6.370768640789915 41.24759823737051 0 0 -1
2051 1 22.110411651782034 6.098057439449903 39.24468566014646 0 0 0
2339 1 25.787645496727748 6.289848001356338 39.0954631951398 0 0 0
2448 1 23.840512579993224 17.522822004121444 39.28100059111284 0 0 0
1512 1 13.779896873426939 8.602515556689577 39.28654343154352 0 0 0
1511 1 15.461346279409373 10.730201876284962 39.216147935371026 0 0 0
1800 1 17.24287243815984 8.384300676874485 39.18026682633524 0 0 0
1799 1 18.7997496567512 10.742363860438028 39.23052835469653 0 0 0
2159 2 22.22973819063128 19.8218959828496 39.24218599048132 0 0 0
2088 1 20.512117657637177 8.376706498800496 39.288021932999925 0 0 0
2342 1 25.79002723542027 8.382815076116835 41.33665586481402 0 0 -1
2376 1 23.851283229135216 8.453935045660055 39.16792968723516 0 0 0
2087 1 22.313732179662356 10.736115105019744 39.20716329386984 0 0 0
1478 1 15.57057677897621 8.530026521528828 41.4029828292673 0 0 -1
2664 2 27.489429561932216 8.469299335257908 39.183981477120824 0 0 0
2375 1 25.657546902144226 10.610691555011043 39.11361107337217 0 0 0
2160 1 20.715578941824162 17.503878873300863 39.27241172463188 0 0 0
1548 1 13.802452869896594 13.064624043319588 39.242694318384395 0 0 0
1836 1 17.14273303524455 13.064633173173164 39.098304291396545 0 0 0
2736 1 27.058778368197718 17.52009306952992 39.15386188125211 0 0 0
2124 1 20.523020090014032 13.01123655879386 39.334710918729414 0 0 0
2412 2 23.861247278579327 12.872318548366094 39.1744366026343 0 0 0
1871 1 18.95244628895105 19.694565767018567 39.30070317564662 0 0 0
2700 1 27.252681114283384 13.020592175204495 39.248321991186415 0 0 0
1872 1 17.075479405800753 17.477794200181922 39.338799776695126 0 0 0
1547 2 15.486979761852215 15.224190955559113 39.2611902762269 0 0 0
1835 1 18.844344701607106 15.318291189566965 39.242943131977086 0 0 0
2665 2 27.32955558850425 10.911570304814052 41.271463604088424 0 0 -1
2123 1 22.160452765532924 15.188224699229373 39.318206257843954 0 0 0
2411 1 25.46171143044066 15.088127865262692 39.15281096224584 0 0 0
1583 1 15.700498335337326 19.8216311050547 39.34206780489373 0 0 0
2447 1 25.384218856068603 19.72701127941057 39.30652872450301 0 0 0
1584 1 13.912244824682716 17.624204394049645 39.19206074495983 0 0 0
1765 1 16.925002570191694 6.172832795562897 41.44215644078375 0 0 -1
2018 1 22.1345332025781 4.044376200876815 41.33448080651675 0 0 -1
1730 1 19.009749631036687 3.9457733526498076 41.33770339431776 0 0 -1
2341 1 23.984595349747735 6.20874630101603 41.2916031547562 0 0 -1
2161 1 20.617678661011034 19.85737141284725 41.43808906582348 0 0 -1
1585 2 13.886328249577858 19.88064824790129 41.30558235637095 0 0 -1
1477 1 13.707792352387148 6.262277694327015 41.44358522350052 0 0 -1
2089 2 20.512158862813557 10.74226710444772 41.41191756312703 0 0 -1
1588 1 13.693078601242625 22.16704893858915 2.9383171374557433 0 0 0
1876 1 17.3286777016933 22.14610555050688 2.9858526217685295 0 0 0
2164 1 20.534401152517926 22.101647585206674 3.182417850427403 0 0 0
2452 1 23.914438087121 22.368548668525502 3.1951499323759207 0 0 0
2740 1 27.25885360759072 22.22091733700602 2.887934909153319 0 0 0
1587 2 15.604218081683708 24.363578689199002 2.7965011677992737 0 0 0
1694 1 15.474741371611831 35.835094672188696 0.7212184117369229 0 0 0
1875 1 18.828058868087766 24.458826490303185 3.077664452357299 0 0 0
2163 1 22.1857180236973 24.459047928641038 3.0119857364802 0 0 0
2451 1 25.556711079571432 24.45647121421132 3.068034831631532 0 0 0
2522 1 25.750407318710888 31.34993834493357 0.7421381508005798 0 0 0
1624 1 13.946071157322518 26.669512605875155 3.0557859948918624 0 0 0
1623 1 15.592489092813178 28.912570065062933 2.916162446564079 0 0 0
2521 1 23.909193347321725 29.091393619172216 0.7721906775403171 0 0 0
1912 1 17.128546520625893 26.521739128676725 3.0021503854930103 0 0 0
1911 2 18.786642092052194 28.822619783307307 2.854713307655736 0 0 0
2200 1 20.34842241396571 26.577534151525832 2.9199102223207163 0 0 0
2845 2 27.397733458005586 33.66354844195837 0.827018346227385 0 0 0
2198 2 22.266050934498793 26.62428672556235 0.7134611062275967 0 0 0
2488 1 23.838976279362534 26.642466760113404 2.9976868163946744 0 0 0
2199 1 22.009564239294654 28.84472260620623 2.873981577500879 0 0 0
2562 1 25.58623193695631 35.64113480319471 5.1816044541232875 0 0 0
2776 1 27.300025671605656 26.726301790000967 2.867073954042902 0 0 0
2487 1 25.603129780555292 29.02334538518624 2.8722888711413224 0 0 0
1586 1 15.67182953258376 22.163052892513072 0.797051526237252 0 0 0
1660 2 13.883717908460586 31.03368339069676 2.8419001312546666 0 0 0
1948 1 17.330954683723988 31.311853245971697 2.9599032506098224 0 0 0
2236 1 20.33351578180813 31.11469887392015 2.8236062687755306 0 0 0
2564 1 23.80481732831003 35.76366564974204 7.46917076942271 0 0 0
2524 1 23.753044324141307 31.315302978282705 2.819997012184534 0 0 0
2852 1 27.055459422150083 35.805725027942195 7.579901658729316 0 0 0
2812 2 27.091750243649457 31.34237754879138 3.1593205811686738 0 0 0
2021 1 20.508640931335307 38.32680712581288 5.392364790989493 0 -1 0
1659 1 15.27093159026564 33.58941259701169 2.90311513710427 0 0 0
1947 1 18.933698463268428 33.57617921987763 2.9393496677437017 0 0 0
1733 1 17.138361096473627 38.17073802667831 5.1985225502785815 0 -1 0
2235 1 22.185114562981262 33.545698159774744 2.757919520505978 0 0 0
2523 1 25.40411562913935 33.53615521865556 2.890145964671074 0 0 0
2597 1 27.15431632681471 38.04564778987196 5.331118686793094 0 -1 0
1696 1 13.617772275030234 35.814516076697274 2.981913221867929 0 0 0
1695 1 15.590820774008197 38.05633104028063 2.789520337969662 0 0 0
1984 1 17.214029846177212 35.6814359523833 2.9548224806194927 0 0 0
1983 2 18.924687344799853 38.077352019166966 2.943159705078134 0 0 0
2276 1 20.32030710934114 35.973720325160755 7.435955774824028 0 0 0
2563 1 25.59279136567712 38.2879449562708 7.60728948012015 0 0 0
2272 1 20.637642253137958 35.74211519751486 2.7984064676653615 0 0 0
2275 1 22.39127462307826 38.120462903911076 7.4451525895558275 0 0 0
2560 1 23.928073761396515 35.90937425203011 2.9787444242097427 0 0 0
2271 1 22.07508082374829 38.05134888609223 2.97146152373755 0 0 0
2274 2 22.179949026993977 36.00931398596172 5.232083339925727 0 0 0
2309 1 24.0550309809597 38.02747484980355 5.260079767769491 0 -1 0
2848 1 27.373297781761163 35.703782249554635 2.869159836807515 0 0 0
2559 1 25.600074831543125 38.01687813471127 3.116299882868468 0 0 0
1590 1 15.529928393987511 22.213556767543754 5.240022144982817 0 0 0
1592 1 13.712871176475758 22.29659996710148 7.443829388738449 0 0 0
1878 1 18.870527116451026 22.102988213416573 5.318178302132078 0 0 0
1880 1 17.20867997382419 22.093849830421195 7.466364582856253 0 0 0
2168 1 20.520018277789358 22.298341800795555 7.67351961697732 0 0 0
2166 1 22.24735746643685 22.12286403296528 5.380115342087539 0 0 0
2456 1 23.90341547834194 22.047513050023476 7.643634053249619 0 0 0
2454 1 25.59655624261795 22.231705472871244 5.182943316677235 0 0 0
2744 1 27.244493416224174 22.136362542815473 7.414629942813726 0 0 0
1591 1 15.459653321836559 24.367560331367855 7.518551620948908 0 0 0
1625 1 14.019711495312421 24.43764946315114 5.158039888623377 0 0 0
1879 1 18.807736916079254 24.29433651942554 7.351910973768385 0 0 0
1913 1 17.1342574830503 24.407280766370636 5.175246798213384 0 0 0
2201 1 20.63127930913571 24.39942887042295 5.30561186494888 0 0 0
2167 1 22.234171629043285 24.322745228384647 7.69541532070347 0 0 0
2489 1 23.81220549973586 24.441638393974443 5.297031572506949 0 0 0
2455 1 25.49829843392474 24.438108469105167 7.483636995300626 0 0 0
2777 1 27.195349496228676 24.573960740646246 5.11106250783557 0 0 0
1628 1 13.797359972184442 26.66425900087659 7.482956608841233 0 0 0
1626 2 15.579108739005736 26.78370722934313 5.26318602703433 0 0 0
1627 1 15.34785302275819 28.848323172297455 7.3904178589769165 0 0 0
1661 1 13.983603274889333 29.081682589440803 4.965568652632643 0 0 0
1916 1 17.098579461003993 26.54975874547606 7.533839647852407 0 0 0
1914 1 18.79522206806658 26.684610772185167 5.259657560010144 0 0 0
1949 1 17.243160750529547 29.130700896224017 5.155247339409067 0 0 0
2204 1 20.522912342830683 26.625655326554032 7.422433580499769 0 0 0
1915 1 18.918194333321996 29.01724638932154 7.294287094276989 0 0 0
2237 1 20.50131103541055 28.90350665987133 5.210023651351458 0 0 0
2492 1 23.906765700183282 26.746155567884696 7.69279970220276 0 0 0
2202 2 22.153843556816938 26.727900010306143 5.224497682772032 0 0 0
2203 1 22.158254359066206 28.906396780038957 7.498537187322885 0 0 0
2525 1 23.78423496881197 29.082575894491608 5.044081357750417 0 0 0
2780 1 27.21536710104302 26.88070569507372 7.488205360161207 0 0 0
2490 1 25.47387601751822 26.793736489932492 5.220707680471746 0 0 0
2491 1 25.393951596306277 29.17396835114481 7.418087760931608 0 0 0
2813 1 27.039439291137576 29.16803479948268 5.205200823077204 0 0 0
1662 1 15.512171273778382 31.42527580153772 5.176692274399071 0 0 0
1664 1 13.874368482923824 31.34450253673453 7.463805980456472 0 0 0
1950 1 18.987073420548462 31.40839497057307 5.373728373407802 0 0 0
1952 1 17.085702033460063 31.23849746372828 7.560460617747036 0 0 0
2240 1 20.716494948899946 31.29522576481005 7.529415039242097 0 0 0
2238 1 22.069009391714438 31.377460677747397 5.184720876511063 0 0 0
2528 2 23.62070338612567 31.317492576651226 7.551319143283145 0 0 0
2526 1 25.21561405710961 31.367175875909574 5.3643060543623875 0 0 0
2816 1 27.110976880438407 31.572606725180204 7.618661755260819 0 0 0
1697 2 13.81301206266182 33.65210454620057 5.298455697788991 0 0 0
1663 1 15.754444527399066 33.43851780970135 7.323477537547943 0 0 0
1985 1 17.205982029469244 33.7126214919208 5.0323539017740355 0 0 0
1951 2 18.95336941704309 33.58532961011568 7.585457740499675 0 0 0
2273 1 20.563956565099883 33.77862093333319 5.147165292100056 0 0 0
2561 1 23.562917404749633 33.62791227998193 5.192682560725187 0 0 0
2239 1 22.051137345144486 33.69488467411094 7.652668062555645 0 0 0
2527 1 25.309439724443116 33.54728513274735 7.426148281087554 0 0 0
2849 1 27.282781051283994 33.3988774787873 5.200831061546957 0 0 0
1700 1 13.8439948266113 35.691743320513204 7.36453653254056 0 0 0
1699 2 15.497094417302023 38.1299647793284 7.375401607227028 0 0 0
1698 1 15.584296707160565 35.89046416750928 5.30329131761714 0 0 0
1445 1 13.951602695466942 38.115423849020274 5.04404150410573 0 -1 0
1987 1 18.674126406229437 38.17793972097977 7.438967963952339 0 0 0
1986 1 18.87234195961698 35.99064382812075 5.1283334388687924 0 0 0
1988 1 17.311127544253296 35.832763931333446 7.3895024003206125 0 0 0
2450 2 25.543194167956695 22.151810057027323 0.7999099040891952 0 0 0
1441 2 13.59096262330604 37.955540212338796 0.7815733446479929 0 -1 0
2558 1 25.47445821284514 35.678387204834216 0.7133436335318251 0 0 0
2197 1 20.445511090112717 24.54920695378898 0.8010720850998669 0 0 0
1874 1 19.04956478318467 22.14223254707678 0.7297619313040623 0 0 0
2305 1 23.92608475239983 38.13044516501537 0.9371228876797858 0 -1 0
1657 1 13.771123628124755 28.949343651552375 0.8260599806729197 0 0 0
1621 1 13.752909050291525 24.324205001392844 0.874430556032007 0 0 0
1658 1 15.526622060036573 31.361327549047672 0.7265264746236397 0 0 0
1622 1 15.475871467138141 26.649726791772867 0.7436127882803163 0 0 0
2162 1 22.08914063819743 22.23354910453026 0.7491656238055384 0 0 0
1594 2 15.536968104622602 22.200011376957377 9.697770186649732 0 0 0
1596 1 13.513563928932342 22.161590290599577 11.991380430887824 0 0 0
1882 1 18.8036876366396 21.970697801976186 9.762149683903424 0 0 0
1884 1 17.250135623396012 22.203927743445004 12.081414580701754 0 0 0
2172 2 20.426417976533596 21.84928159607455 12.056162672456301 0 0 0
2170 1 22.194155599206074 22.047063590956007 9.903974413766987 0 0 0
2460 1 24.10367935207419 22.262628154895307 12.20357318419397 0 0 0
2458 2 25.756144340030392 22.136552364602643 9.718713485216057 0 0 0
2748 1 27.39778543122418 22.23312213363837 11.889602524338368 0 0 0
1595 1 15.562612007603935 24.502465526968766 11.95802086250639 0 0 0
1629 1 13.691176647168124 24.38394872666383 9.748792591475675 0 0 0
1917 1 17.290276759390302 24.40436302834728 9.89185958654513 0 0 0
1883 1 18.921641987335722 24.409640884238378 12.135361123039072 0 0 0
2205 2 20.419531298673945 24.388509460446635 9.726873258118179 0 0 0
2171 1 21.826050565637424 24.191683971462933 11.99016086063489 0 0 0
2493 1 24.051854638136074 24.302691841232406 9.914607410717393 0 0 0
2459 1 25.60653705133 24.6409196216818 12.187672862178335 0 0 0
2781 1 27.07015860712672 24.540924169855636 9.835641147545697 0 0 0
1632 1 13.844204689516136 26.879258439422532 11.974913299028303 0 0 0
1630 1 15.495530992490782 26.67739083100347 9.789285661574556 0 0 0
1631 1 15.508573406250207 29.180357093896127 11.792980574824277 0 0 0
1665 1 13.704656891365126 29.029967328018554 9.745596171256894 0 0 0
1920 1 17.062022067866103 26.83732951449658 12.071006174036055 0 0 0
1918 1 18.90222687065201 26.69826496526118 9.799282128332942 0 0 0
1919 1 18.900646553555124 29.151058576010865 11.973169944759755 0 0 0
1953 1 17.16609761287094 28.949662808530658 9.616581321275198 0 0 0
2208 1 20.555372828316134 26.7686240610268 12.107660245141327 0 0 0
2241 1 20.553495623037648 28.90768409417181 9.70862720616213 0 0 0
2496 1 23.756217719637288 26.762144196140653 12.02028858941688 0 0 0
2206 1 22.06861102475613 26.626759647919442 9.847855689246302 0 0 0
2207 2 22.112537669288784 29.085555090400703 11.928318721115783 0 0 0
2529 1 23.867003922865504 28.890396052460108 9.738225769986405 0 0 0
2784 1 27.43645688920662 26.764331792973163 12.177680206063902 0 0 0
2494 1 25.660977598512225 26.85715327418253 9.764157612917737 0 0 0
2495 1 25.391304540212445 29.038326509839923 12.07805340266565 0 0 0
2817 1 27.10721831833684 29.097062623523644 9.770663899376284 0 0 0
1666 2 15.563379028550255 31.265318956529033 9.829939047767482 0 0 0
1668 1 13.696553919787995 31.450014447498145 11.978032766670893 0 0 0
1954 1 18.697478447010333 31.31964995594775 9.701943560882228 0 0 0
1956 1 17.152408177874317 31.434124438130215 11.97839009860996 0 0 0
2244 1 20.429914951385065 31.450765070898605 12.07884150298381 0 0 0
2532 1 23.737947584715524 31.331862795047797 12.139940504842347 0 0 0
2242 1 22.069032867847184 31.20384122227096 9.89461991570083 0 0 0
2530 1 25.390794126153107 31.32709199822736 9.709634064863126 0 0 0
2820 1 26.95848297625417 31.22765446975865 11.971670800785457 0 0 0
1667 1 15.588111809697274 33.546766463673336 11.959620375982597 0 0 0
1701 1 14.026496677597947 33.50663844356583 9.61478173479905 0 0 0
1955 2 18.76781926138269 33.644544898942996 12.057155188086973 0 0 0
1989 1 17.053890616542876 33.54679988851916 9.701689303084379 0 0 0
2277 1 20.469315965371035 33.58533415183426 9.864945286940765 0 0 0
2243 1 22.11556819865744 33.62343524922895 12.173615899182943 0 0 0
2565 1 23.778069294838033 33.49588404560558 9.688518220715638 0 0 0
2568 1 23.98412527561482 35.79722983398045 12.03262647247482 0 0 0
2531 1 25.424337406538953 33.49084455957578 11.99829641261615 0 0 0
2853 1 27.061447142293975 33.6004059400254 9.638885453127635 0 0 0
2856 1 27.27288196782143 35.82786152638426 12.15448721604171 0 0 0
1704 1 13.887947956608059 35.910932216750886 11.967370571082153 0 0 0
1702 1 15.510625167140095 35.904562027360754 9.75296936885236 0 0 0
1703 2 15.539769744212787 38.095495092433715 11.881164762238841 0 0 0
1449 1 13.863394059580209 37.949305680446855 9.601420194769027 0 -1 0
1992 1 17.129542479792217 35.867251311054275 11.951637883213682 0 0 0
1737 1 17.220855684191015 38.08162376271344 9.666410937634879 0 -1 0
2025 1 20.569538063469913 38.094933873056355 9.668160872624908 0 -1 0
2280 1 20.455748323620135 35.888994710507546 12.053258275910437 0 0 0
1990 1 18.74771014918514 35.87901501580638 9.801285218934874 0 0 0
1991 1 18.94960338272676 38.20448828014956 11.975812670979543 0 0 0
2278 1 22.1282124532016 35.8105686687149 9.801514565246881 0 0 0
2279 2 22.158238138129207 38.122316351578604 12.001430610409308 0 0 0
2313 1 23.89326188385758 38.22081732720349 9.749439030826746 0 -1 0
2566 1 25.55070208095873 35.92209199602109 9.773385848092861 0 0 0
2567 1 25.547851169128542 38.163633505187676 12.03638993593899 0 0 0
2601 1 27.316949485104907 38.122015638338624 9.879392325581865 0 -1 0
1598 1 15.271488259228775 22.180792946881375 14.198373999512174 0 0 0
1600 1 13.750353263048964 22.25183132081356 16.65904440301513 0 0 0
1886 2 18.972473939137814 22.066129106943166 14.397861030332033 0 0 0
1888 2 17.117011283715165 22.087378870419563 16.43157155086401 0 0 0
2176 1 20.710103657537672 22.057017487938865 16.591412394905834 0 0 0
2174 1 22.0786234610076 22.23484666831526 14.163186031186083 0 0 0
2464 1 23.894488130882046 22.157000459059965 16.541913828195874 0 0 0
2462 1 25.84360264701066 22.34931033707644 14.407222852536805 0 0 0
2752 1 27.4768978799452 22.340225659150235 16.549341150530665 0 0 0
1599 1 15.487566849374002 24.440751695807307 16.51318371775623 0 0 0
1633 1 13.62521828305142 24.430193467150307 14.220858360382666 0 0 0
1887 1 18.85976694259605 24.40918419302145 16.502329560303984 0 0 0
1921 1 17.186240096992112 24.24967124468424 14.37721707573887 0 0 0
2209 1 20.569838569750008 24.485712656507573 14.349269571289474 0 0 0
2175 1 22.266721048360235 24.419200719148726 16.49659526946841 0 0 0
2497 1 23.694648632123943 24.504578714400214 14.341498446841484 0 0 0
2463 1 25.40717898783237 24.630550814862886 16.455535836784225 0 0 0
2785 2 27.3726304039766 24.74631884507204 14.50573280557063 0 0 0
1636 2 13.840119985127512 26.660517932632665 16.601500002551212 0 0 0
1634 1 15.299525699642654 26.760928418292718 14.337273919552015 0 0 0
1635 1 15.419411356066696 28.905580280140224 16.49164838277026 0 0 0
1669 2 13.90936261742661 29.091665790781224 14.131222424506886 0 0 0
1924 1 17.18211524221798 26.6186535244147 16.507551789776517 0 0 0
1922 1 18.706504644021486 26.762893834280387 14.167098779414692 0 0 0
1923 1 18.801951136379408 29.08764416712753 16.41034930299694 0 0 0
1957 1 17.070976311494807 29.053368124322194 14.206848015976998 0 0 0
2212 2 20.284306758413912 26.646551873635236 16.33723880962936 0 0 0
2245 1 20.47631178686707 29.016182623849627 14.244270072144134 0 0 0
2211 1 22.043994705053816 29.089439486806235 16.67707137800035 0 0 0
2500 1 23.79316400905693 26.977205818053527 16.666587792722872 0 0 0
2210 1 22.27930093684404 26.7828649137644 14.326304700671352 0 0 0
2533 1 23.777235438089228 29.235671271644048 14.429764954941072 0 0 0
2788 1 27.24628912578578 27.02511736682051 16.386337535790695 0 0 0
2498 1 25.24943012624954 26.858905528514377 14.310026583698242 0 0 0
2499 1 25.484777690495182 29.141128875002174 16.574881470750835 0 0 0
2821 2 27.190230660448883 28.981435169075 14.303658307424358 0 0 0
1672 1 13.667089536522134 31.38961708891207 16.517156910210744 0 0 0
1670 1 15.443125280854009 31.350945670311216 14.216621202515475 0 0 0
1958 1 18.673643818586253 31.42956934269577 14.26355069058967 0 0 0
1960 1 17.141410941746436 31.24068261840998 16.52368032083675 0 0 0
2248 1 20.401335522172793 31.304338114329607 16.50902212687977 0 0 0
2246 1 22.084985595185767 31.3674485613103 14.333063018290753 0 0 0
2536 2 23.84513432348148 31.33254558410875 16.55159410374194 0 0 0
2824 1 27.264693202126164 31.31574050701742 16.489089732551296 0 0 0
2534 1 25.561606662750055 31.3226602338449 14.429795972319237 0 0 0
1671 1 15.31436123260573 33.55996916504802 16.532700169607814 0 0 0
1705 2 13.860562573895312 33.585388128541005 14.11762491072817 0 0 0
1959 1 18.769126186345503 33.52953930413588 16.536885992360528 0 0 0
1993 1 17.070908865307437 33.6612137417107 14.270384388626052 0 0 0
2281 1 20.421166053308614 33.68153822094037 14.545036599368816 0 0 0
2247 1 22.264060323401612 33.58551673769962 16.611299783867384 0 0 0
2569 1 23.930556843361945 33.62610260150031 14.482528756604804 0 0 0
2860 1 27.135053024275564 36.001373481046826 16.44508421429277 0 0 0
2535 1 25.545115281359443 33.462555211301705 16.696471041618775 0 0 0
2857 1 27.111668262198183 33.61488784662352 14.27816368751594 0 0 0
1708 1 13.65254916997177 36.0606766324271 16.59249044915029 0 0 0
1707 1 15.473534260537257 38.18973842866755 16.487896644682145 0 0 0
1706 1 15.407003311938517 35.91572834406567 14.257192405307844 0 0 0
1453 1 13.760764313705454 38.25366208322715 14.312267553206643 0 -1 0
1996 1 16.944184748985904 35.81891763794885 16.709638604332163 0 0 0
1995 2 18.7947938726443 37.95110793064578 16.647721186269347 0 0 0
1741 1 17.11769762779672 38.090900038433965 14.158719309179176 0 -1 0
2284 1 20.57767509510383 35.82899514736432 16.668929871866133 0 0 0
1994 1 18.75503029951583 35.816849475556985 14.487154553965865 0 0 0
2029 1 20.46728591281432 38.1305219645736 14.270396192206288 0 -1 0
2282 1 22.112388427934437 35.75360907454098 14.43580221583984 0 0 0
2572 2 23.880702426961733 35.82132091166944 16.5305471203448 0 0 0
2283 1 22.250152898610207 38.028265977109456 16.575426580406116 0 0 0
2317 1 23.748593035746563 37.99260136714688 14.466109990102593 0 -1 0
2570 1 25.4334623055303 35.86810546112034 14.23000468831163 0 0 0
2571 1 25.518276992154437 38.23717298831686 16.525611332440604 0 0 0
2605 1 27.332453928894697 38.070267226483615 14.242657467293547 0 -1 0
1602 1 15.612446795316277 22.1439096438881 18.78342571194963 0 0 0
1890 1 18.705647786243304 22.097219917405827 18.76615753584993 0 0 0
2864 1 27.295206032006398 35.788987280761354 21.084962215004325 0 0 0
2178 1 22.30094566553476 22.41824078247109 18.763267207577066 0 0 0
2468 1 23.832804400691458 22.202227779863332 21.056499335393926 0 0 0
2466 1 25.551648879575247 22.27515640196658 18.83823443722793 0 0 0
1637 1 13.71537584078689 24.451507826876956 18.808806321993384 0 0 0
1603 1 15.352992784436399 24.396938994850245 21.05657066947158 0 0 0
1925 1 17.183483860403925 24.568575371585045 18.78724894139168 0 0 0
2213 1 20.453997376839155 24.41525724959555 18.61911044118577 0 0 0
2501 1 23.96917888774267 24.71506626377456 18.868315755386472 0 0 0
2789 2 27.194539354791267 24.502956829955377 18.79022297717431 0 0 0
1640 1 13.690277367075801 26.658386780263285 20.98414482174719 0 0 0
1638 1 15.457564963724131 26.704380429066013 18.717332221199385 0 0 0
1673 1 13.80385430594388 28.874099308969353 18.86544737548339 0 0 0
1926 1 18.829511964852824 26.760992370761503 18.7868179922929 0 0 0
1961 1 17.057332530910237 29.010116774166733 18.78375901639976 0 0 0
1927 1 18.629805301547687 29.027284879602107 21.076300345045176 0 0 0
1928 2 17.11104762281325 26.6098245811552 21.049083246317583 0 0 0
2249 1 20.41790249637511 29.08988846251979 19.02742733361918 0 0 0
2214 1 21.888874532391227 26.66470092160602 18.646105163030207 0 0 0
2537 1 23.846080286950365 28.908060478798955 18.923920975443544 0 0 0
2504 1 23.906257883395174 26.958031356196813 20.980784772405293 0 0 0
2502 1 25.715104127658808 26.72522913710751 18.669620234272415 0 0 0
2825 2 27.303237032947578 29.169053948172806 18.702661284826437 0 0 0
2503 1 25.70351676266486 29.01445027919029 21.067923441870047 0 0 0
1674 1 15.34151607180118 31.338600133436326 18.83884334514432 0 0 0
1676 1 13.670812462531071 31.192517921544038 21.168901566087346 0 0 0
1962 1 18.62961235502937 31.364295636459133 18.780799581366608 0 0 0
1964 1 17.01491581874547 31.393377082340134 21.0596151301813 0 0 0
2252 1 20.4633064479678 31.391593370848504 20.96269181991336 0 0 0
2250 2 22.150153713632946 31.3045627427047 18.653079839326878 0 0 0
2538 1 25.54199614762854 31.28360964652775 18.803426593148433 0 0 0
2828 1 27.285853600346194 31.301505909802355 21.062418154200525 0 0 0
1709 1 13.565515211411245 33.60218428791195 18.70758751858735 0 0 0
1712 1 13.788357984241646 35.85384796646119 21.117897053744834 0 0 0
1675 2 15.261767512926571 33.52204966891435 21.019143187742372 0 0 0
1963 1 18.799293066353 33.628558315431974 21.02046057239578 0 0 0
1997 1 17.104381588990833 33.69003902063912 18.826361791403404 0 0 0
2285 1 20.500642645050732 33.56273700811053 18.80493631106401 0 0 0
2251 1 22.21284913813052 33.5959653068354 21.12248988699754 0 0 0
2573 1 23.87349806848492 33.442513643662195 18.9157288133409 0 0 0
2861 1 27.242099280495587 33.52036095495846 18.95199045113052 0 0 0
1710 2 15.313473903601203 35.76990473794764 18.762292786355417 0 0 0
1711 1 15.402709915455393 38.145409248122114 21.123366941472643 0 0 0
1457 1 13.796164755372125 38.14575374217269 18.842844138320434 0 -1 0
1745 1 16.969438928756905 37.98757499382636 18.845022351840864 0 -1 0
1998 1 18.79782711446016 35.79657112038908 18.95787797069352 0 0 0
1999 2 18.729353536195834 37.867643083596555 21.058189424984878 0 0 0
2287 1 22.255225527052882 38.06150430996927 21.200760118793724 0 0 0
2033 1 20.6042101618846 37.949505930127316 18.90605592722994 0 -1 0
2286 1 22.352724845343115 35.83332435600702 18.892625632256998 0 0 0
2321 2 23.92033476360845 38.012251011643606 18.97061825684946 0 -1 0
2574 1 25.59693359009806 35.78928898704567 18.80072289752295 0 0 0
2609 1 27.238953016916103 38.11270933593262 18.854288707857627 0 -1 0
1604 1 13.78209452587614 22.178666283806766 21.045511875194375 0 0 0
1606 1 15.436797356422861 22.09366871770921 23.357661764306616 0 0 0
1892 1 17.262018786461347 22.170454889126155 20.98359137205721 0 0 0
1894 1 18.82020984968868 22.38101610456887 23.22177900180306 0 0 0
2180 1 20.589013549072185 22.160564571667493 20.968792106960148 0 0 0
2182 1 22.070305693765338 22.38933084731505 23.288263949104614 0 0 0
2756 1 27.236480223427762 22.28276198961674 21.085781741114978 0 0 0
2470 2 25.40180559058562 22.135251326119832 23.3443927780851 0 0 0
1641 1 13.92018723167439 24.339281826632007 23.470360102409913 0 0 0
1891 1 18.911229173631742 24.539707967142473 20.973741792806088 0 0 0
1929 1 17.023140978799237 24.569338879360238 23.257225150522363 0 0 0
2217 1 20.58841549523285 24.53647359185157 23.29116437533019 0 0 0
2179 1 22.148972572712168 24.588942517270457 20.965460625005242 0 0 0
2505 1 23.897174934260402 24.569125719681974 23.236850745504643 0 0 0
2467 1 25.515788240075 24.608098714455444 21.057176257778174 0 0 0
2793 1 27.02880596387142 24.440106403669947 23.314983772107972 0 0 0
1639 1 15.39677417441829 28.957502026788887 21.10950292253407 0 0 0
1642 1 15.541305914342033 26.694654335185042 23.297089654207777 0 0 0
1677 1 13.670403940148212 28.915608196472636 23.3636007462116 0 0 0
1930 1 18.72315244701098 26.77116755561165 23.316647508804703 0 0 0
1965 1 17.10295977159127 28.975620766164845 23.384367452910972 0 0 0
2216 1 20.47057876344934 26.88727542986272 21.06083304969154 0 0 0
2253 2 20.432709017866106 29.04376386768157 23.403887951098667 0 0 0
2215 1 22.16337142627774 29.132006844235978 21.085898923443086 0 0 0
2218 1 22.28476277137327 26.838635000225388 23.24358923618133 0 0 0
2541 1 23.86084636495318 29.161764004658814 23.204337724084777 0 0 0
2792 1 27.308627895418965 26.7235814965619 20.979270458028246 0 0 0
2506 1 25.545221137827042 26.812268946790947 23.15814734783964 0 0 0
2829 1 27.20517955957382 28.966289379320727 23.320702810430443 0 0 0
1678 1 15.30004168825452 31.215928157359556 23.351712901395985 0 0 0
1966 1 18.81992303794493 31.283560941773356 23.26630741000117 0 0 0
2540 1 23.999464639638063 31.39867242015891 21.003112700358123 0 0 0
2254 1 22.07527316949703 31.252513226758158 23.288519790665454 0 0 0
2542 1 25.58751227145954 31.340197757940878 23.393466077007528 0 0 0
1713 1 13.902234454237522 33.63296168703697 23.28585297195352 0 0 0
2001 1 16.96055895724916 33.49577608256506 23.28635043793276 0 0 0
2000 1 16.855753117534316 35.7666332905543 21.136949985501296 0 0 0
2289 1 20.573588209743914 33.527786692745536 23.405266753732953 0 0 0
2577 1 23.748011184871846 33.52641571787811 23.40443592450917 0 0 0
2865 1 27.50467188950815 33.47144956311797 23.36913967543866 0 0 0
2539 2 25.56574448370241 33.56807995195197 21.20147574647857 0 0 0
1714 2 15.464895071379573 35.93581591493543 23.505646680584956 0 0 0
1461 1 13.70235036029456 37.977503771298174 23.3908436426947 0 -1 0
1749 1 17.213020502629323 38.01614006199935 23.585076402810714 0 -1 0
2002 1 18.697174073405463 35.703145666197074 23.253008963587902 0 0 0
2288 1 20.530514521186713 35.80205951794343 21.140049536138587 0 0 0
2037 1 20.442890691264385 37.96117060060278 23.337306937881145 0 -1 0
2290 1 22.204337470280393 35.76434954236637 23.452374767060345 0 0 0
2576 1 23.89371856082718 35.80722311945369 21.16831330616224 0 0 0
2325 2 24.047233517970756 37.918347533962056 23.505449586754654 0 -1 0
2578 1 25.674945274000237 35.61387152930854 23.368896211555338 0 0 0
2575 1 25.576360729854105 37.98184179341403 21.127229216028176 0 0 0
2613 1 27.309519171478247 38.062119338751316 23.34454315693061 0 -1 0
1608 2 13.796583425327487 22.080338003095378 25.620609346532333 0 0 0
1610 1 15.581248571726587 22.19984236154305 27.83402867447941 0 0 0
1896 1 17.449291021202196 22.155808485637735 25.606699354177028 0 0 0
1898 1 18.86008442239517 22.248785356618548 27.943321980801777 0 0 0
2184 2 20.46137106913776 22.175987653220957 25.48951749219791 0 0 0
2186 1 22.16757521604977 22.30099667060941 27.822136434580752 0 0 0
2472 1 23.70455367474654 22.13227902819999 25.610394581379495 0 0 0
2474 2 25.375523469222873 22.190154803663173 27.783844011810686 0 0 0
2760 1 27.24967422716066 22.180297633176018 25.539387568895965 0 0 0
1607 1 15.505210250557791 24.332220491737957 25.67278535029971 0 0 0
1645 1 13.651484474153467 24.466391721149346 27.91816780967578 0 0 0
1895 1 18.874804807920864 24.448002250521245 25.4877509045623 0 0 0
1933 1 17.217803268623534 24.384104543208853 28.007097212591106 0 0 0
2221 1 20.548214496335117 24.618541815799677 27.79457146119837 0 0 0
2183 1 22.158406085132153 24.51698366903714 25.542095506693418 0 0 0
2509 1 23.74105653411465 24.539838358772688 27.78283601331328 0 0 0
2471 1 25.396862489784898 24.30541837625794 25.631547082172254 0 0 0
2797 1 27.15419699908486 24.374338265383138 27.79123549561168 0 0 0
1644 1 13.916929429714042 26.621415952853756 25.51609908636582 0 0 0
1646 1 15.444899820442693 26.655816289222248 27.84680152465326 0 0 0
1643 1 15.348935019467799 28.889403403932043 25.588185496709283 0 0 0
1681 1 13.731116819114703 29.037439882743215 27.895125299645645 0 0 0
1932 1 17.07464376779701 26.714699914480505 25.559329059740843 0 0 0
1934 2 18.789174779135674 26.772466080568172 27.88170048142976 0 0 0
1931 1 18.772878432244518 28.8692613622304 25.67433025966841 0 0 0
1969 1 17.11991504029484 28.885965075567483 27.868328035423215 0 0 0
2220 1 20.537956521412767 26.790183631132674 25.430167213075258 0 0 0
2257 1 20.54842788984232 29.043877886093966 27.873469153410728 0 0 0
2508 2 23.88767084122303 26.662097440984457 25.480851233941785 0 0 0
2222 1 22.258440455562162 26.77079054993924 27.73504554187725 0 0 0
2219 1 22.118659817659015 29.0075138369272 25.427565466849455 0 0 0
2545 1 23.79466968996757 28.98061439554262 27.734397016043975 0 0 0
2796 1 26.99558013042065 26.59145684022592 25.521975625280604 0 0 0
2510 1 25.449542872020114 26.694088467023427 27.92109022423077 0 0 0
2507 1 25.465491689612456 28.97125593678761 25.56256619522152 0 0 0
1680 1 13.717585629740576 31.074449840168516 25.624750224155605 0 0 0
1682 2 15.396730975523223 31.423794274565882 27.883534029927034 0 0 0
1968 1 17.04491597554572 31.241703391988356 25.537231564491258 0 0 0
1970 1 18.81514561352694 31.234766772486005 27.786300216598317 0 0 0
2256 1 20.383945087205447 31.253558367618925 25.665561152693897 0 0 0
2258 2 22.191172648928216 31.3666280542894 27.87105113096119 0 0 0
2544 1 23.754942485746547 31.298212376742978 25.52850341280829 0 0 0
2833 1 27.257520178373376 29.038156942657142 27.707161362346486 0 0 0
2546 1 25.663693955400333 31.324186396624594 27.562472856793153 0 0 0
2832 1 27.456943838771988 31.306662998194987 25.55556972724797 0 0 0
1679 1 15.468749601531552 33.48461578342581 25.63083844970287 0 0 0
1717 1 13.603016939171717 33.5389968313151 27.97599602396078 0 0 0
1967 2 18.716449579804685 33.54992970018063 25.50262416402402 0 0 0
2005 1 17.104510312783272 33.74414137952373 27.78242317781882 0 0 0
2004 1 17.32810050150848 35.81427420290585 25.768249632300996 0 0 0
2293 1 20.389190964813647 33.718634360260765 27.814008420952902 0 0 0
2292 1 20.33359647520238 35.76419801374702 25.652256222751607 0 0 0
2255 1 22.1802916950438 33.57708602698101 25.745288072771604 0 0 0
2581 1 24.06356849471161 33.51453868947043 27.737649865609864 0 0 0
2543 2 25.725734435878373 33.35364801962181 25.533249589695064 0 0 0
2869 1 27.23345473032135 33.43333342689699 27.875065276451693 0 0 0
1716 1 13.694041145873388 35.743597285941945 25.540224604711952 0 0 0
1715 1 15.423222181154852 38.13413631530048 25.530995602182305 0 0 0
1718 1 15.350549036281059 35.76768008891114 27.74309175367509 0 0 0
1465 1 13.752600877026445 38.08174553580718 27.690031675863295 0 -1 0
2003 1 18.848082202924967 38.036552665035 25.888983819139778 0 0 0
2006 2 18.868542442806145 36.007744857468836 28.123130619778994 0 0 0
1753 1 16.892125897736783 38.045135239415174 27.887855427715426 0 -1 0
2291 1 22.08466311303388 38.09179174871168 25.566295702412177 0 0 0
2294 1 22.32215618298114 35.81903763220468 27.830462051081938 0 0 0
2621 2 27.416717351062193 38.01061403783414 32.37527873298822 0 -1 0
2580 1 24.030091330666373 35.80000367919674 25.631341814276713 0 0 0
2329 1 24.114585448272955 38.04680650499768 27.90850357856322 0 -1 0
2579 1 25.832264520167534 38.02442625580537 25.72000086918954 0 0 0
2868 1 27.357390813235103 35.633750450018276 25.636154087022742 0 0 0
2582 2 25.749782146563845 35.89079795597865 27.819620609737214 0 0 0
2617 1 27.457230350601463 38.126043079023646 27.944455752587974 0 -1 0
1612 1 13.819768107652408 22.23036618144334 30.15034471616209 0 0 0
1614 1 15.608024873552221 22.197035433459646 32.308158236412055 0 0 0
1900 1 17.36408775524491 22.1924492534252 30.164661554383 0 0 0
1902 1 18.942546220158263 22.176146376076574 32.464472804160366 0 0 0
2188 2 20.443625234662225 22.192614471907223 30.075643605011564 0 0 0
2190 1 22.165398715308978 22.260788822512364 32.38762892935776 0 0 0
2476 1 23.788887734425654 22.338011239296755 30.1582991276951 0 0 0
2478 1 25.29185638266387 22.298601601590605 32.47117436813132 0 0 0
2764 1 26.898310843459967 22.165418580929405 30.070485984048084 0 0 0
1611 1 15.338182194962098 24.38109610460219 30.19924824635234 0 0 0
1649 1 13.81109204952282 24.418550242238286 32.44500888333084 0 0 0
1899 1 18.96006513059556 24.8006585565174 30.05345254537037 0 0 0
1937 1 17.3938540798103 24.4897559468731 32.36920464976819 0 0 0
2225 2 20.519173408690264 24.563309430116306 32.39815279853339 0 0 0
2187 1 21.997776466582984 24.47215744454266 30.042851929992427 0 0 0
2513 1 23.734658590587507 24.574373811705165 32.43458170479464 0 0 0
2475 1 25.390506574340225 24.590830040344546 30.071619964405187 0 0 0
2801 1 27.036621985756163 24.53614143392957 32.39011079340364 0 0 0
2800 1 27.235994486121918 26.773377027784527 30.054690525231987 0 0 0
1648 1 13.698557964447744 26.798792771574778 30.064706252018983 0 0 0
1650 1 15.527654202211163 26.628468447065135 32.4138170801805 0 0 0
1647 1 15.432621880897212 29.054666198992376 30.05397449290793 0 0 0
1685 1 13.820028819058003 28.953382138107663 32.35633236013129 0 0 0
1936 1 17.05717264643709 26.790439044589895 30.150446207044567 0 0 0
1938 1 18.94298303848053 26.739230878782095 32.439869797431726 0 0 0
1973 1 17.223407963857746 28.984493676286426 32.47144649787446 0 0 0
1935 1 18.759842859572455 28.923685054616666 30.029328109101495 0 0 0
2224 1 20.72814396015469 26.894638358446564 30.131202324605255 0 0 0
2261 1 20.564524711486122 29.037121045020427 32.27697941020138 0 0 0
2512 1 23.721244446165795 26.874965335524678 30.163811666439695 0 0 0
2226 1 22.216104153281478 26.833535246522953 32.46616816886263 0 0 0
2223 1 22.104470815747703 29.207973185892605 30.032768687917265 0 0 0
2549 1 23.88193993222805 29.032291207933522 32.274977842920926 0 0 0
2514 1 25.390917038117333 26.864844428424966 32.26065918513232 0 0 0
2511 1 25.591012528849056 28.984073568975898 29.920193798995196 0 0 0
2837 1 27.191114340170184 28.974386570907274 32.26475500958512 0 0 0
1684 1 13.546851590929485 31.313142455896635 30.132373455900755 0 0 0
1686 2 15.438937976370063 31.24695158986725 32.17404715628584 0 0 0
1972 1 17.32582800982041 31.433013770533854 29.96107770321078 0 0 0
1974 1 18.792738887154794 31.510717670784608 32.44579103556474 0 0 0
2260 1 20.354695991051244 31.308266649861256 30.01308481695586 0 0 0
2262 2 22.256493377687022 31.327332305155505 32.16020263320206 0 0 0
2548 1 24.14335413015775 31.205682214793267 29.88234102897345 0 0 0
2550 1 25.657376304869157 31.431846355692926 32.406596094485025 0 0 0
2836 1 27.333612939580277 31.249333018123608 30.178706385917994 0 0 0
1683 1 15.414271634605662 33.436917869223734 30.06744821383757 0 0 0
1721 1 13.674065787387693 33.657426427117485 32.428826346294585 0 0 0
1971 1 18.879306715930603 33.73734456155654 30.1147895650037 0 0 0
2009 1 17.11042904687464 33.682693826535875 32.406839423551475 0 0 0
2297 1 20.626078813057298 33.7334424285296 32.38303858129526 0 0 0
2259 1 22.178477997021858 33.39160504754659 29.955306985928587 0 0 0
2585 1 23.95653410674391 33.5713632839675 32.2309810201792 0 0 0
2547 1 25.708887922957235 33.68000904508882 30.09942516721954 0 0 0
2873 2 27.355399342434477 33.61424693655488 32.539393296723404 0 0 0
1469 1 13.445167894230497 37.950111133619494 32.33335285297254 0 -1 0
1720 1 13.619720918306474 35.71588341510838 30.24260965998603 0 0 0
1719 2 15.129678886831183 38.13768740445936 30.153482160976242 0 0 0
1722 1 15.371401214176114 35.875863680069614 32.4459702739792 0 0 0
1757 1 17.01762229456888 38.07730974024479 32.25025887542534 0 -1 0
2008 1 16.79823960769536 35.892689626619905 30.02666209294709 0 0 0
2010 2 18.85323885937339 35.9812033061913 32.22510238418195 0 0 0
2007 1 18.804893898853287 37.92297549951111 30.157325137114103 0 0 0
2045 1 20.710190518405717 38.10083213194728 32.340916552205044 0 -1 0
2296 1 20.747473325901 35.82702955129249 30.118889703964538 0 0 0
2295 1 22.530573978549107 38.00152379483457 30.129937334345783 0 0 0
2584 1 23.88338592397941 35.694969371378406 30.09920022041539 0 0 0
2298 1 22.364670042444708 35.898913035777795 32.50742260484839 0 0 0
2333 1 24.0765989602891 38.06232371571186 32.4523052475034 0 -1 0
2872 1 27.47621978313043 35.92190028575863 30.068600781228177 0 0 0
2586 1 25.620640368942226 35.8020601517766 32.35698573208896 0 0 0
2583 1 25.64665554704531 37.84569687845878 30.011090932690717 0 0 0
2041 1 20.601457860575227 38.06910895468362 27.96160032407281 0 -1 0
1616 1 13.93249306234739 22.05917078253888 34.5288611446026 0 0 0
1618 2 15.533428537454611 22.2139783135759 36.90515977475077 0 0 0
1904 1 17.21881656920388 22.215523294419718 34.536671668763915 0 0 0
1906 1 18.894102195025784 22.267274140541154 36.86292040497274 0 0 0
2192 1 20.517727354832267 22.307293515573406 34.71493308255114 0 0 0
2194 1 22.15446770320941 22.18211538906127 37.06227894076508 0 0 0
2480 1 23.91345497128019 22.195246146645527 34.7734383082733 0 0 0
2482 2 25.50994443532189 22.250564572335588 36.97251809271897 0 0 0
2768 1 27.00751225593757 22.34096197513237 34.645084119003016 0 0 0
1615 1 15.545036955111467 24.502320291841233 34.57299398782989 0 0 0
1653 1 13.99742142053119 24.564886443090366 36.89921064649323 0 0 0
1941 1 17.113623819210165 24.48877528156688 36.96320329407031 0 0 0
1903 1 18.841171356403184 24.51962717614956 34.759079716097304 0 0 0
2229 2 20.626276666992805 24.57320622901611 36.876109520362505 0 0 0
2228 1 20.446452953680105 26.738761487295335 34.67741395137638 0 0 0
2191 1 22.268698074556507 24.49480411212732 34.6469445362292 0 0 0
2517 1 23.65722255590513 24.471465214273206 37.002182980124076 0 0 0
2479 1 25.382515773243036 24.55763159075065 34.61598806272086 0 0 0
2805 1 27.100907361656937 24.56388318597399 36.66760449710388 0 0 0
2804 1 27.131286072653726 26.7695403134751 34.46932310589169 0 0 0
1652 1 13.85914302614271 26.850161347632667 34.676912573967286 0 0 0
1654 1 15.485814665610981 26.834385113934065 36.90043004233148 0 0 0
1651 1 15.504517558947676 28.946931166953274 34.579926918665734 0 0 0
1689 1 13.813178338237272 29.05687629365053 36.91936976840874 0 0 0
1940 1 17.1924180533142 26.765994395703512 34.72364832953522 0 0 0
1977 1 17.28889858153503 29.04247983144562 36.950327427515745 0 0 0
1942 1 18.780768670066077 26.699438994666924 37.059670894835804 0 0 0
1939 1 18.881621729887843 29.08833552415477 34.580291679609076 0 0 0
2265 2 20.381588035727443 28.964551782663104 36.83977995222962 0 0 0
2516 2 23.918446726339205 26.927643697012943 34.545374483221394 0 0 0
2230 1 22.305051324384102 26.837627132793678 36.74947740107223 0 0 0
2227 1 22.059070712653796 29.115303520776052 34.57850002253471 0 0 0
2553 1 23.99472974523643 29.00065174338009 36.72206057382985 0 0 0
2518 1 25.5191217196467 26.766247103121234 36.878403335724784 0 0 0
2515 1 25.752714737084926 29.02425904047661 34.540887801006235 0 0 0
2841 1 27.281973778032775 29.054650755504277 37.02056719486258 0 0 0
1688 1 13.851121898928163 31.236309138530792 34.73856161160904 0 0 0
1690 1 15.31566174460065 31.380508802455545 36.98775972966719 0 0 0
1976 1 16.82253067255246 31.287735413013202 34.61176264138719 0 0 0
1978 1 18.836098442870163 31.339964094819972 36.576853166689105 0 0 0
2264 1 20.831077298169305 31.412814919931343 34.46972149947378 0 0 0
2266 1 22.239523047250422 31.15590207086936 36.91243440106156 0 0 0
2552 1 23.898978642504982 31.28094093907833 34.49591590693913 0 0 0
2554 1 25.63946674166636 31.459492142508175 36.88388453830031 0 0 0
2840 1 27.28302001756305 31.435412407202154 34.771975470463744 0 0 0
1687 1 15.465451403264844 33.5920389817701 34.602967385189004 0 0 0
1725 1 13.600865069294972 33.495152746318 36.905592874184265 0 0 0
2013 1 17.11879391864324 33.50311005669782 36.872337167566414 0 0 0
2012 1 17.212804278213863 35.785787283046005 34.52225338548874 0 0 0
1975 2 18.853884927916734 33.3564074375911 34.56401300527533 0 0 0
2301 1 20.56398256686874 33.58406110510812 36.72425104683785 0 0 0
2263 1 22.31880757269098 33.66315617998371 34.616122829019844 0 0 0
2589 1 23.772421210442644 33.53664779948919 36.97139227898222 0 0 0
2551 1 25.59038877656535 33.54842677216563 34.731927192293654 0 0 0
2877 2 27.487596824816812 33.52955519581667 36.80448755599129 0 0 0
1724 1 13.482281150179233 35.672041868288666 34.499711759549655 0 0 0
1723 1 15.259380741781488 37.95528335696216 34.59675179797917 0 0 0
1726 1 15.332395444329936 35.73027826309861 36.77078636006415 0 0 0
1473 1 13.574607782713592 38.06015164197696 36.9097211142529 0 -1 0
2011 1 18.816315224558213 37.95737501447424 34.50147436557181 0 0 0
1761 1 17.158268283311262 38.139396911425514 36.72365451569624 0 -1 0
2300 1 20.305331593325374 35.90700124758766 34.58327549365522 0 0 0
2014 1 18.857012916113586 35.72495268534435 36.94196017874461 0 0 0
2049 1 20.461898220527537 38.093256990307225 36.90818560073751 0 -1 0
2299 1 22.327068378670468 37.89368428385967 34.67900774726837 0 0 0
2588 2 24.082940069287375 35.73052083784183 34.913814180101 0 0 0
2302 2 22.091360490233075 35.84815893742166 36.7994803085914 0 0 0
2337 1 24.088183034058957 37.94651435644312 36.85623208014994 0 -1 0
2876 1 27.47407958493535 35.61016509712714 34.7332905715874 0 0 0
2587 1 25.697944245341986 38.00113451516582 34.67266888661787 0 0 0
2590 1 25.894935333099372 35.78049001914658 36.872352810560784 0 0 0
2625 1 27.428276480032128 38.067078145991864 36.9353675347604 0 -1 0
1620 1 14.144182034567596 22.01169159269613 39.36965743093498 0 0 0
1981 1 17.161701746652668 33.62418941336519 41.42437451631331 0 0 -1
1908 1 17.21584828263689 22.212455492051618 39.294535970688884 0 0 0
1693 2 13.708747912967649 33.512325572983485 41.243905754121684 0 0 -1
2196 1 20.493737173469857 22.11645377866741 39.31237219719493 0 0 0
2484 1 23.86198098155741 22.092902814120453 39.308438428271955 0 0 0
2015 1 18.797383160569215 38.01184898438993 39.04431699439401 0 0 0
2772 1 27.212390969811104 21.97216172487252 39.34643090030717 0 0 0
2592 1 23.976197810963978 35.56601199276564 39.02665954104761 0 0 0
1619 1 15.47073922918824 24.468028431468596 39.281063492508224 0 0 0
1727 1 15.309405542655735 38.11978899845877 39.121874329487014 0 0 0
1907 1 18.916045093005902 24.523262083520844 39.10604193139078 0 0 0
2304 1 20.707998701750157 35.72124492928127 39.10841716624492 0 0 0
2195 1 22.203520383472092 24.303439832251158 39.40608639222495 0 0 0
2303 1 22.306201070990895 37.93502525517783 39.00352752932433 0 0 0
2483 1 25.518326193192227 24.37786914080564 39.038742737369844 0 0 0
1656 1 13.735831929958522 26.642785005130396 39.260401411883976 0 0 0
1655 1 15.345407536222826 29.10879853277741 39.12781054482706 0 0 0
2016 1 17.084288258979203 35.744368041015754 39.05512206184051 0 0 0
1944 1 17.080223208227384 26.727208699826125 39.153794465189776 0 0 0
1728 1 13.829723198083006 35.71704673343299 39.20463867697268 0 0 0
1946 2 18.84690167455926 31.29053545724397 41.29014251145895 0 0 -1
1943 1 18.786416687094 28.8494575630727 39.33154327966089 0 0 0
2232 1 20.68734561192121 26.694644403715174 39.157095318308436 0 0 0
2520 1 23.880582121550855 26.54722532263829 39.235675322913636 0 0 0
2231 1 22.391094809704164 28.854884976540284 38.95188569806007 0 0 0
2808 1 27.231633337491107 26.6769146225564 39.07848179784166 0 0 0
2519 1 25.39189834031666 28.935599298588357 39.100390694565135 0 0 0
2234 1 21.908709512304842 31.33368541891708 41.22362333018327 0 0 -1
1692 1 13.681841043382814 31.358022758087262 39.23610872971376 0 0 0
1980 1 17.209032882020164 31.29900234702612 39.110041923251615 0 0 0
2268 1 20.38786104860064 31.025773018933936 39.016346379244126 0 0 0
2556 1 23.911392180314238 31.123973262356486 39.191814649923174 0 0 0
2844 2 27.34387096356443 31.14966923673951 39.17365390203295 0 0 0
2809 1 27.324869567855156 28.94302943601992 41.31521307069917 0 0 -1
1691 1 15.48637718343113 33.508643331090255 39.18911510519776 0 0 0
1729 1 17.225029625453942 37.96768662794926 41.400856496426954 0 -1 -1
2233 1 20.688977817262106 28.936555868422836 41.37218819502483 0 0 -1
1979 1 18.98184041258247 33.39827244400378 39.135342508775764 0 0 0
2591 1 25.619253635834653 37.974265794662195 39.13689010046879 0 0 0
2267 2 22.06378293332173 33.33989507818721 39.13195365084067 0 0 0
2555 1 25.72971102421587 33.48870962482248 39.09850284767717 0 0 0
2880 1 27.34023927113066 35.680593822993586 39.311168875882984 0 0 0
1982 1 18.929896537022888 35.83850366118517 41.24903418049732 0 0 -1
2269 1 20.529894387093304 33.67036498030504 41.316203253025805 0 0 -1
1909 2 17.338862175590826 24.457462492316562 41.41458182562009 0 0 -1
2593 1 27.44689122591865 37.94186487982213 41.38953554909901 0 -1 -1
1945 1 16.98928352109358 29.036976803605576 41.4331185084265 0 0 -1
2017 1 20.57277639750563 38.12875527259557 41.32076345674855 0 -1 -1
2486 1 25.66522661784543 26.761229408706306 41.43933237019954 0 0 -1
2557 1 23.945725215464368 33.28210178119025 41.23740361409567 0 0 -1
1910 1 18.751668044618317 26.888989779124874 41.355696972962264 0 0 -1
2773 1 27.19489291212376 24.388932789671337 41.403936355001406 0 0 -1
2485 1 23.99751690809658 24.490251988008417 41.390260319075516 0 0 -1
2270 2 22.422680114115725 35.83374792681152 41.33187035232721 0 0 -1
2884 1 30.896379137998387 4.056958032739639 3.1372071237715278 0 0 0
3172 1 34.014211914957265 3.9621185628260864 2.9323866708277317 0 0 0
3460 1 37.51199429973198 4.0313486207883 2.9497325004836465 0 0 0
41 2 44.07985550236277 6.229477455464818 5.211807658982358 -1 0 0
3748 2 40.74505881107288 3.8446403091339167 2.9343502535538497 0 0 0
3566 2 38.9520012987297 17.83983258723824 0.8745621697564677 0 0 0
8 1 44.066052512936764 4.1173863654995095 7.5222417646611355 -1 0 0
2595 1 29.103803014343406 6.133326607123799 2.948526513945132 0 0 0
3859 1 42.32273739984098 20.03779951923321 7.577473061289274 0 0 0
2883 2 32.47652572347313 6.349097071613591 3.0833187730069525 0 0 0
3858 1 42.14312390596022 17.608492529330327 5.459610638545548 0 0 0
3171 1 35.775198001520344 6.094460304402281 2.976793336218132 0 0 0
3459 1 39.08220998218411 6.287113428292953 3.0386944912306384 0 0 0
3818 1 42.353769798156726 13.012371546205692 0.7283644025468912 0 0 0
3747 1 42.46122236796191 6.101747399532883 2.907021100673119 0 0 0
37 1 44.08623779527489 6.314820056548734 0.7586355052117562 -1 0 0
2920 1 30.82433449252295 8.482474914306152 2.976646891456169 0 0 0
2631 1 29.04164399141618 10.78293319097192 2.8510630219056856 0 0 0
2594 2 29.0087393604786 4.100666902076236 0.9238100104521157 0 0 0
3208 1 34.16674879797465 8.493400991895069 3.024360982450642 0 0 0
2919 1 32.32319244191097 10.841190216133969 3.0394384421845655 0 0 0
3207 1 35.900012537560926 10.663081978601454 2.879093735940509 0 0 0
3496 1 37.222043945237715 8.352523888322356 2.9420419743132786 0 0 0
3494 1 39.07722841021749 8.49512242888603 0.7691048372124026 0 0 0
3495 2 38.93802367502645 10.676163262368158 2.9866884238353757 0 0 0
3784 1 40.71571245734927 8.555417277422247 2.8887599147928444 0 0 0
116 1 43.83599690041869 17.816228236872128 7.580233195171142 -1 0 0
3783 1 42.461633005003584 10.870148620710253 3.0426504138832398 0 0 0
44 1 44.097448946515335 8.695876580153051 7.599354423268197 -1 0 0
2956 1 30.764300697074134 13.123636583127277 2.8834242898817863 0 0 0
3244 1 34.00210750292897 12.997755239071553 2.925129430427198 0 0 0
3565 1 37.366856973886215 15.491198669139381 0.811253711248318 0 0 0
3532 1 37.325448397012856 13.036492854064221 2.808173518097724 0 0 0
3570 1 38.99140306181812 17.632899596152633 5.453308903790871 0 0 0
3820 1 40.49077158746519 12.946000236310685 2.993944760395033 0 0 0
3860 1 40.629944651830385 17.723774922455853 7.6428598233760185 0 0 0
2667 1 28.96579327975435 15.387883767172578 2.908919099548698 0 0 0
2994 1 32.30327302904378 17.71281286864697 5.1235237049930635 0 0 0
2955 1 32.40186439892798 15.201777701337457 2.950792084132683 0 0 0
3571 2 38.94022383251529 19.85651646497078 7.722375093992167 0 0 0
3243 1 35.64892891810879 15.30686822097804 2.995172738041486 0 0 0
3531 1 38.92098062352314 15.320407897282287 3.0284415751704215 0 0 0
3819 1 42.32813673618655 15.251145699015423 2.796847152257045 0 0 0
109 1 44.048051586568654 15.375703988200508 0.7119565852023645 -1 0 0
2992 2 30.673678885449853 17.634684708974287 2.786113571508486 0 0 0
2703 1 28.951042767859732 19.995618740758292 2.824367540022834 0 0 0
3280 1 34.0061868520335 17.594439817421467 2.8103120493273384 0 0 0
2991 1 32.533664142324156 19.892989593397985 2.8334343729794886 0 0 0
3282 1 35.4442540955631 17.723827606024223 5.202980294598908 0 0 0
80 1 44.040655373115435 13.238605983458362 7.413857221696424 -1 0 0
3568 1 37.31908701737751 17.46393918210839 3.212806386289905 0 0 0
3279 1 35.642334816741105 20.05380844911916 2.953016120552973 0 0 0
3283 1 35.60291497766301 19.950945894550944 7.372966656341894 0 0 0
3567 1 38.981727404478264 19.983834134246635 3.104128052760768 0 0 0
3856 1 40.642326491532735 17.614817101165883 3.0747421076729977 0 0 0
3855 1 42.35290603260647 19.743002240812256 3.0527071239503614 0 0 0
2598 2 28.93500366766976 4.143516395050671 5.235868282703314 0 0 0
2888 1 30.60891263609078 4.0688813890801505 7.499953463287174 0 0 0
2886 1 32.37324022227085 4.07213204930303 5.457380795170107 0 0 0
3176 1 34.12392915000791 4.0263463592779924 7.555107062839683 0 0 0
112 2 44.05680217142651 17.619343136278374 3.096668228029878 -1 0 0
3174 1 35.725666671481854 3.9816262603672468 5.251047146973244 0 0 0
3464 1 37.40183493945398 3.920868910282035 7.431705335808859 0 0 0
3462 1 39.04243999107657 3.9815642243281744 5.2452890340175005 0 0 0
3752 1 40.906872022186775 4.063658981277866 7.470297981889645 0 0 0
113 1 44.044143343133626 15.397567204434456 5.108323658451493 -1 0 0
3750 1 42.250488537781074 3.979835328322813 5.206848090863305 0 0 0
2599 1 29.073787545253793 6.354571678043032 7.424695305178276 0 0 0
2921 1 30.77111733872316 6.337526270509719 5.327273757718531 0 0 0
2887 2 32.44596885212255 6.258308329317122 7.518135636964183 0 0 0
3209 1 34.203279237397176 6.327916027386964 5.269744592595282 0 0 0
3175 1 35.76593402615666 6.3282026354556 7.551538107603302 0 0 0
3497 1 37.39073936537792 6.298087079596581 5.2868279696330855 0 0 0
3463 1 39.118720091084214 6.146052764765503 7.413660671409818 0 0 0
3785 1 40.81638983539609 6.3949257356977345 5.226421483433541 0 0 0
3751 1 42.39896533391406 6.4798194028886815 7.469383563224929 0 0 0
3893 1 40.59398874008592 19.977070695385354 5.426310658917321 0 0 0
2924 1 30.859079968507913 8.63445919472943 7.534451429171152 0 0 0
2634 1 28.98703119092324 8.571521534948467 5.226373247203661 0 0 0
2635 1 29.219280212918733 10.850852429686475 7.456214237723367 0 0 0
2957 1 30.661951755330826 10.9261044614317 5.214570539736698 0 0 0
2923 1 32.47477389909467 10.72978788781802 7.441481240976018 0 0 0
2922 1 32.44605320507067 8.53965015514883 5.33757926029538 0 0 0
3212 1 34.12082405530277 8.419837502482387 7.519474157836821 0 0 0
3245 1 34.11028656316551 10.79751027901274 5.121955624803501 0 0 0
3210 2 35.87656137696613 8.564253575775076 5.377226674291614 0 0 0
3211 1 35.66320644867397 10.924045931322619 7.397974475053899 0 0 0
3500 1 37.44522870476374 8.529252430000724 7.562517163078189 0 0 0
3533 1 37.32885291551031 10.88286437657776 5.218963111646386 0 0 0
3498 1 38.91782434394318 8.666492151593385 5.285343610090887 0 0 0
3499 1 38.96101740127659 10.846706548454776 7.425526738970569 0 0 0
3788 1 40.73724217394535 8.594566175450737 7.397986566816357 0 0 0
3821 1 40.64916267888326 10.844357649331695 5.290533862205512 0 0 0
3572 1 37.14908637955266 17.53921346516264 7.485760717571539 0 0 0
3786 1 42.52815147840497 8.663765055764244 5.277169099713191 0 0 0
3787 2 42.4291062601416 10.961002937628466 7.4994223727988825 0 0 0
3605 1 37.41009956503611 19.970736118722883 5.219052552773707 0 0 0
2670 1 29.044607934950236 13.210574013825857 5.072162093970777 0 0 0
2960 1 30.830413317548633 13.134728992913693 7.451193190395194 0 0 0
2958 2 32.3947247791429 13.13313697509839 5.145383055592419 0 0 0
3248 1 33.95850179390419 13.131137459560907 7.448418135345952 0 0 0
3246 1 35.737329467143 13.096629251483321 5.244854302552177 0 0 0
3536 2 37.18539476522495 13.189909594775605 7.5716875419661305 0 0 0
3534 1 38.9713038540096 13.210718958176825 5.292256953472632 0 0 0
3824 1 40.50310686414658 13.226318671675639 7.511357740413179 0 0 0
3822 1 42.38931194116461 12.955487115526248 5.03365119395947 0 0 0
3782 1 42.303812277089506 8.453539614142269 0.8074420767246082 0 0 0
2671 1 29.10816425152018 15.369613217357974 7.422273812554492 0 0 0
2993 1 30.655789817183013 15.39058960601469 5.108346056618902 0 0 0
2959 1 32.32540459549084 15.332669699262032 7.391474410361815 0 0 0
3281 1 34.04009623521272 15.379342719150516 5.200402128430267 0 0 0
3247 1 35.42621004338524 15.510152636010005 7.5193517560965955 0 0 0
3569 2 37.18828163969853 15.421104646372033 5.260554641189789 0 0 0
3535 1 38.91813687851159 15.393988710911461 7.474763495573861 0 0 0
3857 1 40.7805712841827 15.271945099271022 5.300066284921587 0 0 0
2995 2 32.15956329065904 20.037565572269603 7.536346828227008 0 0 0
3823 1 42.29977701070662 15.389939162674114 7.479752572566885 0 0 0
3029 1 30.788254905614217 20.01729130964089 5.047601760152358 0 0 0
2707 1 29.271012121931243 20.11626468308247 7.2760829484499805 0 0 0
2706 1 29.007718352686652 17.7997548108127 5.09365917648635 0 0 0
2996 1 30.732244817247725 17.676748358522755 7.338037226744791 0 0 0
3317 1 33.87799047086399 20.155685104299014 5.184588124084227 0 0 0
3284 1 33.87957450969751 17.704607364728297 7.420332744353859 0 0 0
40 1 44.135863409851446 8.57893032098407 2.9873595207268115 -1 0 0
149 1 44.00758650921005 19.692799224989642 5.247503204377242 -1 0 0
3493 2 37.46780845618871 6.232063347051345 0.7132989174473474 0 0 0
3781 1 40.6588582017713 6.101965750453203 0.8156066515629945 0 0 0
3817 1 40.6043654847594 10.86812434180982 0.8493960969270189 0 0 0
2917 1 30.681541116230854 6.36904938250253 0.8565401214897208 0 0 0
2882 1 32.327431782262444 4.034292588784911 0.798057225973275 0 0 0
3746 1 42.55270974395053 3.994587975039647 0.7512852633557635 0 0 0
2989 1 30.64768755727991 15.46300682955526 0.7387002626031176 0 0 0
2702 1 28.77582060864517 17.589719500943154 0.7226740068407764 0 0 0
3205 1 33.99236023913529 6.236170551166079 0.7233174576027324 0 0 0
3854 1 42.422029581615824 17.581722596172092 0.7517547485022078 0 0 0
3025 1 30.636353197284194 19.753995817215877 0.7265800761987293 0 0 0
3241 2 34.04300780136319 10.890558909806714 0.810888817856565 0 0 0
2602 1 28.947980926774008 4.007755975991734 9.871245754557606 0 0 0
2892 2 30.478624137521713 4.082165025675396 12.360757604394944 0 0 0
2890 1 32.13356270703458 3.955520991888724 9.850876747153324 0 0 0
3180 2 34.13755550763103 4.009345913765335 11.977688404486432 0 0 0
49 1 44.13338050025814 6.43940932027629 14.363930241495956 -1 0 0
3178 1 35.86954872594773 3.9443820628042414 9.796580701570651 0 0 0
3468 1 37.45529601119273 4.084257586551308 12.085373644487584 0 0 0
3466 1 39.212904937674175 4.116794167868653 9.833840264218534 0 0 0
3756 1 40.755967775019606 4.047720551888757 12.149874710865063 0 0 0
3754 1 42.465266268673176 4.242712666857145 9.96129871025668 0 0 0
3868 1 40.81920309140478 17.856996512286518 16.33010613837176 0 0 0
2603 1 29.13145612034689 6.526921091490242 12.018345024419636 0 0 0
2925 1 30.666944773780074 6.36909078737929 9.79333416900093 0 0 0
2891 1 32.43670318987215 6.125665924820558 12.052827750348342 0 0 0
3213 1 33.989167951443356 6.001854187438286 9.83975060140056 0 0 0
3179 1 35.942382014375475 6.278670066848453 11.973817696118852 0 0 0
3501 1 37.463763714828524 6.2489912206639895 9.768951122561859 0 0 0
3467 1 39.07539069340351 6.338183520441515 11.998483721689428 0 0 0
3789 1 40.67081974850328 6.394500316434997 9.789121276888851 0 0 0
3755 1 42.60121249441465 6.538454309254877 12.051106007824592 0 0 0
3579 1 38.93831452031198 19.861624400938545 16.656540801822636 0 0 0
124 1 44.10206138214248 17.773599872316787 16.412807148224527 -1 0 0
2928 1 30.84724159726977 8.581737895898078 11.950676426915377 0 0 0
2638 2 29.15942185538242 8.626610562818774 9.820677503485907 0 0 0
2639 1 29.326172446096777 10.717440055217502 12.015880256708014 0 0 0
2961 1 30.69203233305639 10.790086207764213 9.698435201133243 0 0 0
2926 1 32.475440636357916 8.487595820372329 9.697374266061733 0 0 0
2927 1 32.47329991670473 10.899180951484992 12.09581741356753 0 0 0
3216 1 34.05023240494005 8.66655973466466 11.99967323868425 0 0 0
3249 1 34.05466635596172 10.755344924524568 9.787511127071248 0 0 0
3214 1 35.73690604577599 8.44568931129827 9.755913178442205 0 0 0
3215 2 35.73871538344961 10.864665663675577 11.934499150098562 0 0 0
3504 1 37.42963923899278 8.573284091082982 12.081408104946053 0 0 0
3537 1 37.418563544344536 10.953690798180453 9.711102199091311 0 0 0
3502 1 39.03970847904593 8.749754097211252 9.841806009657759 0 0 0
3503 1 38.93882125899913 10.915852743145352 12.000806270709424 0 0 0
3792 1 40.583499778502706 8.718131810377407 12.008709735078018 0 0 0
3825 1 40.65728618933155 11.111790405004866 9.718802170057808 0 0 0
3790 1 42.24542242591317 8.741716752628939 9.68764548651698 0 0 0
3791 2 42.33143161898728 10.83543620237429 11.911248365642617 0 0 0
2674 1 29.083185928261123 13.199476743537808 9.719046352905444 0 0 0
2964 1 30.758275766101796 13.06414590602761 11.92143844413598 0 0 0
2962 1 32.370556407165544 12.997741487983564 9.73864610786221 0 0 0
3252 1 34.12263923508833 13.16841272466997 11.936658424863513 0 0 0
3250 1 35.633232183407344 13.108196725636269 9.674508604356403 0 0 0
3540 1 37.28027019279234 13.115797453298413 11.924099463445307 0 0 0
3538 1 39.05910337045144 13.274657695575057 9.77039628095641 0 0 0
3828 1 40.72310415860834 13.213407297894245 12.066035808570062 0 0 0
3826 2 42.20544023471428 13.329467766633686 9.615871259651959 0 0 0
2675 2 29.06572557208525 15.453658665550565 11.911812321040351 0 0 0
2997 1 30.765644467332613 15.383285220515331 9.640657584817568 0 0 0
2963 1 32.271940012293136 15.338064437914241 12.167450612008741 0 0 0
3285 1 33.990964250651956 15.30201726321735 9.85642896407885 0 0 0
3251 1 35.577037043749165 15.491812106298715 12.01032649595807 0 0 0
3573 1 37.2647769334055 15.435918493375171 9.81239802827665 0 0 0
3539 1 38.86734419072348 15.481083776634806 12.008383942200986 0 0 0
3861 1 40.68131764949036 15.481847508646409 9.942881796452816 0 0 0
3827 1 42.478492378768 15.628301942423493 11.934921948572276 0 0 0
3867 2 42.51533873965327 20.10556595053828 16.478218912076525 0 0 0
3033 1 30.703283529502443 19.8418490334479 9.800152185550552 0 0 0
3000 1 30.6764549944644 17.71950751164333 12.128010516931162 0 0 0
2710 1 29.218289633277756 17.685556179159047 9.883352232094383 0 0 0
2711 2 28.94525063022735 19.925677533145176 12.238762055878222 0 0 0
2999 2 32.427544947196864 20.019034825077313 12.005597494171253 0 0 0
3288 1 33.89903973289726 17.651019249826923 11.983945786693079 0 0 0
2998 1 32.34865182916209 17.691071192863973 9.786108964088601 0 0 0
3321 1 33.84832090080902 19.86253287611081 9.676326190843307 0 0 0
3286 2 35.51903783633054 17.69255530085738 9.565823304449713 0 0 0
3287 1 35.54807626877626 20.05826833205092 12.001642748512161 0 0 0
3576 1 37.10505227373757 17.750308126225104 11.984547574667769 0 0 0
3609 1 37.11447017204839 20.080027018173503 9.795212937879148 0 0 0
3574 1 38.90205496384478 17.759774425257532 9.683359699392648 0 0 0
3575 1 38.87040186395828 20.026852968803503 12.092733023653393 0 0 0
3864 1 40.465553500392005 17.734176339607494 12.118205762613734 0 0 0
3897 1 40.67256218833668 20.010673084747463 9.930863072945323 0 0 0
3862 1 42.07095040740289 17.808317909321477 9.95325848315733 0 0 0
3863 2 42.437581321010526 19.834776412130957 12.18150158985831 0 0 0
3866 1 42.379011922177945 17.86035638304893 14.16831624675353 0 0 0
3290 1 35.53124680070545 17.910442083183888 14.29140269477255 0 0 0
2606 2 28.889878223601688 4.120765034939429 14.36548223168993 0 0 0
2896 1 30.687680969347845 3.995116178718562 16.611268740177337 0 0 0
2894 1 32.54193924795455 4.080628423655511 14.378880759041344 0 0 0
3184 1 34.0987814671922 4.030957497298911 16.6766112356549 0 0 0
3182 1 35.66504722359212 4.00530514822848 14.231891118114076 0 0 0
3472 1 37.393917969582354 4.25888750479567 16.451931977323433 0 0 0
3470 1 39.2566045264229 4.08934188469132 14.30233875751652 0 0 0
3760 1 40.78006112022755 4.383943611512715 16.702012818535735 0 0 0
3758 1 42.550876490918924 4.17712556081702 14.367144964945972 0 0 0
2607 1 29.083819747437936 6.365448710220361 16.637958135324972 0 0 0
2929 1 30.76122922648201 6.2513093272144 14.360777437497068 0 0 0
2895 1 32.58744776546272 6.434245638507529 16.569196071899583 0 0 0
3217 1 34.15774498075521 6.334386950065142 14.212222900145948 0 0 0
3183 2 35.793490059413564 6.336090488008642 16.54922479884305 0 0 0
3505 1 37.37461427783536 6.331582821113895 14.195935554058208 0 0 0
3471 1 39.072100986491705 6.586365191088314 16.513951911329276 0 0 0
3793 1 40.72693677663768 6.58273612648262 14.390920532685758 0 0 0
3759 1 42.4205870072963 6.49243474464235 16.517383730580605 0 0 0
2932 1 30.74493553339118 8.558694530484761 16.578349550353483 0 0 0
2642 1 29.189050974664823 8.34316016157598 14.220713829150197 0 0 0
2643 1 29.178404686501878 10.833352750160445 16.374853212932436 0 0 0
2965 1 30.79098822633204 10.891696710522123 14.201739356735894 0 0 0
2930 2 32.49648490234963 8.791734958850165 14.349779785272467 0 0 0
2931 1 32.566152001702825 10.822976381236947 16.365474788360615 0 0 0
3220 1 34.24175240071266 8.602891908964835 16.660680716484304 0 0 0
3253 1 34.137210887613406 11.013484760860317 14.222164962543964 0 0 0
3218 1 35.81492718274907 8.647150096865907 14.310056933694781 0 0 0
3219 1 35.85025381077487 10.958156314255392 16.5229874738583 0 0 0
3508 1 37.29189105078932 8.70076187478975 16.82220729609353 0 0 0
3541 1 37.29028811035097 10.991995671905519 14.19940311575353 0 0 0
3506 2 39.035641779592325 8.773426234645978 14.341935965837653 0 0 0
3507 1 38.990246991495695 10.916683158709258 16.540813952006452 0 0 0
3796 1 40.81576905503504 8.878716715411011 16.374593491907795 0 0 0
3829 1 40.70584903961787 11.04850219517271 14.251476935768313 0 0 0
3794 1 42.41731370443466 8.857916508020175 14.152949166027355 0 0 0
3795 1 42.27423142704502 11.232098898920235 16.6469208841608 0 0 0
3901 1 40.58599111653245 20.02181732640683 14.33806955382893 0 0 0
3578 2 38.81861490474164 17.88422228408259 14.402914480299819 0 0 0
2678 1 29.087319473011796 13.152002134800167 14.318427168660156 0 0 0
2968 1 30.846522942708397 13.112756890434358 16.598580410766047 0 0 0
2966 1 32.39937213775833 13.229874559612123 14.321121613123992 0 0 0
3256 1 34.10420078186718 13.171056723159735 16.7811589920753 0 0 0
3254 1 35.78960923818806 13.277694151154462 14.231360410999159 0 0 0
3544 2 37.37618547952901 13.371463453346376 16.492417115976338 0 0 0
3542 1 38.88457811069264 13.308761106309241 14.194922786282705 0 0 0
3832 1 40.58519118935098 13.517024704893085 16.528135730365644 0 0 0
3830 2 42.35522636710928 13.400965928649843 14.296873970379393 0 0 0
2679 1 29.04520176271256 15.382996371486774 16.57758437470111 0 0 0
3001 1 30.641469817408357 15.415103437868561 14.294718412180389 0 0 0
2967 1 32.365716624842925 15.308962733740058 16.395968525942777 0 0 0
3289 2 33.99960991868033 15.480848131842299 14.23139320223004 0 0 0
3255 1 35.730485154116266 15.422556624946393 16.43706199366522 0 0 0
3577 1 37.25796117892 15.578244335907556 14.211078898048568 0 0 0
3543 1 38.934943766419224 15.861227195440613 16.414592323681 0 0 0
3865 1 40.3729853373507 15.552435573847365 14.175709773810594 0 0 0
3831 1 42.346015519849956 15.501048001385726 16.308699186419588 0 0 0
3037 1 30.80462831349871 19.987414190035263 14.18190806305665 0 0 0
3004 1 30.66829035946227 17.753467569454564 16.59135817715351 0 0 0
2715 2 29.114152987807756 20.035886787681655 16.581348539514273 0 0 0
2714 1 29.00344736269456 17.832005709441354 14.088945088222818 0 0 0
3325 1 33.775651505011865 20.15284494171209 14.372279129838493 0 0 0
3292 1 34.0827700173862 17.65505547727281 16.750254444160564 0 0 0
3003 1 32.27323274091223 19.960339157228738 16.770497911253234 0 0 0
3002 1 32.39364829963329 17.673069409161712 14.34146194762991 0 0 0
3580 1 37.01520207901763 17.808872492131478 16.62970164639227 0 0 0
3613 1 37.23601206041329 20.146151694889255 14.388555299947212 0 0 0
3291 2 35.42345012803437 20.128962242377142 16.583115055661487 0 0 0
84 1 43.935719721665144 13.2355771165846 11.827965649167758 -1 0 0
81 1 43.98536601249249 10.882798123675013 9.618147745897673 -1 0 0
153 1 44.01822978483892 19.82017131052619 9.755611762366598 -1 0 0
117 1 43.96721956462007 15.59877782104937 9.698235648101157 -1 0 0
52 1 44.0188416929758 8.809346281189463 16.59121631492022 -1 0 0
85 1 43.99627937051905 11.159367850266863 14.210728007317416 -1 0 0
88 1 44.10118795814636 13.364561804427465 16.622180996195546 -1 0 0
121 1 44.11953964500368 15.527440940671502 14.120663395321682 -1 0 0
2610 1 29.03633506839023 4.113027154868764 18.788730395311024 0 0 0
2898 1 32.33881886365103 4.062072235836828 18.90685341639093 0 0 0
3186 1 35.83182572533934 4.1668947292032215 18.84981178497227 0 0 0
3872 1 40.63870061891952 17.75457276051393 21.015320621406904 0 0 0
3474 1 39.05856389598936 4.092516460412674 18.80635027454418 0 0 0
3764 1 40.92872959376998 3.9669245326243567 21.096380084276444 0 0 0
3762 1 42.635816718617555 4.022065389262028 18.81314432095662 0 0 0
56 1 43.95592593581683 8.6000398025073 21.17176965740871 -1 0 0
2933 1 30.63334471876138 6.342788191407332 18.89075998964345 0 0 0
2611 1 28.902475842917227 6.303957133094682 21.131955879569233 0 0 0
3221 1 34.146238127818556 6.326055340944341 18.99216609744049 0 0 0
2899 1 32.31403415061796 6.3163219774303885 21.03773819471874 0 0 0
3187 1 35.73236339618704 6.433825619380667 21.162364954191354 0 0 0
3509 1 37.46117141383179 6.5028536675798945 18.971921910828325 0 0 0
3475 1 39.272390263762496 6.188685999673324 21.140807044472897 0 0 0
3797 2 40.629078141066316 6.385143492897883 18.822344275323008 0 0 0
125 2 43.963003820102806 15.559942918896946 18.70992686071885 -1 0 0
2646 1 29.01197517125304 8.592183813815058 18.68256404681446 0 0 0
2647 1 28.97221084466586 10.784401911102 20.893884349233808 0 0 0
2969 1 30.75632177389752 10.767717419408497 18.793382922459628 0 0 0
2934 1 32.34407274729491 8.443418445521798 18.67606112807068 0 0 0
2935 2 32.19459000483848 10.918744736297132 21.105342186266927 0 0 0
3224 1 33.81416391289022 8.634183595940573 21.00580292763752 0 0 0
3222 2 35.68644825715001 8.726797939561516 19.11319912121913 0 0 0
3223 1 35.7570907438084 10.723246362745979 21.071330527751556 0 0 0
3545 1 37.43888489854954 11.067704051312969 18.813255379118356 0 0 0
3512 1 37.56535236335149 8.625259251075253 21.218397004853454 0 0 0
3510 1 39.13384221409078 8.766463088826606 18.845260617242797 0 0 0
3511 1 39.18678875974947 10.87656260572508 21.299925532547718 0 0 0
3800 1 40.710430307074034 8.513646335768655 21.232692024455798 0 0 0
3833 1 40.596522498831 11.024808492848168 18.979737118726256 0 0 0
3798 1 42.30864547985211 8.796510241481833 18.821815471887522 0 0 0
3909 1 40.839334976509335 19.847299627639714 23.233525933437623 0 0 0
2682 1 29.070503882746408 13.094628045181448 18.818950271655 0 0 0
2972 1 30.64592319000039 13.214546978143542 21.08686133299518 0 0 0
3257 1 33.96546603585523 10.760899218866035 18.902865414577228 0 0 0
2970 1 32.372380361388075 13.143907896825278 18.88960164823531 0 0 0
3258 1 35.864973972960655 13.277022424796703 18.84965465823099 0 0 0
3548 1 37.43730655353921 13.136809766437215 21.113782274281363 0 0 0
3546 1 39.047649185813576 13.255371684618854 18.76403934704054 0 0 0
3836 2 40.59767810718456 13.144603970098434 21.102275347401335 0 0 0
3834 1 42.389756549857495 13.273313278791505 18.836716381117792 0 0 0
3005 1 30.671937060678303 15.385445503553383 18.90067063929636 0 0 0
3293 2 33.99393415791821 15.423976656475507 18.80310747428749 0 0 0
3581 1 37.510806990138626 15.544616530122257 18.566939892614403 0 0 0
3869 1 40.765952647897294 15.585025296582831 18.69044780469689 0 0 0
3547 1 39.11836863504257 15.452447389919689 21.01200870135012 0 0 0
3835 1 42.41381794923401 15.435600590572072 21.034316485969995 0 0 0
3041 1 30.624404866874684 20.04624645831774 18.967830694364537 0 0 0
2718 1 29.086878312934097 17.67109311714607 18.804122587821304 0 0 0
3008 1 30.529866841080647 17.792321540786485 21.247800775019172 0 0 0
2719 1 28.894579415084465 19.98546405771562 21.063595593010326 0 0 0
3007 2 32.289325211408844 19.82619785076209 21.19944179034346 0 0 0
3006 1 32.245712114394024 17.75375136021092 18.89835199169686 0 0 0
3296 1 34.07752617850533 17.748381265197885 21.037789159650256 0 0 0
3329 1 33.996330496377716 20.07954856320305 18.99014616153307 0 0 0
3294 1 35.70859666179763 17.611143886541505 18.849975565609554 0 0 0
3584 1 37.27769929008037 17.793841501489275 21.104944457512754 0 0 0
3295 1 35.740646815701666 20.09042585019906 21.242059857901737 0 0 0
3617 1 37.230122829492366 19.977913114496165 18.70110821643771 0 0 0
3582 1 39.04732191811722 17.80557244054313 18.749097234874615 0 0 0
3583 1 38.98805817876988 20.02865518653769 21.000837889934164 0 0 0
3874 1 42.421981343281736 17.689776671977818 23.200202138729303 0 0 0
3870 1 42.55824513066569 17.857037601594314 18.745459368105085 0 0 0
3905 1 40.72679565365917 20.038642690738694 18.785123129541187 0 0 0
2900 1 30.67916316274716 4.200330196077281 21.114529359028857 0 0 0
2614 1 29.02255782212572 3.9886089873953967 23.352932310955897 0 0 0
3188 1 34.00881125632961 3.9925059427828646 21.097740081792246 0 0 0
2902 1 32.31781337980884 4.006136410423324 23.419736377172107 0 0 0
3476 1 37.494735603307916 3.9755158136533097 21.16579078041261 0 0 0
3190 1 35.65908101823194 4.012452552441135 23.229763104714397 0 0 0
3478 1 39.221572811543375 4.097694872214332 23.420059622654566 0 0 0
3766 1 42.477531776551395 4.069064593149262 23.41363847592854 0 0 0
2937 1 30.69803147231456 6.367639924231874 23.25855475942186 0 0 0
3225 1 34.00116666106941 6.2126740755217735 23.342152448028983 0 0 0
3513 1 37.426843518674644 6.206086854646652 23.4216706320339 0 0 0
3801 1 40.75330622250591 6.35166750562152 23.56767225718249 0 0 0
3763 1 42.40586468198498 6.265493292351988 21.121100426917142 0 0 0
2936 1 30.751790657596217 8.653678308740542 21.08459188517529 0 0 0
2650 1 28.841996564716357 8.5146110829204 23.259489647752844 0 0 0
2973 1 30.47543636445019 10.940936162206548 23.32800110115626 0 0 0
2938 1 32.26642636647049 8.710520198144554 23.328930053882996 0 0 0
3261 1 34.02981022907116 10.918797550359624 23.237077338415943 0 0 0
3226 2 35.79538595404428 8.598422324403295 23.27376756785116 0 0 0
3549 1 37.37384405847466 10.772783463844396 23.3527608892375 0 0 0
3514 1 38.990517270344526 8.632036877204598 23.575777328450364 0 0 0
3837 1 40.77730924573673 10.723406835375402 23.639119104220168 0 0 0
3871 1 42.54556019058515 19.873339521916165 20.92155650960139 0 0 0
3802 1 42.61124839259537 8.582519165103747 23.45436271036324 0 0 0
3799 1 42.256273749086645 10.794570879190335 21.210994388524657 0 0 0
2686 1 28.98864381081497 13.289244830146075 23.454738043714332 0 0 0
2974 1 32.23388019774002 13.064412433502612 23.29543745600671 0 0 0
3260 1 34.11590826384539 13.090205267844798 20.896799512884254 0 0 0
3262 1 35.799443034920124 13.0205855319288 23.310387460303463 0 0 0
3550 1 39.13671739867167 13.169873485019759 23.63004748621651 0 0 0
3838 1 42.13431401670821 13.053411607811208 23.347161107220753 0 0 0
2683 1 28.992581655397522 15.435750510237927 21.169101489843506 0 0 0
3009 2 30.675351419572088 15.48444645676911 23.536398810723103 0 0 0
2971 1 32.35255245132075 15.51794497252109 21.147752340555634 0 0 0
3297 1 33.95171422150695 15.412782210244828 23.33363617577512 0 0 0
3259 1 35.850174983567136 15.445326072670994 21.013258466408747 0 0 0
3585 1 37.411668637631756 15.221289535059098 23.463469358202484 0 0 0
3873 1 40.81404524919624 15.404988064777566 23.272247021044606 0 0 0
3586 1 38.89663910441946 17.680249692224038 23.402503145755094 0 0 0
2722 1 29.02378668627648 17.611821835052847 23.582913120708113 0 0 0
3045 1 30.571196753028374 19.923323688041418 23.478001105498016 0 0 0
3010 1 32.323229151693546 17.659874816498494 23.340580882843692 0 0 0
3333 1 33.878376865762284 19.910411441901495 23.64000246341099 0 0 0
3298 1 35.65653845762272 17.741796607542305 23.583294698533724 0 0 0
3621 1 37.30047830874336 20.082292559954855 23.405810388402717 0 0 0
129 2 43.99422758472138 15.31372204372865 23.272007212918552 -1 0 0
92 1 43.93196991307771 13.125230893825176 21.200724594051895 -1 0 0
89 1 43.9964788064876 10.993467775828774 18.999791360739586 -1 0 0
53 1 44.07396352401484 6.436817303361361 18.836701892151503 -1 0 0
128 1 44.140767604538034 17.575106521560727 21.03456396317877 -1 0 0
2618 1 28.87515826409065 4.1702931317514595 27.996906355734318 0 0 0
2904 1 30.609371888868587 4.082963719399981 25.596850576622266 0 0 0
2906 1 32.256321224362885 3.9360948086248135 27.838530947066612 0 0 0
3192 1 33.97518947425039 4.068732481240971 25.645923727661412 0 0 0
3194 1 35.64321527161344 4.06643592850647 27.900817076628517 0 0 0
3480 1 37.32506825720908 4.118445659070671 25.466601990413317 0 0 0
3482 1 38.87084881557432 4.0645244482228 27.880240020988094 0 0 0
3768 2 40.81220428505439 4.001144874155295 25.823662986951152 0 0 0
3770 1 42.81120894524962 4.100040753046468 27.96579271799883 0 0 0
3879 1 42.449478197942604 20.05423669091647 30.097632092083288 0 0 0
2615 1 28.965529602052307 6.381812781378525 25.536327887311348 0 0 0
2941 1 30.638371005005588 6.258714956193938 27.79585956059376 0 0 0
2903 2 32.25813238835397 6.3806903346354265 25.572513286118472 0 0 0
3229 1 33.88546569094821 6.304916474262266 27.876157226291355 0 0 0
3191 1 35.595392347164115 6.364460863178062 25.595547531639305 0 0 0
3517 2 37.38871988309155 6.472803952378202 27.79164828879848 0 0 0
3479 1 39.12978284437417 6.3404539963236095 25.65564960600312 0 0 0
3805 1 40.81904451425074 6.084180542402242 27.804275323038574 0 0 0
3767 1 42.41486342760428 6.287899105101308 25.754787105556773 0 0 0
2940 1 30.67587569196437 8.818814483193679 25.427068279161393 0 0 0
2654 2 29.0923833229608 8.585468558723388 27.649932115994076 0 0 0
2651 1 28.937234356767014 10.990296134209666 25.659927820048352 0 0 0
2977 1 30.601898154031723 11.03367231606305 27.918483019929806 0 0 0
2939 2 32.382256088201046 10.879318370651134 25.418753781546272 0 0 0
2942 1 32.258707559190526 8.655192685867089 27.603002175466862 0 0 0
3228 1 34.02115155742912 8.590534853433748 25.46261080157342 0 0 0
3265 1 33.96524613362794 10.919101209119855 27.748972530143433 0 0 0
3230 1 35.522922262623126 8.654544018617589 27.79734640360779 0 0 0
3227 1 35.715829325005345 10.765886281291058 25.523220701577262 0 0 0
3516 1 37.416505428061015 8.539169460793332 25.70701790340055 0 0 0
3553 1 37.29582198716027 10.900606685569398 27.944614266381596 0 0 0
3518 1 39.19909206004064 8.476620138989947 27.848888965300016 0 0 0
3515 2 38.90741862422559 10.783803875651001 25.62172605350985 0 0 0
3804 1 41.02157405804509 8.664185177566559 25.69602939349238 0 0 0
3841 1 40.753170549710006 10.923424350142977 27.78925891523759 0 0 0
3806 1 42.39401705709108 8.627045868852793 27.95889390978009 0 0 0
3803 1 42.75943783182269 10.944186873470615 25.558858731566474 0 0 0
2690 1 28.95522689098788 13.212973334997175 27.915426296213138 0 0 0
2976 1 30.787249187703182 13.222519203798305 25.70588583220976 0 0 0
2978 1 32.36615125656324 13.089540135944256 27.91336836930591 0 0 0
3264 1 34.10640575477223 13.088775698409334 25.63986158942119 0 0 0
3266 1 35.57550596604579 13.235107232434727 28.003206131511202 0 0 0
3552 1 37.259477132911854 12.968374147166918 25.616491537890482 0 0 0
3554 1 38.95709648577049 13.133771170800628 27.873773357121916 0 0 0
3840 2 40.88412999546186 12.975219379395178 25.77341040041256 0 0 0
3842 1 42.599170202500396 13.029961076637957 27.949950744281 0 0 0
2687 1 28.782258000363523 15.359227685797505 25.70841643070232 0 0 0
3013 2 30.62655251091944 15.399959945932837 27.85716899853989 0 0 0
3012 1 30.618629420487018 17.723723193694333 25.812395146799073 0 0 0
2975 1 32.426818273474304 15.51138230046803 25.711579394246908 0 0 0
3301 1 33.94789647750363 15.34966317743918 28.1616561708912 0 0 0
3263 1 35.66856525789867 15.393743675337689 25.72029395187965 0 0 0
3589 1 37.34848640240884 15.434681432757772 27.83292397250691 0 0 0
3551 1 39.05676333806459 15.180605026747354 25.69658723381423 0 0 0
3877 1 40.8090438569822 15.262287163689253 27.906496197418676 0 0 0
3839 1 42.30690491356045 15.39116570089796 25.52874940279243 0 0 0
2723 1 28.8343057353093 19.994217790585026 25.809132718233236 0 0 0
2726 1 28.851649335328226 17.75133932639948 28.02389456580602 0 0 0
3049 1 30.60209271026787 20.007026416302644 28.024619068136612 0 0 0
3014 1 32.52794721622134 17.699723948609098 28.050319018784393 0 0 0
3011 1 32.2264084057689 20.164997904258122 25.83439802746039 0 0 0
3300 1 34.019945468094576 17.835622571154587 25.773400298537457 0 0 0
3337 1 33.87936341472718 20.07699323246885 28.067988771311445 0 0 0
3299 2 35.72341234039904 19.98816701959332 25.86404707928034 0 0 0
3302 1 35.617728215342744 17.829362163795302 27.904763281671 0 0 0
3588 1 37.45607422751358 17.61403711378962 25.827058835163033 0 0 0
3625 1 37.52683198642167 19.934425204747292 27.954646670550403 0 0 0
3587 1 39.020319256404825 19.95017552140355 25.62349985853651 0 0 0
3590 2 39.23842380581386 17.659805501533413 27.9402781995087 0 0 0
3876 1 40.563198045420485 17.773688949965138 25.46756135985392 0 0 0
3913 1 40.79125594647291 20.108106361519138 27.7914347008285 0 0 0
3875 1 42.306893171665656 19.959889753299308 25.50818804673181 0 0 0
3878 1 42.210053121078 17.596122450762465 27.730266303541256 0 0 0
3882 1 42.633813993428234 17.82278402675355 32.263949770095095 0 0 0
2622 1 29.181104872578125 3.981725521948751 32.41409445180382 0 0 0
2908 1 30.66389964867274 3.954317568272174 30.197448092460586 0 0 0
2910 1 32.29474408208702 4.118626097908891 32.30111499436214 0 0 0
3196 2 34.0101209897568 4.2232199321407915 30.14701004796148 0 0 0
3198 1 35.815831789932716 4.075881471426925 32.41989362597018 0 0 0
3484 1 37.36798042997218 4.19742867077483 30.05509904334203 0 0 0
3486 1 39.05439432071018 4.147689471334901 32.25275059494317 0 0 0
3772 2 40.860965923430534 4.067290971796197 29.904031609077176 0 0 0
3774 1 42.28545421391998 4.052994548234874 32.29223311184797 0 0 0
2619 1 29.04360047377707 6.3436494278061115 30.107273604113917 0 0 0
2945 1 30.594318563485672 6.368401529410828 32.43819416870391 0 0 0
2907 1 32.10689506269624 6.409967368430031 29.99604868390288 0 0 0
3233 1 33.878821424748416 6.463859021905109 32.30942923533293 0 0 0
3195 1 35.7010585705779 6.498882945688015 30.004725608097953 0 0 0
3521 1 37.15435962026245 6.361317115026244 32.43902280026126 0 0 0
3483 1 39.01599373645229 6.266149267379804 30.212703099237526 0 0 0
3809 1 40.88806211524158 6.367346782467782 32.52072831161955 0 0 0
3771 1 42.4731126249371 6.326848534658577 30.126577771906316 0 0 0
132 1 43.91602000828185 17.651744054503364 25.741532403049348 -1 0 0
2944 1 30.67532469295621 8.784319570927684 29.918926897269746 0 0 0
2658 1 28.890378577585228 8.669056995939911 32.251004810810784 0 0 0
2655 1 28.947432626587954 11.0126375855151 30.08053514644221 0 0 0
2981 1 30.680007312506802 10.978220002385536 32.39354963645417 0 0 0
2946 2 32.29741827116297 8.815019697545768 32.31682740087179 0 0 0
3232 1 33.75556041272714 8.634389463444972 29.911435925287115 0 0 0
2943 1 32.380677860447065 11.12139245109603 30.13252168947036 0 0 0
3269 1 33.97817159888731 10.963887362803334 32.31389334785061 0 0 0
3520 1 37.32742197885927 8.698369808580392 30.016065962187156 0 0 0
3234 1 35.48482548289889 8.61199327403639 32.209379176177706 0 0 0
3231 1 35.45535588217434 11.054513135734735 30.092394778515008 0 0 0
3557 1 37.3251019614928 10.90598579038264 32.384633524870125 0 0 0
3522 1 39.14626703965871 8.442653283892183 32.42151778344842 0 0 0
3519 1 39.122850004114575 10.861437468805722 30.094175471185196 0 0 0
3808 1 40.660504644683826 8.486980278265523 30.1442764760489 0 0 0
3845 1 40.976675959383414 10.8308324458297 32.48606546614808 0 0 0
3341 1 34.075367450054834 20.011521152027058 32.45531231897216 0 0 0
3594 1 39.127687640745194 17.80377538757146 32.423668469275086 0 0 0
3810 1 42.49759360528707 8.523125854133813 32.44415164469558 0 0 0
3807 1 42.40764583495729 10.804767303291372 30.123732795415258 0 0 0
2980 1 30.601673894200978 13.200225739671568 30.17805933374091 0 0 0
2694 1 29.03152707109458 13.280722672820511 32.5677038081018 0 0 0
2982 1 32.36913949514619 13.166332627700477 32.54917175290137 0 0 0
3268 2 33.90648962852234 13.452017889094563 30.229933124280922 0 0 0
3270 1 35.69017931378878 13.202245908134051 32.376418206686296 0 0 0
3556 1 37.436167938117485 13.20364125116115 30.240230715935727 0 0 0
3558 1 39.21288439179049 13.074979182043482 32.34781337724541 0 0 0
3844 2 40.66416043144755 13.132883665190596 29.94569126543961 0 0 0
3917 1 40.85975422091515 20.042767446623667 32.34933650796542 0 0 0
3846 1 42.30919071103789 13.229774433660339 32.22088904710098 0 0 0
2691 1 28.85797952919538 15.450457640813443 30.1373097168045 0 0 0
3017 1 30.479838158111058 15.522212517317724 32.31858070778583 0 0 0
2979 1 32.0955063265163 15.594192739385516 30.18734692351293 0 0 0
3305 1 34.017543560116735 15.443330829195208 32.38968297980168 0 0 0
3267 1 35.90203643562969 15.50023215942615 30.21611692751888 0 0 0
3593 2 37.51269086164896 15.494145288309845 32.4689207226064 0 0 0
3555 1 39.129109903641265 15.586113350487693 30.15045076271293 0 0 0
3881 1 40.922332714923556 15.582649917900124 32.565798724933394 0 0 0
3843 1 42.51498598070559 15.443734379271417 30.12996146260096 0 0 0
3016 1 30.575300223720745 17.80383289468648 30.095006867977826 0 0 0
2730 1 28.853749114320404 17.87592640139183 32.30943938836854 0 0 0
2727 1 28.811732701615743 20.07776115884001 30.14505053523011 0 0 0
3053 1 30.41562498017671 20.141923731413396 32.401385354409314 0 0 0
3015 1 32.311935905869056 20.011572999506253 30.322810152663916 0 0 0
3018 1 32.290015195749135 17.65144950820276 32.36344623302318 0 0 0
3304 1 34.11383229878375 17.784613914193578 30.294717735961914 0 0 0
3303 2 35.7624191611494 20.00193680960343 30.16776171729473 0 0 0
3629 1 37.44919329891047 20.093525172455326 32.3662912955388 0 0 0
3306 1 35.87471448212668 17.738807542062606 32.43801678736681 0 0 0
3592 1 37.439859116054826 17.719311005357532 30.018013944517325 0 0 0
3880 1 40.98944629571434 17.718334278918622 30.129774306591163 0 0 0
3591 1 39.137678276446245 19.940400092218216 30.12404433611622 0 0 0
100 1 44.05569811559968 13.080294923749404 30.077444749899243 -1 0 0
97 1 44.10010081437022 10.718845797045427 27.96631802673678 -1 0 0
24 1 44.069736113756456 4.058709009362499 25.6024492607407 -1 0 0
101 2 44.03402386728834 10.776200932678668 32.47155895427691 -1 0 0
137 2 44.124101991223654 15.271825990677574 32.389953548452326 -1 0 0
96 1 44.10473302930433 13.302253787328992 25.387044892731325 -1 0 0
133 2 44.028141945153855 15.441518402591806 27.633505722248238 -1 0 0
65 2 44.07067638213035 6.236624863654333 32.35354488054958 -1 0 0
2626 1 28.991170613218777 3.9858367567700226 36.89188923724981 0 0 0
2912 2 30.680950045230887 4.074641990945695 34.648590914806775 0 0 0
2914 1 32.451863416648585 4.021536991839857 36.79237748419976 0 0 0
3200 1 33.94188741766133 4.219202594905834 34.59235244554448 0 0 0
3202 1 35.707539220445284 4.125412053694949 36.91876298531764 0 0 0
3488 1 37.38603278284501 4.074781564747038 34.54857011892612 0 0 0
3490 1 39.126903708441084 3.848074055320249 36.88045134583501 0 0 0
3776 1 40.629757477644084 4.107280331735682 34.71593006601013 0 0 0
3778 1 42.468882409538985 4.060855052490803 36.8519695374643 0 0 0
104 1 43.99884995197302 13.095910716350954 34.43489403423696 -1 0 0
2623 1 29.01926155026399 6.395435103549278 34.59811907003251 0 0 0
2949 1 30.719171998939615 6.23729050777369 36.87022553615934 0 0 0
2911 1 32.35271374184422 6.3993353980523695 34.721188631643614 0 0 0
3237 2 33.9986824355138 6.45434685187893 36.912012633513555 0 0 0
3199 1 35.6362888690891 6.281432900608442 34.66632416069264 0 0 0
3525 1 37.4181201655619 6.2166390811221826 36.91686947596453 0 0 0
3487 2 38.92131318895835 6.438861731781976 34.46086722107678 0 0 0
3813 1 40.66263202097923 6.310071926390766 36.76924135912191 0 0 0
3775 1 42.598955030796546 6.31527852871624 34.7254003755086 0 0 0
2948 1 30.462898473973546 8.675513405641027 34.52991929866819 0 0 0
2662 1 29.164146962495522 8.543016266470314 36.98239703966223 0 0 0
2659 1 29.043164286384958 11.173787829212376 34.64925002302094 0 0 0
2985 1 30.741060159417707 11.00108239464203 36.85984753694767 0 0 0
3236 1 34.036394632170236 8.59034263777465 34.54705348091926 0 0 0
2950 1 32.25285653982905 8.616588129285706 36.820926110854 0 0 0
2947 1 32.31215650111434 10.905120561894321 34.576390209335145 0 0 0
3273 2 33.998727989922834 10.83280430361351 36.74958434783662 0 0 0
3238 1 35.85937242960135 8.645006374184714 36.85124838301661 0 0 0
3235 1 35.65439974986504 10.753498726002542 34.54259013648115 0 0 0
3524 1 37.258050834397324 8.597350822476008 34.62417467274592 0 0 0
3526 1 38.95263908706163 8.44186709714726 36.81310713229408 0 0 0
3523 1 39.09322966520416 10.745623156513348 34.624074764048316 0 0 0
3812 2 40.812690036647496 8.504298779942426 34.72030627574139 0 0 0
3849 1 40.73961653012462 10.755208717669529 36.72255645468522 0 0 0
3814 1 42.415410361729236 8.638858685812398 36.928978593261476 0 0 0
3811 1 42.4681434628793 10.774628103168457 34.69844954601753 0 0 0
3242 1 35.739732336409325 13.2131944056239 41.40799353837774 0 0 -1
2698 1 28.80197999852204 13.191655393721536 36.94392396523055 0 0 0
2984 2 30.559378163349805 13.35264424696009 34.896308685880754 0 0 0
2986 1 32.35694703953646 13.218628650409787 37.06598871793378 0 0 0
3272 1 34.100872333582984 13.074358272862556 34.79521203027335 0 0 0
3274 1 35.80240092506159 13.079837951590115 36.776697167706985 0 0 0
3561 1 37.63035610918841 10.840748693870117 37.01175255757752 0 0 0
3560 1 37.517145341947696 13.104350771603995 34.49288715504781 0 0 0
3562 1 39.03433009461974 13.048768647544557 36.859295680882525 0 0 0
3887 1 42.307259154494865 19.71589283687716 39.18844080805739 0 0 0
3848 2 40.838787618394385 13.090610369525496 34.60837862026277 0 0 0
3850 1 42.546763127852685 13.200889134878308 36.84605479541362 0 0 0
2695 1 28.76808748538866 15.424411524280004 34.56954883202894 0 0 0
3021 1 30.556921593237966 15.333418532504432 36.993124915370714 0 0 0
2983 1 32.50966941008429 15.34503488254774 34.65137746640053 0 0 0
3309 1 34.09494918876301 15.388256749561084 36.9793509887552 0 0 0
3271 1 35.84320457258 15.326973824624202 34.63244331456981 0 0 0
3597 1 37.55792072719199 15.56822511358426 36.89500819910447 0 0 0
3559 1 39.0968886024892 15.324870693274248 34.75421556090264 0 0 0
3885 1 40.6321171922247 15.381090755345134 36.99835057294844 0 0 0
3847 1 42.487153997768836 15.399541878736844 34.76997011008815 0 0 0
3057 1 30.486155181917056 19.904278971925663 36.711683385933185 0 0 0
3020 1 30.69462884293005 17.64323610325612 34.5953595304875 0 0 0
2731 1 28.530445180218887 20.048399567348515 34.66209505416893 0 0 0
2734 1 28.884235790451758 17.66414721580812 36.86478306264543 0 0 0
3022 1 32.17660666169079 17.550374588198174 36.762729616054585 0 0 0
3308 1 34.09470263560972 17.58866620352677 34.57804480962736 0 0 0
3019 1 32.37077005268098 20.064695715818495 34.531015771176456 0 0 0
3345 1 34.08336737095377 19.982800169542948 36.947581798734575 0 0 0
3633 1 37.53687247186817 20.03715724830428 36.7677497403013 0 0 0
3596 1 37.47719768971872 17.641962983602827 34.75567331446908 0 0 0
3307 1 35.72060838057616 19.966209182420442 34.6308974353239 0 0 0
3310 1 35.814602844841055 17.73827518630172 36.990173176716056 0 0 0
3595 1 39.26511131346993 20.018780832974453 34.58661098587261 0 0 0
3598 2 39.11103135727989 17.74239127837165 36.98827955396624 0 0 0
3884 1 40.744064537731866 17.69371821245436 34.535502429412546 0 0 0
3921 1 40.71211873776441 20.07369970230133 36.92973705725795 0 0 0
3883 1 42.43950473954909 20.008889132996796 34.567872025210434 0 0 0
3886 1 42.25450628566037 17.592485691109275 36.95763175141553 0 0 0
2916 1 30.605541448267573 3.942924363674493 39.233306673810006 0 0 0
3530 1 39.1300347304112 13.187230601538435 41.306375286065375 0 0 -1
2954 1 32.47498617143926 13.070963616603962 41.30526153374292 0 0 -1
3204 1 33.998912189041114 4.038246967271075 39.23156782018228 0 0 0
3492 1 37.48124488854842 4.141263319703631 39.13889256588662 0 0 0
3780 1 40.861317412363164 3.990318665202058 39.02626569303692 0 0 0
3851 1 42.62079128440535 15.20323591844179 39.14434361824473 0 0 0
2627 1 29.142512204977578 6.175117324357567 39.26559793403055 0 0 0
2915 1 32.28852583979249 6.21757062103959 39.24000163055344 0 0 0
3203 1 35.792735249742115 6.241895021135372 39.220872153702544 0 0 0
177 1 43.914001654136534 19.664617063219374 37.012318751461336 -1 0 0
3491 1 39.11385467360042 6.217683261852053 39.22227754466522 0 0 0
3779 1 42.32084603029458 6.2730199110282525 39.223033012947425 0 0 0
2952 1 30.665635968481183 8.569954601572556 39.319799852820026 0 0 0
2663 1 29.041711795466476 10.74228405801858 39.09087778807444 0 0 0
2990 1 32.417009323421034 17.696355885753277 41.37740626795407 0 0 -1
3313 1 34.090199880548234 19.811681085457465 41.1658393774124 0 0 -1
3240 1 33.95999811151195 8.513001022211899 38.98987605698906 0 0 0
2951 1 32.5408024903636 10.89485005780706 39.13271490865243 0 0 0
3239 1 35.55937742117416 10.777961041573464 39.00642752917105 0 0 0
3528 1 37.37493006549663 8.53586642743085 39.136952925481495 0 0 0
3023 1 32.09393008341416 19.87413329917223 39.11772108626283 0 0 0
3527 1 39.2174966252367 10.875776592397242 39.25004526973065 0 0 0
3816 1 40.660578025005236 8.398171058455326 39.191292111577766 0 0 0
3312 1 33.9382187408725 17.6659646186528 39.111008423254745 0 0 0
3311 2 35.922543666098825 19.83822099042419 39.00167162529631 0 0 0
3815 1 42.38037747927942 10.755737400063655 38.946175944053266 0 0 0
2988 1 30.574476196827824 13.106242734556854 39.1683705133827 0 0 0
3599 1 38.992240829383334 19.701670107805835 39.20070663310274 0 0 0
3276 1 34.265787271163965 13.163633619741903 39.10549697245456 0 0 0
144 1 44.138808733647934 17.462504953638078 39.214292824890094 -1 0 0
3564 2 37.197506108327374 12.868872241314802 39.11740942396021 0 0 0
2735 1 28.828061309764625 19.82373710690174 39.105732075377816 0 0 0
3852 1 40.921409845102296 13.033063518489392 39.08565161267448 0 0 0
2699 1 28.885992005887612 15.430100805079993 39.17196520964309 0 0 0
2987 2 32.26571599271645 15.300997454196755 39.132437245424114 0 0 0
3600 1 37.54604392513351 17.47161485893016 39.25202349111565 0 0 0
3275 1 35.89620787010285 15.336316846302493 39.139319048527625 0 0 0
3888 1 40.6611975552092 17.220365519565913 39.31868775164915 0 0 0
3563 2 38.83715766632517 14.997744377626539 39.14130325003062 0 0 0
3024 1 30.617265502760965 17.522729079173928 39.16497198054948 0 0 0
3853 1 40.50974208842756 15.425272137902358 41.42494350556362 0 0 -1
140 1 44.120073997019446 17.640660179271975 34.59317415605561 -1 0 0
72 1 43.94284763642716 8.475208761463968 39.3620327801538 -1 0 0
3170 1 35.843848739832595 4.0796513905032645 41.325488652286595 0 0 -1
3458 1 39.18303591546814 3.787456331703088 41.375348886167515 0 0 -1
3206 1 35.66331782418494 8.525336639843943 41.30124453874609 0 0 -1
68 1 44.08626231534879 8.65770533791109 34.689638088930906 -1 0 0
3277 1 34.08650354617882 15.38593561365578 41.3131392559508 0 0 -1
2953 1 30.91821830198228 10.77904086954644 41.38497345301549 0 0 -1
73 1 43.932680167932936 10.827436765324006 41.40129739911771 -1 0 -1
2666 1 29.1443866220334 13.037376111955707 41.370892411713925 0 0 -1
32 1 44.06376373088959 3.947858160536568 34.68473565158581 -1 0 0
3529 1 37.31188276201292 10.867836449655993 41.19622474919649 0 0 -1
3601 1 37.265429624858584 20.001190695537925 41.44188127416129 0 0 -1
2918 1 32.385126415850195 8.482502671775688 41.371523268266415 0 0 -1
3278 1 35.82716462561757 17.69112274788327 41.33017322625923 0 0 -1
3889 1 40.817416168386806 19.911141227741588 41.42606976865468 0 0 -1
2630 1 29.0957569088853 8.650232130237503 41.436843260661085 0 0 -1
3028 1 30.758906792467172 22.259088162463865 2.8505120808501085 0 0 0
188 1 44.06845223149596 26.613725174773247 7.561480065807984 -1 0 0
3316 1 33.87973393149303 22.251366993584618 2.955205059457654 0 0 0
148 1 43.945185774204205 22.08578748791459 2.9126595003785223 -1 0 0
3604 1 37.1513584597075 22.186340507896162 2.902072385368907 0 0 0
3421 1 34.06716464781648 33.518521057715375 0.7600185443377545 0 0 0
3892 1 40.80848616542545 22.118153042197523 2.954362869225117 0 0 0
185 1 44.041804258174125 24.514805506228534 5.273003489184262 -1 0 0
2739 2 28.977735721534657 24.51209465928215 2.874548414378495 0 0 0
3064 1 30.411546991159042 26.922133243074814 2.9835163506462954 0 0 0
3173 1 34.128102565434276 38.03934312637398 5.294008773533214 0 -1 0
3027 1 32.01748136350247 24.548613695603162 2.9514396016757325 0 0 0
3315 2 35.72051282653049 24.428394590630177 2.7819688422708153 0 0 0
3603 1 38.99350744227946 24.287368172699786 2.9821193875169554 0 0 0
3891 1 42.2693926189786 24.5622911942182 2.906942045422252 0 0 0
3709 1 37.46556912964411 33.60084847837909 0.720496022929566 0 0 0
2775 1 28.712358808513716 29.070684552223852 3.0940272044634898 0 0 0
3063 1 32.34320690291915 28.931017606937342 3.007113360370818 0 0 0
3352 1 33.96034752857028 26.718048043583632 2.9007258089458348 0 0 0
4003 1 42.54428577703326 37.99102506210433 7.34285810255026 0 0 0
4004 1 40.945351682958304 35.770654218400345 7.494042871857858 0 0 0
3351 1 35.733797350341554 28.97966650785189 3.0651708330648795 0 0 0
3640 1 37.43634263779159 26.71667965537309 3.160763205063035 0 0 0
4002 1 42.603801059982125 35.78495124570927 5.147754635730134 0 0 0
3928 1 40.52173737516219 26.678406871796334 2.830983788036216 0 0 0
3639 1 39.153650421626246 29.096559239021456 2.968909539027741 0 0 0
184 1 44.044848030134254 26.658284462428036 2.8549111859194443 -1 0 0
257 1 44.095032612846694 33.4002970099382 5.0666209049524635 -1 0 0
3927 1 42.33400191680717 28.907308376763964 2.862388619102137 0 0 0
3428 1 33.93564902375137 35.79909876594766 7.400117669403375 0 0 0
3138 2 32.37307427261551 35.806709732600616 5.1216862177830755 0 0 0
3100 1 30.588974451153575 31.083949878578238 3.0110355248697522 0 0 0
3388 1 34.06100672392585 31.254943981730886 2.9862230137343744 0 0 0
3676 1 37.4627364914038 31.25966682119469 2.9082184885354647 0 0 0
3097 2 30.4295347629429 29.051972220546578 0.8981370641338238 0 0 0
3964 2 40.75266569153167 31.26373341387955 2.99465390535115 0 0 0
3715 1 39.18370229127137 38.152566768926455 7.6019789283195065 0 0 0
221 1 43.95123759307117 28.81189335636102 5.1282390977380725 -1 0 0
2811 1 28.97931448284985 33.42330594289247 2.9734721894131173 0 0 0
3099 1 32.24305254591949 33.34224970115367 2.8593980116734854 0 0 0
3387 1 35.69720030126592 33.57720329105105 3.0020059312387715 0 0 0
3675 2 39.14843005871802 33.52159478204494 3.143074266300602 0 0 0
3714 2 39.11760939397139 35.649576242880556 5.191577787012812 0 0 0
3963 1 42.37332440959368 33.40354782619646 2.791747583076139 0 0 0
3749 1 40.645946754850975 37.92427756968044 5.070714972833665 0 -1 0
3136 1 30.690982673884278 35.673904415822776 2.9438792716194064 0 0 0
2847 1 29.06448496972569 38.12531842091948 2.9970981781340638 0 0 0
3424 1 33.86799248295656 35.74642774812436 2.8436009614321285 0 0 0
3135 1 32.33848359416012 37.89381810897707 3.003536645655645 0 0 0
3712 1 37.287440353436494 35.658626003564315 2.98923168476159 0 0 0
3423 1 35.7735855440992 37.92588932727589 2.9442761286646 0 0 0
4000 1 40.899325589648754 35.76985616427855 2.9304357472450397 0 0 0
3711 1 38.944436158322354 37.93196030976027 2.9618782223418334 0 0 0
3426 1 35.736928195946206 35.649428300648246 5.228997661201493 0 0 0
3140 1 30.719663048458585 35.779355530571664 7.538751224349206 0 0 0
3999 1 42.635862891993035 38.070978229663176 2.9575885043596264 0 0 0
3716 1 37.56156236490017 35.75454994110618 7.503804247933853 0 0 0
2810 1 28.746769469439847 31.236538779087237 0.8256780753848674 0 0 0
2742 1 28.97856419822775 22.327427427040213 5.0849419751348535 0 0 0
3032 1 30.52541276035685 22.447626479789857 7.423565749991547 0 0 0
3030 1 32.274351317893704 22.274175576040737 5.303537249903562 0 0 0
3320 1 33.920639722825435 22.376283060315853 7.402368070916559 0 0 0
3318 1 35.68561473188014 22.219818972705948 5.308827129857989 0 0 0
3608 1 37.42290513429382 22.103830212144626 7.450090493271656 0 0 0
3606 2 38.95685270050708 22.417558441365678 5.0223179917665455 0 0 0
3896 1 40.49000495337405 22.191463506183087 7.5487652246808965 0 0 0
3427 1 35.752299184388676 37.91753462340863 7.567996724548129 0 0 0
3894 1 42.496168908638275 22.10888138125734 5.209200898090188 0 0 0
2743 2 28.64110804284283 24.509965081346902 7.541306823384038 0 0 0
3065 1 30.578066500698647 24.606889249546867 5.277824660056415 0 0 0
3031 2 32.419694272319475 24.61321382605451 7.3413157011140155 0 0 0
3353 1 34.06404188673214 24.572216047181403 5.0261322850915215 0 0 0
3319 1 35.60399578511086 24.468454076411522 7.56567448815477 0 0 0
3641 1 37.206828755067505 24.577049312263735 5.148419436600784 0 0 0
3607 1 39.16239805950535 24.449329444097835 7.425300650536789 0 0 0
3929 1 40.86961562270436 24.45044802836457 5.260028290759449 0 0 0
3461 1 37.45551149024764 37.89935330180329 5.439501250541706 0 -1 0
3895 1 42.36575802531066 24.337004594029153 7.547838724771331 0 0 0
3068 1 30.403217377282886 26.673476899178333 7.317976333991266 0 0 0
2778 1 28.719393927204617 26.89192553128721 5.279808981793383 0 0 0
2779 1 28.873060310089492 29.137066982182592 7.528222004779532 0 0 0
3101 2 30.567417266318103 28.93743407869742 5.194355287030024 0 0 0
3356 1 34.14470286415494 26.71521170004511 7.563696762481627 0 0 0
3066 1 32.304215118096714 26.779998360827783 5.139005425660941 0 0 0
3067 1 32.15726925690615 29.129375876556086 7.492842209130689 0 0 0
3389 1 33.8217110780552 29.08051943048548 5.350459335614886 0 0 0
3644 1 37.31897915409386 26.813893981269754 7.542353185927912 0 0 0
3354 2 35.605831062328775 26.959470194709166 5.2754652968075595 0 0 0
3355 1 35.68699835594161 29.05002796568511 7.493311310793316 0 0 0
3677 1 37.39550029089594 28.96506667605881 5.370004874073249 0 0 0
3932 2 40.89509159590659 26.71545050181188 7.493882490278839 0 0 0
3642 1 39.1535679982881 26.830638785517646 5.36434788721042 0 0 0
3643 1 39.29151122966406 29.060552319158184 7.558057582196317 0 0 0
3965 1 40.76121183770378 29.134435684532374 5.260548233865373 0 0 0
3930 1 42.294642196651424 26.844264165993348 5.191251731930645 0 0 0
3931 2 42.46539995049421 28.8804711014076 7.494170838832599 0 0 0
181 1 44.13255395381211 24.52002373733823 0.7880915292684336 -1 0 0
224 1 44.1188198133773 31.07791892463641 7.4500021785799815 -1 0 0
2814 1 28.951391397377847 31.224699752415898 5.163966161157858 0 0 0
3104 1 30.44181258158015 31.391795710867473 7.521613947518217 0 0 0
3102 1 32.14570334864297 31.345319748227805 5.191183011718621 0 0 0
3392 1 33.92695148402049 31.185484622348454 7.528998155212512 0 0 0
3390 1 35.76553318719045 31.27788794719398 5.254866951283748 0 0 0
3680 1 37.532694927605796 31.292197973195183 7.640642686787635 0 0 0
3678 1 39.06899642015541 31.271841701192084 5.258720446033598 0 0 0
3968 1 41.01012191448155 31.181262675366945 7.438973486600675 0 0 0
3139 1 32.44191486753709 38.133215727954365 7.365423511481188 0 0 0
3966 1 42.33453573148632 31.303351153560058 5.198725350061887 0 0 0
2815 1 29.0156126575677 33.6603942066953 7.472520885147431 0 0 0
3137 1 30.555761146708427 33.652975351761995 5.232573001058958 0 0 0
3425 1 33.927314955514895 33.4695841296465 5.234000598527153 0 0 0
3103 1 32.25016898381933 33.5906380863553 7.44033659414932 0 0 0
3391 1 35.608561866955796 33.517255210343386 7.537226911537198 0 0 0
3713 1 37.35335191757947 33.593840777289216 5.366446484999801 0 0 0
4001 1 40.97915428370299 33.674256583159575 5.138834204125707 0 0 0
3679 1 39.20726647685078 33.507564562707714 7.452340103129886 0 0 0
3967 1 42.747010707072455 33.4965505527786 7.337858492003447 0 0 0
2885 1 30.642240314972803 38.037288636927855 5.244659543273355 0 -1 0
2850 1 28.873608764497497 35.75539637165283 5.159434660166885 0 0 0
2851 1 28.841425292196902 38.023239066735314 7.486719053325327 0 0 0
3350 1 35.706360415017286 26.615029923570713 0.805626030263097 0 0 0
2881 1 30.76506754415754 38.01349267257283 0.7368191672062634 0 -1 0
220 1 43.98301047313837 31.22723258188451 2.8754368051562906 -1 0 0
3962 1 42.19893582032495 31.195897812893666 0.7695786607490303 0 0 0
3997 1 40.60617558397759 33.52228589988756 0.815406945272505 0 0 0
256 1 44.01858165579484 35.607234987034694 2.730925376668239 -1 0 0
3457 1 37.378463742865456 37.92967492541984 0.7178958017711352 0 -1 0
3710 1 39.191530656132414 35.829754012050316 0.7286123957725152 0 0 0
3385 1 34.150400454957186 28.921785491984945 0.7666198288624315 0 0 0
3602 1 39.08233411914417 22.07867605463723 0.7872154226647439 0 0 0
3422 1 35.81563033899552 35.75506045172959 0.7968968927144999 0 0 0
3098 1 32.34220893139449 31.081795606396533 0.7746179801514756 0 0 0
3062 1 32.20133214102653 26.671901848219406 0.7423309519388965 0 0 0
3349 1 34.073860543339 24.42111074590833 0.7437182301117247 0 0 0
2746 1 28.85942317524147 22.4206852847011 9.678826854221693 0 0 0
3036 1 30.534436330606603 22.07003594245543 11.905519932082557 0 0 0
3034 1 32.250366867170364 22.203858517409707 9.73004377926638 0 0 0
3324 1 33.91607438336315 22.388056704576098 12.20737747488034 0 0 0
3322 1 35.585984594068066 22.466958860034783 9.770585751641951 0 0 0
3612 1 37.310152460038935 22.361203177375494 12.071686542166063 0 0 0
3610 1 38.93811143959667 22.211985118926773 9.869841011742063 0 0 0
3900 1 40.72609434894474 22.32778474249388 12.098147341736764 0 0 0
3898 1 42.49480481213207 22.217988507721387 9.734415607754295 0 0 0
2747 1 29.041732815055433 24.540630007226117 12.107407563533364 0 0 0
3069 1 30.454168043566284 24.46350077541875 9.562855963946378 0 0 0
3035 2 32.19031826333665 24.523209126504906 11.910237849683009 0 0 0
3357 1 33.80727757434679 24.54294511632108 9.68785089580409 0 0 0
3323 1 35.62671723820004 24.55866279660777 12.032770808495766 0 0 0
3645 1 37.44962171941178 24.52539220996994 9.74925548293992 0 0 0
3611 1 39.01019210999032 24.47519788254987 12.147935859548362 0 0 0
3933 1 40.65665073546047 24.43219493345799 9.77168709360836 0 0 0
3899 1 42.43500802950467 24.524172914742753 11.974158988831206 0 0 0
2893 1 30.643289021259974 38.08752312462567 14.33140061182939 0 -1 0
3072 1 30.58155778859866 26.772358762282117 11.854864753553915 0 0 0
2782 1 28.92269179657788 26.645119254364637 9.725192442670725 0 0 0
2783 1 28.928028569325214 29.190797395731778 12.051066539238853 0 0 0
3105 1 30.513976340111398 29.16748421480858 9.76902550657613 0 0 0
3070 1 32.17746802254682 26.836287659400732 9.628313183576807 0 0 0
3071 1 32.19059420562353 29.15689263322404 11.955755962881899 0 0 0
3360 1 34.005987550983335 26.858249371690363 11.942288152665489 0 0 0
3393 1 34.07339148719093 29.040786802296388 9.78681081817676 0 0 0
3358 1 35.79482631375371 26.779065010764533 9.816407978829844 0 0 0
3359 2 35.8482305025528 29.054624918562368 12.026058205488416 0 0 0
3648 1 37.592270508166365 26.92086574093938 11.963453862456838 0 0 0
3681 1 37.514699913520936 28.98434035270549 9.832312420466819 0 0 0
3646 1 39.276224334737535 26.781567346517733 9.675920618443653 0 0 0
3647 1 39.151721265202404 29.23418704030323 12.0157817452212 0 0 0
3936 1 40.64862063569004 26.813406542083854 11.973377253649115 0 0 0
3969 1 40.85863747285086 28.99491631990833 9.938006622967489 0 0 0
232 1 44.04599830505831 31.29258620187737 16.56456021689035 -1 0 0
3934 1 42.37269982111532 26.70127618699547 9.824864413310577 0 0 0
3935 2 42.52289083513231 28.90135143525913 12.072301678040002 0 0 0
3434 1 35.82224776909609 35.722140611479034 14.166251510021178 0 0 0
2818 1 28.867120788981392 31.36891287158949 9.959881455989391 0 0 0
3108 2 30.734435381602736 31.498264592569363 12.129766547721275 0 0 0
3106 1 32.4213436200542 31.36069931539919 9.879695985883616 0 0 0
3396 1 34.173407156074596 31.267326697213697 11.957432113011784 0 0 0
3394 1 35.84142322718567 31.256100699720303 9.661775704378467 0 0 0
3684 1 37.43173530201653 31.470887767730954 12.133367348755433 0 0 0
3682 1 39.29418698341524 31.210521946394778 9.742363087663277 0 0 0
3972 1 40.835819464997805 31.391850914577255 11.973271079092862 0 0 0
3970 1 42.53586902477484 31.267663305312247 9.697141168560002 0 0 0
4010 1 42.51890642121934 35.86077954048495 14.319097347749802 0 0 0
2819 2 28.8605274752923 33.44461446192045 11.906445472806839 0 0 0
3141 1 30.826077550571192 33.460227483579125 9.89421455061941 0 0 0
3107 1 32.505212505727734 33.689480867615664 12.008570351283582 0 0 0
3429 1 34.00976149773042 33.53088765759801 9.694393442708124 0 0 0
3395 1 35.673018736078596 33.5152173044565 12.106181515495244 0 0 0
3717 1 37.45037385861274 33.550879084208745 9.572564110575897 0 0 0
3683 1 39.142995571617796 33.53483251608017 11.944216043375265 0 0 0
4005 1 41.01115656399158 33.59243161666946 9.67926766249291 0 0 0
3971 1 42.626022802972585 33.53383163477706 11.89494751690834 0 0 0
4012 1 40.75106115178622 35.8697180781312 16.536707392340453 0 0 0
3144 1 30.492989041822632 35.666774747495246 11.975626858099076 0 0 0
2854 1 28.921516228056667 35.73153164388066 9.691801729786313 0 0 0
2855 1 29.10361694818134 38.04025760249922 12.027533095146111 0 0 0
3177 1 33.97098904289653 38.115203706006334 9.894921806768728 0 -1 0
3143 1 32.18706269350052 38.08971317367811 12.086405695787548 0 0 0
3432 2 34.10985180225509 35.97220881326411 12.121569491638542 0 0 0
3142 1 32.416591472951445 35.7555578697652 9.831497768804706 0 0 0
3430 1 35.651548177326546 35.75918752645852 9.678281210818634 0 0 0
3431 1 36.00643002831367 37.95441896803883 11.925854374729411 0 0 0
3720 1 37.51017411135483 35.77325694591387 11.960184038840113 0 0 0
3465 1 37.63418561496279 37.9890700464074 9.809043578450447 0 -1 0
3753 1 40.89094907899988 38.22385756432799 9.680304094749363 0 -1 0
3718 1 39.25580498875478 35.82289967679277 9.691865259678012 0 0 0
3719 2 39.24940902570834 38.037050242887425 12.158945423518848 0 0 0
4008 1 40.970644738668604 35.80464459682455 12.016174142919548 0 0 0
2889 1 30.66365103896087 37.98947401502729 9.690709976203916 0 -1 0
4006 1 42.58195017649883 35.830032318826355 9.841797329317325 0 0 0
4007 1 42.529842384903404 38.13307462830518 12.13991520558683 0 0 0
3723 1 38.99798879515225 38.12387741601475 16.646738022166353 0 0 0
2750 1 29.05546244496245 22.297195265197836 14.311750426412774 0 0 0
3040 1 30.782267428363475 22.360176100883507 16.646305199455515 0 0 0
3038 1 32.16187394624134 22.42851249086139 14.286735787978863 0 0 0
3328 1 33.88719116020577 22.37651581468067 16.630481480035996 0 0 0
3326 1 35.64142285007017 22.35266191801642 14.428735446865263 0 0 0
3616 1 37.40917996193767 22.421005746456213 16.598766571593394 0 0 0
3614 1 38.97070473247069 22.240378732894214 14.263238113880707 0 0 0
3904 1 40.67857627352764 22.208963606079877 16.605922580715855 0 0 0
3902 1 42.4603406478832 22.197020279551662 14.206955716775694 0 0 0
2751 1 28.96226646316085 24.70457272646866 16.66966634076537 0 0 0
3073 1 30.61341081562172 24.576337849853786 14.461972164216268 0 0 0
3039 1 32.335108594597074 24.645314264813294 16.478074307635758 0 0 0
3361 1 33.91285812938579 24.59392222668651 14.162669619554118 0 0 0
3327 2 35.58888527163494 24.531544478010204 16.527281767647445 0 0 0
3649 1 37.284690628102055 24.52164858652656 14.348101988962048 0 0 0
3615 1 39.110248924906806 24.69349381896854 16.450830895844454 0 0 0
3937 1 40.78822560840446 24.537594714494382 14.207726521117749 0 0 0
3903 1 42.46666870799734 24.291005723899506 16.68047574771566 0 0 0
3757 1 40.98376746987219 37.997577953538126 14.604292686161791 0 -1 0
3076 2 30.693709196123258 26.901587888592868 16.57354585660746 0 0 0
2786 1 29.123366216484015 26.921016867045587 14.354613059949344 0 0 0
2787 1 29.151552991428424 29.019784031686324 16.522468068351706 0 0 0
3109 1 30.829792199216328 29.293480529789644 14.267162719162075 0 0 0
3364 1 33.99141476756053 26.99024748269166 16.436661566437735 0 0 0
3074 1 32.23430198986628 26.860549604620523 14.20164009760673 0 0 0
3075 1 32.389027184452935 29.16860649480485 16.58467190722869 0 0 0
3397 1 33.93849180348499 28.978574327798626 14.035616124088778 0 0 0
3362 1 35.697500528229014 26.919257989166905 14.197017452541104 0 0 0
3363 2 35.60967941867519 29.117696514221638 16.316090760288724 0 0 0
3652 1 37.215688116981134 26.76617194824441 16.567870083680887 0 0 0
3685 1 37.54308061310743 29.001079497041918 14.356658024447189 0 0 0
3940 1 40.8723366518093 26.77103756933031 16.455424737956136 0 0 0
3650 2 39.024384501797236 26.611652199076442 14.394989900832906 0 0 0
3651 1 39.14480040156237 28.8476309327337 16.628304216747317 0 0 0
3973 1 40.549155543085284 28.9950765865946 14.322337040919022 0 0 0
3722 1 39.114932652688765 35.8947817769396 14.217853914594444 0 0 0
3938 1 42.38622119278684 26.84554473137876 14.146306711593757 0 0 0
3939 2 42.45342956326107 29.023139387978983 16.421795895290913 0 0 0
3435 1 35.705654894824605 38.091464263709234 16.55257741838349 0 0 0
2822 1 28.741038461136885 31.26295957072996 14.049945057936368 0 0 0
3112 1 30.55516850890706 31.422907269705394 16.525751633693424 0 0 0
3110 1 32.49468883447811 31.40051237120063 14.300628422277187 0 0 0
3400 1 34.22694972751442 31.527469661229553 16.592957849729835 0 0 0
3398 1 35.672933416264286 31.23526777853556 14.252926245752644 0 0 0
3688 1 37.390302913965634 31.396529487452394 16.623162556664937 0 0 0
3686 1 39.12816209000814 31.209125780449256 14.338539663495856 0 0 0
3976 1 40.836953903263705 31.2028969156118 16.481995312584132 0 0 0
3974 1 42.481503251053695 31.133189307388022 14.323073794637086 0 0 0
2823 1 28.952806927946064 33.74420273830161 16.467730487370893 0 0 0
3145 1 30.66656746451347 33.53418059759858 14.230762765717444 0 0 0
3111 1 32.152979848456475 33.58974409024077 16.471982676362643 0 0 0
3433 1 34.05938909173012 33.64174909889347 14.368637382120312 0 0 0
3399 1 36.006457679549435 33.624833690223966 16.659967227446067 0 0 0
3721 2 37.45868235899061 33.53029151910313 14.275051646684151 0 0 0
3687 1 39.188293045078254 33.49596841095485 16.45515501640832 0 0 0
4009 1 40.89800328545491 33.59803497755055 14.277842248727362 0 0 0
3975 1 42.38440826731266 33.55314308330283 16.491125704089477 0 0 0
4011 1 42.440682478358504 38.142873025637634 16.74031005377216 0 0 0
3148 1 30.654556076537254 36.019351140902685 16.686508413465088 0 0 0
2858 1 28.92030028595088 35.73729935362786 14.385230717487836 0 0 0
2859 1 28.872342209449116 38.11785198279432 16.685310779039085 0 0 0
3181 1 34.054125680156034 37.913642848226765 14.295048833020072 0 -1 0
3147 1 32.43675471549299 38.094733879236706 16.695513351784875 0 0 0
3146 1 32.33198981610714 35.95079502856844 14.220737952421148 0 0 0
3436 1 34.1038059736994 35.83123368418149 16.537857609230322 0 0 0
3724 1 37.49764749483918 35.85833419019733 16.547220161888198 0 0 0
3469 1 37.43791556646711 38.20562418083249 14.29616733912927 0 -1 0
13 1 44.13703445625296 38.073248106666895 14.339159327045474 -1 -1 0
156 1 44.13030511315665 22.18213298952143 11.955554587429878 -1 0 0
196 1 43.98232224480238 26.74045172762331 16.495251387178996 -1 0 0
265 1 44.104767629515855 33.40797722204713 14.179056008888809 -1 0 0
189 1 44.141317225424515 24.492185502510353 9.770428578022415 -1 0 0
193 1 43.992126084507944 24.5242220843272 14.159041575630551 -1 0 0
264 1 44.13735460926013 35.92397837562654 12.055163185955191 -1 0 0
268 1 44.100073842117474 35.89794135511245 16.563055364601965 -1 0 0
228 1 44.14426300625685 31.145258195509218 12.007701772885252 -1 0 0
2754 1 29.04879685055866 22.46715573867251 18.79385287871184 0 0 0
3044 1 30.624658312688403 22.156673421847326 21.289683231211363 0 0 0
3042 1 32.38286986732643 22.261063795819044 19.00216765609772 0 0 0
3332 1 33.96643392782037 22.151121797589923 21.152443714877325 0 0 0
3330 1 35.7644481117077 22.284603352238307 18.9254488732886 0 0 0
3620 2 37.38740812555325 22.391226544161828 21.247827033936634 0 0 0
3618 1 38.83126171339731 22.249504850807654 18.949081612498922 0 0 0
3908 1 40.85794320525505 22.178315084511663 21.06846121638899 0 0 0
3906 2 42.474339856438085 22.308528135063842 18.6913649764922 0 0 0
3077 1 30.769563742830442 24.762905033076713 18.895780377108537 0 0 0
3365 1 34.118815406306794 24.555455894658877 18.83030016204359 0 0 0
3043 1 32.25362245559614 24.56495768979601 21.01231121372728 0 0 0
3653 1 37.3253952922761 24.527526270810007 18.798352968342368 0 0 0
3941 1 40.66919950890049 24.46559738570538 18.800565782848334 0 0 0
233 1 44.10022584719515 29.027840544378066 18.706589144771232 -1 0 0
2790 1 28.840320326125987 26.805534007066747 18.749472486225194 0 0 0
3113 1 30.772004403489206 29.105209002557086 18.893332921416814 0 0 0
3078 1 32.443031435678506 26.933069051925536 18.736543595781445 0 0 0
3401 1 34.123971957209484 29.262316411453995 18.823890265196617 0 0 0
3366 1 35.493371708865084 26.779679813026526 18.842363913269757 0 0 0
3689 1 37.31594449537646 28.8973665505037 18.79172351724719 0 0 0
3656 1 37.28842370496712 26.762592452032884 21.01604164457357 0 0 0
3654 2 39.09370460799003 26.777064601937457 18.70727157797124 0 0 0
3655 1 39.12479048525221 28.798072565321153 20.925472707408172 0 0 0
3977 1 40.922683722598926 28.890527934411615 18.77967480960395 0 0 0
3942 1 42.47113747221506 26.545982093437114 18.788419813335363 0 0 0
4015 1 42.6026139842089 37.93641937386626 21.22210362600509 0 0 0
2826 1 29.016785396466716 31.280022550663134 18.884242224778898 0 0 0
3114 1 32.2263415340716 31.31567700608025 18.831007036165065 0 0 0
3402 2 35.86987124809023 31.558501362490205 18.902113006827545 0 0 0
3690 1 39.18141868858094 31.23358620161659 18.797594813691546 0 0 0
3980 1 40.773203967024564 31.195360107981504 21.126628545412938 0 0 0
3978 1 42.47559190967611 31.18293511641055 18.780716223673775 0 0 0
3149 2 30.572992347020936 33.71519568603523 18.704781398398126 0 0 0
3437 1 33.98687615304657 33.53202423718466 18.770459403933245 0 0 0
3725 1 37.735980396873565 33.50953705897551 18.858077032514256 0 0 0
4013 1 40.77694380742247 33.426168960578885 18.85238445733014 0 0 0
164 1 44.13593920024365 22.076475092738715 21.049284900857977 -1 0 0
2862 1 28.804942807626563 35.90964727311765 18.77135896709912 0 0 0
2897 2 30.709330715136858 37.94705080224053 18.797743993917077 0 -1 0
3150 1 32.37347666299687 35.82722272855471 18.763834966144692 0 0 0
3185 1 34.18685788355234 38.090471211013366 18.931171392441676 0 -1 0
3438 1 35.720824756572966 35.829236714338954 18.89164821053232 0 0 0
3726 1 39.32151304833987 35.74191965583496 18.861732175100382 0 0 0
3727 1 39.012898818860066 37.94919982003468 21.096541847676857 0 0 0
3761 1 40.91760571679024 38.07269731070723 18.961655560968286 0 -1 0
4016 1 40.958037319244205 35.82691783703514 21.148257047928823 0 0 0
4018 2 42.67517630988102 35.81446820524257 23.532259618846197 0 0 0
4014 1 42.51627153934243 35.63380803358929 18.776452228692513 0 0 0
2758 1 28.910797447403333 22.42898207346821 23.32802368427904 0 0 0
3046 1 32.252608450763404 22.194561562497185 23.528852614139932 0 0 0
3334 1 35.530143901211 22.321875357239033 23.484995704984176 0 0 0
3622 1 39.209921369635474 22.098943048016924 23.432816344265092 0 0 0
3910 1 42.42236378522725 22.191595717922286 23.465513582018144 0 0 0
2755 1 28.935772148413037 24.47625637708492 21.11354831474526 0 0 0
3081 1 30.7190549932823 24.513225797701285 23.378549791979676 0 0 0
3369 1 33.83203255490889 24.540172820750662 23.217986620591187 0 0 0
3331 1 35.67085347505663 24.581090930656945 21.123043455610087 0 0 0
3657 1 37.36581836691302 24.352378242774915 23.347870652854084 0 0 0
3619 1 39.15169279008363 24.459940653365216 21.09845537082778 0 0 0
3945 1 40.92173657340467 24.451178059850086 23.213662502088976 0 0 0
3907 1 42.50217674821202 24.356700603907438 20.807202700507705 0 0 0
3080 2 30.563312242315 26.764609125250416 21.062193178797813 0 0 0
2791 1 28.928676435976925 29.025595799092248 21.04127049844639 0 0 0
2794 1 28.936340479644826 26.688205086208722 23.248932961449235 0 0 0
3117 1 30.65572168784165 28.81540714848215 23.2365350678124 0 0 0
3368 1 33.976778949918916 26.745112541532617 21.126583250543778 0 0 0
3079 1 32.46651280210121 29.018642756573882 20.846709625268325 0 0 0
3082 1 32.24985877297821 26.75744940759283 23.295965117340355 0 0 0
3405 1 33.963124292669676 28.89341263800807 23.32225385130733 0 0 0
3367 2 35.65729284963519 29.074689743926484 21.22766972753736 0 0 0
3370 1 35.89109191399717 26.679339662799503 23.257352252387783 0 0 0
3693 1 37.520301213395804 29.008054753435616 23.29884968009417 0 0 0
3944 1 40.84467354802193 26.69856180569658 21.03141094130791 0 0 0
3658 1 39.15573132300438 26.665344291309317 23.167035944101542 0 0 0
3765 1 40.74765549759263 37.90821703991157 23.419051672662544 0 -1 0
3943 2 42.44883750960193 28.917908384792433 21.050260925972434 0 0 0
3946 1 42.52378402787009 26.91125469548855 23.270032695105858 0 0 0
3116 1 30.669378713249763 31.444171759418985 21.079303834046662 0 0 0
2830 1 29.076831703753598 31.175138827964307 23.348402799129726 0 0 0
3118 1 32.351921399304 31.265291708368835 23.45089178081173 0 0 0
3404 1 34.013302578245536 31.27257454118398 21.016919799045198 0 0 0
3692 1 37.50813759100664 31.20620460030194 21.03566595413307 0 0 0
3406 1 35.60866081747293 31.20599782841322 23.185154743225873 0 0 0
3694 2 39.1361557664721 31.346483972496948 23.48470743561072 0 0 0
3981 1 40.70564173546404 28.992432289238053 23.26959381737613 0 0 0
3473 1 37.60758450967885 37.92795574165031 18.88203790590998 0 -1 0
3982 1 42.61016873077587 31.204489697744606 23.352746339986215 0 0 0
2827 1 28.92463701246607 33.631186683030535 21.00043353047239 0 0 0
3153 1 30.493407410567144 33.551933075271194 23.300601012836786 0 0 0
3115 1 32.33581798600387 33.60785241392685 20.909109613233582 0 0 0
3441 1 34.0494292675411 33.53141020635329 23.427211252230464 0 0 0
3403 1 35.57811922122865 33.41987956991572 21.14067564822282 0 0 0
3729 1 37.22355985230023 33.36638232261228 23.29764250102003 0 0 0
3691 1 39.18403890143749 33.547394139274616 21.18398786981045 0 0 0
4017 1 40.975805965689844 33.63037762111753 23.38570969221275 0 0 0
3730 1 39.0527559841883 35.63923954298597 23.292486854449194 0 0 0
3979 1 42.51739244555595 33.54771569805558 21.04923189973905 0 0 0
2901 1 30.676960535488455 38.02115373978356 23.484417292985835 0 -1 0
3152 1 30.67718656190401 35.8599770490436 20.85620223076151 0 0 0
2863 1 29.119021116856445 38.12304533651168 21.13893995962582 0 0 0
2866 2 29.00606184528865 35.82958161575373 23.207864028381177 0 0 0
3151 1 32.37874065859644 37.984636501509456 21.265251593002475 0 0 0
3154 1 32.32803302800808 35.70085956699998 23.209816548873256 0 0 0
3440 1 34.12952821627183 35.77117057770048 21.116128643765443 0 0 0
3189 1 34.07166737623981 37.87564298241417 23.48960151379539 0 -1 0
3439 1 35.87627463924748 37.98142111320502 21.2226957371426 0 0 0
3442 1 35.94603164901742 35.739626577708954 23.524605973407283 0 0 0
3728 2 37.41760537777367 35.69186495202254 20.984271914218287 0 0 0
3477 2 37.5152238930914 38.07650078716292 23.329537592323984 0 -1 0
2762 1 28.83553836209697 22.262785013076982 27.99467788510921 0 0 0
3048 1 30.476910982654395 22.356191603983447 25.83581427676016 0 0 0
3050 1 32.39348186199392 22.33457572966637 28.047825712215552 0 0 0
3336 1 34.02056322700668 22.218284867026505 25.73441215093458 0 0 0
3338 1 35.75714345582566 22.317403898339986 27.960601397647245 0 0 0
3624 1 37.34515738716426 22.321734888002112 25.72476276560844 0 0 0
3626 1 39.116430847191474 22.356764413282708 27.905714166872478 0 0 0
3912 2 40.77808542323175 22.250779035210332 25.74566085818691 0 0 0
3914 1 42.69638747268364 22.272134855943925 27.767495442681305 0 0 0
2759 2 28.86721346215195 24.56136084059218 25.498091118264874 0 0 0
3085 1 30.50914239919409 24.551536840527536 27.800096707692767 0 0 0
3047 1 32.30152273420946 24.489137392677414 25.699000441119374 0 0 0
3373 1 34.115430284666864 24.519586445420586 27.903745637106304 0 0 0
3335 1 35.61376984691743 24.57889072646178 25.56147727213652 0 0 0
3661 1 37.41596197471821 24.62333093055718 27.792334184411985 0 0 0
3623 1 39.07777921078641 24.50305473389524 25.491972459836582 0 0 0
3949 1 40.77207015560301 24.506146227187937 27.752062315939916 0 0 0
3911 1 42.427762266603544 24.50297822450059 25.507723656574754 0 0 0
3084 1 30.578739110109595 26.695517938239526 25.664466862307215 0 0 0
2798 1 28.719077944545187 26.684208415957848 27.812362318594563 0 0 0
2795 1 28.80674050081528 28.71000044912696 25.422843701527665 0 0 0
3121 1 30.44884427122959 28.916646727158238 27.687960042842363 0 0 0
3086 1 32.351135562416204 26.827778577606736 27.889582970720557 0 0 0
3083 1 32.38740198889624 28.929414371792006 25.470510687764076 0 0 0
3372 2 33.968335796818046 26.755747386867988 25.51099661218193 0 0 0
3409 1 34.00502202833618 29.034342208107052 27.674942143411943 0 0 0
3374 1 35.78260919099922 26.869697106205408 27.722758852378956 0 0 0
3371 1 35.66931420740463 29.07381864550539 25.43227391824314 0 0 0
3660 1 37.541695100807964 26.880154762758544 25.523736382090103 0 0 0
3697 1 37.367112876236945 29.090608520116454 27.797334017117482 0 0 0
3662 2 39.29225276484505 26.859143317864447 27.787556629414976 0 0 0
3659 1 39.34639476175663 29.114196445704735 25.66200444949088 0 0 0
3948 1 40.73060708003625 26.677719101233475 25.535293540319266 0 0 0
3985 1 40.92089214577368 29.20110268559789 27.94830894027213 0 0 0
3950 1 42.20466834763068 26.76407843191951 27.794236444773514 0 0 0
3947 1 42.47265847959968 28.922232423011565 25.51447839707314 0 0 0
4023 1 42.5848659517092 38.22856190281072 30.210807310669534 0 0 0
4024 1 40.956418653817074 35.90566501414497 30.239629244660073 0 0 0
2834 2 28.99453598247745 31.26508615721897 28.008745548689404 0 0 0
3120 1 30.48557189339239 31.1011876691335 25.73299438535274 0 0 0
3122 1 32.2502866709299 31.1991695325035 27.82649447178635 0 0 0
3408 1 33.93379531737642 31.257969218109736 25.688570140827935 0 0 0
3410 1 35.8226403534884 31.501852158555618 27.802946396408686 0 0 0
3696 1 37.39832794187251 31.196925197153895 25.57436251361299 0 0 0
3698 2 39.13281668536808 31.268148109898764 27.632889203318843 0 0 0
3984 1 41.05876446511494 31.294466526999063 25.63362717618098 0 0 0
3986 1 42.722215184353644 31.345951002021387 28.019184064740845 0 0 0
2831 1 29.100801241775265 33.52299308198346 25.744273815610754 0 0 0
3157 1 30.805004324619354 33.56240325836587 27.99219620794275 0 0 0
3119 1 32.26720927339953 33.52599674649084 25.480278655381326 0 0 0
3445 2 33.94526370549433 33.49009949882408 27.79329703399323 0 0 0
3407 2 35.69070168088529 33.57530846735797 25.748635251808913 0 0 0
3733 1 37.53344150104157 33.50832676232295 27.794996035108117 0 0 0
3695 1 39.10478490237989 33.41962522337057 25.447083189626508 0 0 0
4021 1 40.753057718458905 33.440883887451434 27.766526609638362 0 0 0
3983 2 42.53035255201786 33.63822122081025 25.637588392069507 0 0 0
3738 1 38.917502271160885 35.877091733116096 32.360638394409044 0 0 0
3156 1 30.563025611389264 35.84626942928989 25.52009447848776 0 0 0
2867 1 28.986309263252437 38.11173939059189 25.683755135700014 0 0 0
2870 1 29.040947047458168 35.701583582495516 27.873377610564948 0 0 0
2905 2 30.569241936419814 38.06657032621646 27.85501213153351 0 -1 0
3158 1 32.31530426039037 35.79387920741664 27.812553266828782 0 0 0
3155 1 32.28551134217477 38.04568942131747 25.675504856589413 0 0 0
3444 1 33.96135868966123 35.83063777852433 25.58447747817776 0 0 0
3193 1 34.12070326389097 38.04759286637182 27.800560495049098 0 -1 0
3443 1 35.72795423847066 38.01104481783474 25.563085274395192 0 0 0
3446 1 35.6629781319022 35.61407041796558 27.801155951247964 0 0 0
3732 1 37.614727963699124 35.65851748661536 25.66082448719776 0 0 0
3481 1 37.187505927543334 37.92436065176408 27.94706869675871 0 -1 0
3769 1 40.88961161451384 38.23521695399336 27.857784685180818 0 -1 0
3731 1 38.97613877562097 38.02610157494152 25.716167018382052 0 0 0
3734 2 39.21283939292241 35.754547088535986 28.035310556200525 0 0 0
4020 1 40.70146651925552 35.70668354299869 25.63982513664583 0 0 0
4019 1 42.54707540778925 37.85672734630088 25.530212166462945 0 0 0
4022 1 42.40304145271562 35.85158904100051 27.919702804459938 0 0 0
3735 1 39.04901126646024 37.97367003582025 30.09511528504232 0 0 0
2766 1 28.60887394015575 22.28357431038227 32.28583512678085 0 0 0
3052 1 30.663531351491017 22.26119212889847 30.14973321593318 0 0 0
3054 1 32.2800389672462 22.243173596881718 32.40023454378289 0 0 0
3340 1 34.10041055931689 22.277167615089272 30.231824368864128 0 0 0
241 2 44.119621871070244 28.982507895421755 27.90184298158881 -1 0 0
3342 1 35.655833753526096 22.307542782753266 32.38442057529078 0 0 0
3628 1 37.46221318563617 22.395173184942415 30.195991347954475 0 0 0
3630 2 39.11471417626625 22.30643916213413 32.42693747622154 0 0 0
3916 1 40.73021454566061 22.26742779093498 30.210648296560446 0 0 0
3918 1 42.46165964840276 22.282271650522794 32.43925899403661 0 0 0
2763 1 28.701782552337328 24.350420885278663 30.022530935293652 0 0 0
3089 2 30.499687506703907 24.42657155866611 32.189220408466696 0 0 0
3051 1 32.43457817713634 24.50334381181299 30.041734235994863 0 0 0
3377 1 33.88292625218945 24.67062154114069 32.42276157170903 0 0 0
3339 1 35.79881726964704 24.72924000709038 30.249948457479565 0 0 0
3665 1 37.631536089711915 24.522055981767164 32.457971370312485 0 0 0
3627 1 39.20306580879746 24.57489972648486 30.04719367937517 0 0 0
3953 1 40.77317628291804 24.528153954264386 32.437965342466406 0 0 0
3915 1 42.434571891002335 24.52849426436262 30.03246821070699 0 0 0
240 1 44.10791355549963 31.174885313346522 25.69695736595929 -1 0 0
3088 1 30.457428811464503 26.502514052267127 29.966438081993736 0 0 0
2802 1 28.96547424925182 26.650815401565954 32.37266225173859 0 0 0
2799 1 29.083016743510818 28.917939085098073 30.02313426428669 0 0 0
3125 1 30.588799221400095 29.16813237156688 32.44440504625919 0 0 0
3090 1 32.0019111733364 26.678675133897602 32.1970176862456 0 0 0
3087 2 32.07569376741356 28.959599900993226 29.97817270657477 0 0 0
3376 1 34.054551923954705 26.94852521323865 30.046923367147 0 0 0
3413 1 33.82650632041008 28.878528168458885 32.205097063971806 0 0 0
3378 1 35.68076967007938 26.745512279268727 32.465241367386206 0 0 0
3375 1 35.8315371418793 29.089085273788854 30.21907081453749 0 0 0
3664 1 37.584587676628146 26.929482517794842 29.954854744059602 0 0 0
3701 2 37.428154145970765 29.13292880469609 32.56152665755456 0 0 0
3952 1 40.82230932014124 27.000913992310043 30.10249177290925 0 0 0
3666 1 39.091699035435276 26.862835323644568 32.375691814526846 0 0 0
3663 1 39.107244657527126 29.114945379146167 30.130112695072 0 0 0
3989 1 40.798125425088074 28.96621601143653 32.33085219331485 0 0 0
168 1 44.121428289493835 22.077300477604066 25.420196293032348 -1 0 0
3954 1 42.623848705177195 26.858794079409044 32.39490405078212 0 0 0
3951 1 42.510487091270576 29.166315838492565 30.230683507950946 0 0 0
2838 1 29.000212909742395 31.407959292233805 32.51226827622612 0 0 0
3124 1 30.656808478521285 31.32550520143438 30.201785171877493 0 0 0
3126 2 32.340622330024615 31.325820548360145 32.491681524333856 0 0 0
3412 1 33.92075629070823 31.20748018506336 30.00753757909177 0 0 0
3414 1 35.46366574130839 31.156079868341468 32.424317062851955 0 0 0
3700 1 37.552021637082035 31.39047622282799 30.196259295869023 0 0 0
3702 1 39.20112986760914 31.243847933713692 32.390537688174255 0 0 0
3988 1 40.582251575360225 31.380472951530606 30.068088740842573 0 0 0
3990 1 42.38953542241541 31.33328222692401 32.293787307624484 0 0 0
2835 1 28.952513091830852 33.504979965089774 30.155361921054308 0 0 0
3161 1 30.741397490002022 33.48004197931152 32.47260191172973 0 0 0
3123 1 32.41555050174955 33.48826738116365 30.105901728153484 0 0 0
3449 1 34.05508002580471 33.69150399135435 32.544624280565884 0 0 0
3411 1 35.62582334770098 33.47286126342618 29.987983500400393 0 0 0
3737 1 37.2643907569074 33.52024201045757 32.22343490431208 0 0 0
3699 1 39.08809480117016 33.745003167351456 30.071133043624208 0 0 0
4025 1 40.68375272780433 33.70007171108065 32.34931615642028 0 0 0
4026 2 42.51759074558933 35.8659609922993 32.52024951295104 0 0 0
3987 2 42.32203409891451 33.40932266341908 30.044822771843727 0 0 0
2909 1 30.888624919716058 38.029978627317476 32.35932236249596 0 -1 0
3160 1 30.626611911252674 35.83715035630761 30.148133546823296 0 0 0
2874 1 29.098734340198313 35.86324080567101 32.37802097623451 0 0 0
2871 1 29.0185769117846 38.03652499687726 30.08577536027574 0 0 0
3162 1 32.36146614710758 35.79209164505152 32.32616381129414 0 0 0
3448 1 34.095472053172394 35.75286167270594 30.044214461899564 0 0 0
3197 1 34.012564899561646 38.08444325376881 32.38389002673818 0 -1 0
3159 1 32.46688014672457 38.125158417339016 30.05194577676922 0 0 0
3447 1 35.64734835078668 38.1157745095371 30.20122318417247 0 0 0
3736 1 37.277925313108106 35.7361284633693 30.015123213581248 0 0 0
3450 1 35.87471401238972 35.85289440532698 32.428913883312454 0 0 0
3485 2 37.410834736007345 38.08911675425223 32.34987293199774 0 -1 0
3773 1 40.54458474350513 38.05074904150226 32.4434258062794 0 -1 0
280 1 44.02316461403198 35.64169995832558 30.20484890998921 -1 0 0
208 1 44.07981565300036 26.783084829271395 29.891029670571974 -1 0 0
172 2 44.0591609249067 22.228315034776866 30.12850013770831 -1 0 0
205 2 44.033639481108146 24.71764653527744 27.758160799039665 -1 0 0
2770 1 28.75121781137107 22.19146157027932 36.85814257505504 0 0 0
3056 2 30.339940024535856 22.015358515614533 34.575967298039544 0 0 0
3058 1 32.151014140486545 22.139274115721054 36.694039859028635 0 0 0
3344 1 33.91481126941409 22.242950463795975 34.66344184200557 0 0 0
3346 1 35.795000021701064 22.086697234928153 36.876399659446434 0 0 0
3632 1 37.34305030543297 22.325834381904556 34.553120690526555 0 0 0
3634 1 38.98574968032686 22.29112583209241 36.847891333402 0 0 0
3920 1 40.769232997752106 22.40193008952513 34.709234322765184 0 0 0
3922 1 42.463456681381835 22.106447543897943 36.85793243902073 0 0 0
2767 1 28.99707991345425 24.36298347721452 34.60715892360243 0 0 0
3093 1 30.491149526229464 24.436600053286597 37.01037160968396 0 0 0
3055 1 32.05455561560922 24.440930879496136 34.44796497671233 0 0 0
3381 1 33.95366435429604 24.25700351875783 36.76772275669455 0 0 0
3343 1 35.53021244719398 24.562388899100213 34.46859411942441 0 0 0
3669 1 37.28937475339311 24.6146135453414 36.87523300111778 0 0 0
3631 1 39.07588873218364 24.531992803422998 34.72388177364242 0 0 0
3957 1 40.8248147488586 24.629097950585702 36.838484255831716 0 0 0
3919 1 42.61053524162249 24.541976813198552 34.57460958796369 0 0 0
3092 1 30.71855544574241 26.764733473188095 34.664031120751574 0 0 0
2806 1 28.84769841837292 26.811252750345016 36.87961076749622 0 0 0
2803 1 28.844111748941426 28.966285278598455 34.625422723070315 0 0 0
3129 1 30.82693963188064 28.8743128652858 36.8048518691451 0 0 0
3091 1 32.37735346889099 29.109286262971864 34.52410110673095 0 0 0
3380 2 33.84135764791151 26.77320340538457 34.38361192276744 0 0 0
3094 1 32.37765221858595 26.54877161337877 36.9310421809047 0 0 0
3417 2 33.89952913974675 28.989700151982998 36.88971773521685 0 0 0
3668 1 37.45919104186941 26.767532402017395 34.73467822460778 0 0 0
3382 1 35.39112060029491 26.68557560284601 36.770696088754946 0 0 0
3379 1 35.53698055915121 28.955589338744108 34.620700293701375 0 0 0
3705 1 37.12418125190751 28.864514712684066 36.867696215712854 0 0 0
3956 1 40.683787576265175 26.74388842206156 34.630893201147 0 0 0
3670 2 39.12076537426998 26.944011606795485 36.97059766883858 0 0 0
3667 1 39.31432542326987 29.027598653470303 34.646722470239155 0 0 0
3993 1 40.99918523741185 29.059587468767322 36.8550606520743 0 0 0
3958 1 42.50746626577035 26.755136412783756 36.95271967835292 0 0 0
3955 1 42.471993002118595 29.096907813926535 34.56545671856587 0 0 0
3673 1 37.357208062636744 29.021299814717388 41.37557759729823 0 0 -1
180 1 44.12528158409818 22.164862706934418 39.2193212174833 -1 0 0
2842 1 29.14856029462426 31.222691720229363 36.98943758455981 0 0 0
3128 1 30.656792183818574 31.20787621086572 34.73858414915226 0 0 0
3130 1 32.23886467920198 31.203361376472525 37.0328994453465 0 0 0
3416 1 33.95321516306567 31.42023888278178 34.89114804733222 0 0 0
3418 1 35.602780304549526 31.248132779285616 36.95407465705934 0 0 0
3704 1 37.38743280399983 31.178731147304056 34.634189517267615 0 0 0
3706 1 38.9527936463267 31.037311471195697 36.94539324800846 0 0 0
3992 1 40.80927512287833 31.359912935946525 34.75037967413415 0 0 0
3489 1 37.255684164864824 37.925186713079746 36.795067639425184 0 -1 0
3994 2 42.61143533265442 31.415876936271694 36.900871927841166 0 0 0
2839 1 29.219860226727853 33.51278664090576 34.592826069179495 0 0 0
3165 1 30.666242723257483 33.68110219185837 36.94570042158037 0 0 0
3127 1 32.219750017837775 33.51199675106979 34.68534751974077 0 0 0
3453 1 33.99446019613136 33.49252896096205 36.898445169670254 0 0 0
3415 1 35.7056676913513 33.46848528029898 34.62080754055722 0 0 0
3741 1 37.46539988736721 33.47146382072259 36.95643835575048 0 0 0
3703 1 38.90173568622095 33.46300375266044 34.510828170711264 0 0 0
4029 1 40.74860369872985 33.43010589241827 36.82389508433455 0 0 0
3991 1 42.49300996070347 33.61982255896044 34.59644421557428 0 0 0
3777 1 40.854488495759234 38.10465985434695 36.872685797435395 0 -1 0
3164 1 30.850071766079992 35.73818550783442 34.70766879588594 0 0 0
2875 1 29.09333814230392 37.95416702609172 34.6790588104092 0 0 0
2878 1 29.104674629311347 35.91964731270229 36.867268696636586 0 0 0
2913 1 30.750429297875378 38.11464593755431 36.8245766175077 0 -1 0
3163 1 32.38930973336109 38.062097757775206 34.55418798115747 0 0 0
3452 2 33.982217669552625 35.708569322771865 34.4896953836092 0 0 0
3166 1 32.422215648787216 35.82829210749789 36.938737536866924 0 0 0
3201 1 34.21611831457131 38.124792601647364 36.84096972126498 0 -1 0
3451 1 35.63301938729348 38.057823276321734 34.59721814076606 0 0 0
3454 1 35.55181423272716 35.69131347959571 36.77469905775524 0 0 0
3740 1 37.32439908486512 35.85043164704405 34.62943601383304 0 0 0
3890 1 42.56970317415392 22.18605669699252 41.34781555739718 0 0 -1
4028 1 40.561700909732565 35.849925751364026 34.656754057472185 0 0 0
3739 1 39.0899145828882 38.05454403809683 34.64021837986027 0 0 0
3742 1 39.10096164744598 35.718220083568845 36.91201433737092 0 0 0
3061 1 30.597741689835814 24.394456774083746 41.308076044497895 0 0 -1
4027 1 42.393201305290134 37.95161775109989 34.64263283874844 0 0 0
4030 1 42.4218742438609 35.81206143479634 36.77835096088603 0 0 0
176 1 44.045304617811446 22.22961302541711 34.646843069653116 -1 0 0
216 1 43.92572184549509 26.766348988982454 39.277881366152 -1 0 0
3060 2 30.552408021721646 22.138017225473366 39.00157430442344 0 0 0
3348 1 34.12268939630813 22.04486340025952 39.125453470626056 0 0 0
3636 1 37.43272719019605 22.241394705191443 39.16636616265525 0 0 0
253 1 44.015167861378195 33.407659429394045 41.131914231366 -1 0 -1
3924 1 40.865311347212504 22.157832093489077 39.118140470045674 0 0 0
3167 1 32.220425703736524 37.90669543349963 39.16163693393048 0 0 0
3961 1 40.66154721471771 28.87707367020685 41.303213240660895 0 0 -1
2771 1 28.78090522761638 24.346526193313306 39.068492012642764 0 0 0
3059 1 32.401861818819356 24.245741266568167 39.1585269080113 0 0 0
4032 1 40.78712437988762 35.78590750625256 39.11642292536327 0 0 0
3347 1 35.70794763465477 24.35188399771911 39.12966894628467 0 0 0
3168 1 30.679460195082427 35.65202138704293 39.157583203464256 0 0 0
3998 1 42.368837921840786 35.67645121409139 41.2899397803358 0 0 -1
3635 1 39.09007554388916 24.500052034065465 39.008437955360165 0 0 0
3923 2 42.46346692367312 24.45522651022334 39.183893198719005 0 0 0
3096 2 30.57865083843197 26.448115820926983 39.06551538872144 0 0 0
2807 1 29.073206157869926 28.725059604412667 39.17397705479394 0 0 0
2846 1 29.143517941936082 35.831955776792675 41.38458904203249 0 0 -1
3743 1 38.8957952030997 37.89690947892538 39.09982989316855 0 0 0
3384 1 34.03567075500597 26.603029178316 39.298440402509016 0 0 0
3095 1 32.2340862704253 28.86385708960285 39.26951348252123 0 0 0
3383 1 35.6151619669801 28.857725943991205 39.08240976339356 0 0 0
3672 2 37.28082051738126 26.661663617647477 39.05808031166511 0 0 0
3026 1 32.27766988176147 22.060363590620003 41.364715272714164 0 0 -1
3960 1 40.76089456797281 26.605913519210137 39.025457857756905 0 0 0
3671 1 38.94000149884875 28.833753852757358 39.023210457017896 0 0 0
4031 1 42.533582945194816 38.05472718446415 39.04658726173032 0 0 0
3959 1 42.40301377275245 28.937840347012685 39.320438823340766 0 0 0
3132 1 30.5546694619958 31.140630495398458 39.27446837780555 0 0 0
2879 2 28.955734246854554 37.83860155549781 39.113900450259976 0 0 0
3744 1 37.28198770189947 35.68644979503978 39.10122912334005 0 0 0
3420 1 34.07155418581352 31.08881364860674 39.266181663754 0 0 0
3708 1 37.32937812604539 31.174152843196524 39.22475779003065 0 0 0
3996 1 40.74491402227321 31.19041093455907 39.0273462227716 0 0 0
3707 2 39.05732355038411 33.45528020931934 39.12819379350181 0 0 0
3455 1 35.72775015060313 38.08983106206557 39.136992508414124 0 0 0
2843 1 29.120882700656466 33.47643966440086 39.12249870779979 0 0 0
3456 1 33.939323703593836 35.848163682750695 39.166306453821036 0 0 0
3131 1 32.43331120197987 33.367574811694176 39.20280551443375 0 0 0
3995 1 42.349607058782034 33.49500187850856 38.949002978072755 0 0 0
3419 1 35.74062634242395 33.44996061486687 39.14537397471524 0 0 0
3637 1 37.38092167536298 24.35458226162769 41.281918411874514 0 0 -1
252 1 44.07799041639259 31.065414277487864 39.17607038396095 -1 0 0
3925 1 40.474269152822345 24.475518823253136 41.37031098299765 0 0 -1
248 1 44.07411668692833 31.35380257809056 34.445635722059436 -1 0 0
2774 1 29.034674260069806 26.627262209633567 41.285244610080085 0 0 -1
3674 1 39.100825077099515 31.153145840732698 41.400418241968396 0 0 -1
3638 1 38.90582376934932 26.7305496911814 41.31348170772135 0 0 -1
3314 1 35.62288615173342 22.189615054679816 41.25687605970862 0 0 -1
249 1 44.110250250911456 29.024064661173444 36.90981941268615 -1 0 0
3926 2 42.29480639072056 26.612144234981074 41.426333034831906 0 0 -1
3133 1 30.4714180157252 33.5016409944273 41.42301580819096 0 0 -1
3169 1 33.968956932682545 37.847944511619225 41.425615951960395 0 -1 -1
217 1 44.123926288278696 29.000005797750692 41.37751956770826 -1 0 -1
3134 2 32.31044743121514 35.62236566469802 41.34609635539695 0 0 -1
3745 1 40.858209995108936 37.97926612697645 41.39270656170055 0 -1 -1
2738 1 29.03950033867877 22.146968518394836 41.32262527574699 0 0 -1
3386 2 35.64195229456931 31.2391555814279 41.39437771142858 0 0 -1

Velocities

38 -1.881877850365652 -4.0132247773368075 0.2624804617490887
292 1.0273014511062706 -0.5006535138347779 2.7642138800761007
901 -0.09573596668768149 -1.8235739738980348 0.8194094529887278
580 -0.9642256221415075 0.23077435156310652 -4.798217448784465
902 1.2747202965584228 -3.532866284919283 -1.6249920058078495
868 2.392297807323994 2.6205943243320973 3.5030899998717184
1156 -2.5658459859405465 0.21556193057006098 -2.1034977108326145
1190 3.035390501583323 3.139978092381307 -2.4843353830370067
3 0.22580835271593308 3.934552164173191 -1.6093116533296854
291 1.494798338025625 2.2103695600744206 -1.46462314007856
1189 1.4426681865367446 -1.1431949561635433 -1.2002620103591468
579 1.0494005789290712 2.1678662577451573 -1.3998876978342725
77 -1.574213866202111 0.7293653411516097 3.954712383620429
867 2.0195926780415943 -0.6330614823200595 0.1337478082313116
1155 0.8607285655234447 1.0690356380236905 1.0959466364905504
433 -1.1481491772792496 0.8947739036471276 -0.748230168896556
39 -5.718017915320506 0.7346262513613258 0.1761471656604649
937 -0.8333619188943642 -1.534006432103089 -0.24239491294270396
328 2.4070971050280074 2.2557052669906907 -1.392844787132464
327 -0.2214609527961973 -0.2803784162428746 0.9595700108532939
4 1.61671675023653 3.0142757821935025 2.252691802389277
578 -1.259621861418839 0.5776369290047961 -4.42386312785065
616 -5.489812342080396 -4.196657492498883 -3.7512991404909894
290 -1.7183854137278107 5.854503229173292 -1.5114737118849577
615 4.1065127720968295 -0.2952819653199776 -2.9666151211796405
685 -5.027615526006842 -4.092455386560695 2.1731909806912637
904 0.1677672542345293 0.3710758740093302 -3.12631003794415
903 -1.446734926491186 -1.0123113265705759 -1.1663547464967763
1261 -2.06351944391997 1.659149739988936 -0.8434295814569023
1154 -2.779503141665633 3.4145408466027023 -3.291077362558828
1225 -1.379995290122872 1.4115708478915454 0.22716454346259354
1192 4.220886791964318 -3.4002067158490297 -0.7799588580535053
1191 0.35429447566288663 0.8631286490640792 1.7981832479015414
1266 -3.333482898023903 3.223251728732863 -3.1833914623202557
978 0.03808536216449208 4.065979200826584 -0.254875521101568
364 -1.082192364347582 -0.7250865690311213 -1.244249519664138
1268 1.2011211562382207 2.5643025392721595 1.085977844078364
652 -1.1244914326000737 0.5404785014036372 0.06819316014297552
940 -2.1380839630622916 -0.5687596907114462 0.6042879080289694
1226 -0.748954287971066 4.589526808027738 1.4448315990878737
1228 1.0416068760249704 -3.54370189735233 1.2198818744072428
75 -0.5335264879214341 0.5363817741614241 2.2954964227930015
363 1.2713610611167085 0.8647552627238936 1.183794155730041
980 -0.8503087733337396 -0.9585560346086663 -1.5969484492358628
651 0.09352507886047734 -2.558872019066496 0.03712445978915515
939 3.238274028506511 -1.9223808735580734 -0.47189743331191003
1227 -0.06709101352990897 -0.8918564520458395 0.032921074447849384
979 -0.51191412763633 -2.7353502097937934 3.2455670836038784
111 4.469147361451909 3.2713641734185885 -0.06482380498149382
400 -2.186998552888993 1.1615917964002622 -0.05046562791580475
399 -4.329316983596844 0.6452613905627026 -0.09553017922332156
614 2.491793733603898 1.1112456050546007 1.7948754465232746
688 2.9455163275864513 -3.5805890720730154 -1.6997890334838799
687 -3.9073951620066536 -3.3032725850539313 4.445150455152854
1013 1.2240413640226127 -1.0293767602817827 -3.9078696289849133
1267 -0.40452863145084716 -0.7560113434172083 -2.952906499725815
976 0.6519608530339965 -0.9440131945426862 1.4081612955347769
975 1.2805407778679003 -0.6767302441698172 1.8948390671032305
1301 1.047014365992288 -0.40248612888808666 -3.0132637598578715
1264 3.4864471679136826 -5.8579256594245726 5.309272799045974
1263 -1.644995265198204 1.0211336679691518 -0.07469216161874966
6 -1.8705846454100512 -0.27989763660405603 0.3658587221563076
296 0.9244993167319502 -3.2333182198404877 1.9839179778048919
294 -1.9924041550253575 0.5931482076567088 -1.0752077016400705
584 -1.1596439347073206 0.33175021169852614 -1.407237074882918
582 1.4985038969895768 0.8545636001111265 -1.8342269583103457
872 1.8457985121170237 0.9507169270401 -1.086903447577899
870 -2.648679710535519 -2.9875966826081233 3.336766491544086
1158 -1.2467560145661323 5.142841788746838 -1.7094049296778133
1160 -0.33589591062308355 0.003815470449327245 3.575374775303183
7 -1.8007611038211015 0.4119107130092057 0.8864842844230886
329 1.8724135847685288 -0.33279931887080727 -3.6086564817154874
295 -2.0366942347401684 0.7309877925505656 -3.8394491102994968
617 -0.8485714541558771 -2.763120388858158 3.204755595924739
583 0.08706211124209985 -1.5171552842450906 -1.317301024175759
905 3.9126393477493453 2.653229760696769 2.4175861669918213
871 0.3110341341424077 -1.6946246206623683 -0.031782650199526884
1159 0.7592607276034733 2.415909023073115 -3.811283349923886
1193 2.0508038424919177 -3.1797428890554222 0.43888163545639025
42 -1.0451202720339314 -2.1198273364461717 1.4056813335734557
43 -2.1336985720250166 1.2278187061873067 3.4557898592191583
332 3.626556124278992 -1.2019339252273267 -4.573761977614972
330 1.8708802957389774 -2.7917532605748945 -5.038143225310221
331 1.654691001336529 -0.4827868928891393 0.878591981127604
365 -1.3544910058849726 3.0414484616557966 0.6604424018655317
620 2.860897540596024 -0.4877101367176756 -0.9605490895190698
653 -3.132010222162428 -2.837690692035149 2.128002370989961
618 -3.1836071480347834 1.2897063964031528 3.9762258121899543
619 1.0341398412765213 -0.6804939578025869 -2.1970572547088882
908 -2.745566454455221 -0.7677156781483877 1.918516626483659
906 -1.289050780390503 0.8281188936909586 1.9405234920096126
907 2.6130464916677174 2.9891774256042147 -3.4369352917927274
941 -0.28350797306831926 -0.2601686988158528 -0.2288487656997676
1196 1.7247188064838572 2.348242690193736 -2.2825513392109302
1194 -1.4249952754145176 1.9607665200999496 -3.3126277191605364
1195 0.18170180507441092 -1.8344218104313617 -0.03763667967748013
1229 -1.104841770824919 2.4776441958463145 1.9355757653359946
78 2.8215613921781557 -1.987036208997674 0.7061880648756154
368 0.4528826440139582 3.258654851182909 0.47757640445378197
366 2.1342779356680754 2.403660736312179 2.140269445000162
656 2.8495067736174007 -1.074648048101154 0.33002231558165046
654 -2.9883393550089457 -1.0806610033824715 1.9704060030452901
944 -2.7785685353808236 -0.9755793476685591 -1.3804689332872018
942 5.034762802059403 1.755594357689499 -2.6273317403940823
1230 2.3436059748474722 0.18661843938648962 1.5250631330928703
1232 1.8476965767990585 0.29563946296777616 -0.5478110866469658
79 -3.058630496345695 -4.875840414576637 0.6990131643131343
401 0.8597332902145968 0.2980610257660056 3.931675715723234
367 -5.343930558113189 -0.19410885651670345 4.455031809262416
689 -0.42101856687200984 4.145717699191731 0.7012101843513853
655 -0.27648318444641734 -2.1358369621310773 -3.2705077610063094
977 -2.4234979377998407 6.96244238782678 1.3431693119535744
943 1.738888371490707 0.22547315371963028 0.4335672809167804
1265 -0.6446432423991337 -4.920964845419626 -2.1383907876409562
1231 0.6392236165679045 -0.47728224566125416 -0.011858856496934855
115 -0.3067853647260276 3.1791922294326453 2.296971727251534
114 -0.9575636095139796 2.8189061802344195 2.6498112102571456
437 -1.793970847811445 3.048471919792929 -2.3386393787576703
402 0.7951028753867949 2.784355344489927 -1.0724596129963666
403 0.7161594415210387 -1.2493762456303266 1.2461109971789168
404 0.09856873740152522 1.8418108382836746 5.585881078941831
725 -2.1384611096988877 -4.103135527154036 -2.056376221591322
690 -0.7663193673096228 -3.957749406154833 4.523795750283872
691 -1.3217174471441484 1.114976534901872 6.507428188479426
692 -3.202572734774663 -1.195760612588281 0.6393681149704351
866 -1.1176967181034538 4.33962710467699 2.4353208859869526
76 1.978947242637922 -0.5382428960302087 -0.5902175607695811
613 4.2552106985104245 -2.490432439406426 -1.4855151619924147
2 -2.086613006098676 0.037450908984114954 4.564447911095385
1009 1.5523749524700334 1.0525328709283435 3.59070350316347
361 -0.41476627236180846 -2.0712571585036983 3.738443148029519
10 1.5211146578961585 2.223484270422492 0.22847027617484425
300 2.940544749114532 2.0375166938666474 3.1539053184326757
298 1.3029678675352934 -1.3980304082990578 -1.1134706097697769
588 1.8641671167388008 -1.5947631360478014 1.1406270854877527
586 -0.27861044567007637 -0.4176196593401678 -3.9207150787796117
876 -0.3406552420696988 1.5403446713083109 1.296244810798302
874 -3.2195892534531354 -3.047491054557699 -3.536313385619204
1162 2.582344833975022 1.5613229745403538 2.931852836170738
1164 0.009118400807720924 0.6680478035212553 -0.8635617413310348
11 3.7655001201505334 3.866816015366449 -0.31806176235680467
333 -0.24344625325284733 -2.3495523350797094 3.615172543625818
299 -0.788181852097881 0.6068975836938933 -0.004796575190432428
621 1.218860082404913 -6.026866476293834 -0.5865499981966789
587 0.007413221010376627 6.310093138111825 5.238780898598975
909 1.4985290106334173 1.517088258974871 1.1285550436672038
875 3.372548212692604 1.3578503837499942 -0.9001729058673305
1163 0.3071084071135306 -0.7987383515239909 3.1167650287454625
1197 0.186022908393432 1.848852760001585 -2.439204379366523
46 2.1642123114409735 -1.892441623458618 -4.388101496617527
47 3.7203952616656353 0.937536436493685 0.5424485718440784
1276 0.06256506990299117 -1.2947454940498673 -2.3332845588078794
336 0.30680753476489525 -0.175132642275054 1.3318224615377572
334 3.1154398837598762 1.9669144391728532 1.793488383769016
335 5.511260339564105 -0.32067522461120107 0.9102378786133603
369 3.2493918595672873 5.3147206407748975 0.572778175248034
624 3.7984803809033125 -0.460998641356969 -0.5371718846373188
657 0.4201518573402504 -0.48453743578996455 -0.28280537409924933
622 2.824448627076332 -1.9246297500659733 3.6508246264366715
623 -0.3702401719241826 -3.1539206467866645 -0.7531069570346776
912 1.411447386669189 2.8383135903284265 5.244880787263454
910 -0.36806049056620915 -3.5840163287150695 1.2403004795502466
911 4.490559126113895 -0.5376858427320409 -2.8128784203193016
945 -3.781332845518512 1.7812403449758651 0.3900354936838093
1200 -5.134365438005734 -1.9484138222622054 2.007362849513308
1198 4.85304031312354 0.5910656793449213 -2.2428559197104847
1199 2.553405641282099 -1.162057103578773 5.36062527498129
1233 1.6544445220434567 -0.12249601335338106 -2.4094909263179463
82 -0.6809195245335538 -2.6653822655640464 0.4861338073745396
1274 -3.259200804716146 -1.585843777600516 1.712205137735035
372 -3.0702292355729988 -4.0466458058596215 -1.0111959902562468
370 -1.7264474742722347 1.0968968945010102 -2.133694110359428
660 6.986691796981959 -4.690060558435863 1.382771754464987
658 -2.9248348412232166 2.7798926922078913 -0.6603652248979156
948 -0.24814835756607792 -1.9033675653851425 -0.40244504026728756
946 2.994477449021858 -1.0855604891977506 -2.8668085197664217
1234 -4.8957121093380485 1.5618388845444442 7.237905313128373
1236 -1.0684247757944454 0.12911579128376016 0.38000825926734777
83 2.917160980574483 2.836267887072365 1.4677050942258054
120 -6.8356751255516865 -1.2004653315636276 0.37312783795400095
405 -2.5273017630243255 -1.7024554559637695 2.6188218274571
371 3.221782440821197 -0.4292336627001092 -0.7759013742659153
408 -1.7165071556063558 -1.3101227275093184 -2.6249765417634205
693 -2.90333571649162 3.2404554046508065 -2.0797478449505427
659 -0.6085584123734348 -2.0357748702888063 -2.949913689418752
981 -0.07367033679786957 3.0778437374177208 -5.120238732212883
947 2.1372978714257673 -1.722497632940409 -0.416787114632734
1235 0.5574054007854642 0.27212156502457774 -0.9374542554971628
1269 -2.1541372053950405 -3.152627787724617 3.510022484660758
118 -0.2044914105452599 -4.057188107161705 0.07662281614627178
119 -3.4419750941824634 -2.40174605946123 2.161949024300202
441 0.5603463491820024 1.0558228768802185 -0.8273008182018176
406 -2.5317777239736396 3.443643728553103 0.5355544574178164
407 0.9926206076430254 -2.4042504285096045 1.7981582001815286
696 1.7299988287106889 4.124903903389318 -0.9577398768810061
694 -2.0699793846870764 -2.2151472162614856 1.3205429708282985
695 2.047259536085378 -2.508817288436006 3.1132427144895014
729 1.1590842786540432 -2.941610199873263 0.1354102563828543
1017 0.9546573222548869 0.41453155524316654 4.732608535969295
984 1.4370990121175926 1.4525213904870518 3.2063946213021564
983 0.33974019810190775 -2.0537597552100086 -5.899868246608846
982 -1.2704199431700136 -2.0381547913045495 3.2881172437135677
1305 -1.2424841766454087 -6.596901185450016 -0.8262457306687092
1272 0.5988609488883718 0.44178727327962614 -0.9214288219992393
1270 -3.4904523841095556 2.1935991475026655 -3.4709509516643497
1271 -3.3200504056385496 0.21233790523464158 -0.4320932892915833
14 2.125585312694879 -0.4512013302790072 3.1982334814582756
987 -1.9615243275676988 -2.0449699418948857 -1.2791773881231312
304 3.093967090773067 2.7044893343958183 -1.149709812427101
302 -0.4427415143408345 2.3049239572088522 -1.5675438597692164
592 2.8987382010172396 1.6342172361693492 1.4665264606199404
590 0.5009447117638479 0.7711764384768235 -0.8572960347547176
880 2.347761290456147 -2.372474542933675 -0.7489010558952485
878 -0.6812342501198206 5.113089826783841 5.510025193283326
1166 1.5634699475151383 4.14119640470689 1.3717227191636967
1168 2.7117769377966408 -6.372285734861613 1.651527382054182
15 -0.06559806042224153 -0.7962893616437366 -1.4986412759893346
1275 3.662347643829007 -2.8778868638719945 -1.2778040595270233
337 -1.5637937265286577 1.1370479330375123 -2.1361238681997925
303 3.252935310246574 2.364181690227776 5.641539344219162
625 -0.4543954706298147 2.6163392133120023 0.3709423250238714
591 -4.1207230989283365 1.684363584719494 0.44065436563524774
913 -0.04154207467073106 -5.853143084029823 5.5292902608857855
879 -1.4847251732379727 -0.7803610529258936 -1.05537233959028
1167 4.008133407501262 1.3054011999342348 -5.7134647229547335
1201 0.35214045269791244 -2.9294954323776623 -1.4025448734137018
50 -3.9139968731330232 0.8102819640667211 0.2618363333500259
51 -1.8970216742588268 0.24008942548942863 2.8513340812413834
340 6.329878174411272 2.1409067216297557 -1.8937796941028426
373 -0.7010960133010529 1.6153474530549392 2.4494490784921976
338 -1.3468517456335207 2.3034825668761307 -0.21786845271550281
339 -1.1408455448619592 3.2972000459229154 3.071107350750884
628 -0.3708467462939294 -1.2030674356715487 -6.667957695590004
661 -0.6147548245883495 0.20744829468913037 3.0030851665709326
626 1.6291905870115337 -0.9401180335994056 -2.294582947901746
627 1.1983028881920814 -1.1428564835517618 3.639569228175758
916 1.7776493458838885 -0.10013871837510886 1.7291148302336323
949 -2.270154687412991 0.9707045822607994 0.5402695733917396
914 -1.164284972172909 0.26928957652863567 -4.636585857523353
915 -1.9219011207940464 3.244958526281984 -3.2424916919687523
1204 1.303407494964453 -1.749403263888343 2.4988594041586287
1202 2.4902048886991968 2.6083496328814357 2.65083229275997
1203 -4.442662265105095 -2.2429252956665873 -2.551409759722879
1237 -1.614756880989027 -0.30635384896376777 -2.030606164499978
86 5.269875020507116 0.1358914522892997 -0.06489097365929697
48 -0.08734290249023113 1.2806545050116331 1.4962946451551145
376 -2.7466964095148674 -3.0095337840347014 3.3508055389657465
374 -1.8166734385682533 0.6053503508584847 0.33425580346880124
664 -0.38184387776581213 -5.504319271078252 2.8372230552207283
662 -3.272526257372186 1.6093535898764328 0.7424732520016436
952 -0.42075219713386625 -0.90074071731218 1.5958716324131008
950 0.7941368003556994 -3.083258628273634 1.4388251673337633
1238 3.435223930260124 -1.0012282647474324 -1.5085563182456985
1240 -5.342305300290125 -0.6121716826045648 1.0894811603735461
87 -1.8086103444550286 2.038900544164836 -3.436450603935301
1309 1.5819864379538826 -2.6812479947688583 -1.2685856457351137
157 -0.8106113603254395 -1.1642820038712265 -2.0987133369950426
409 0.2976975918024096 -4.822450096111638 -0.37125848224965413
375 3.8560061173945166 -3.0733669340066276 -1.6407097357699894
412 -3.3859231191528445 0.6260195023481651 1.3106836157976751
697 -0.7366947449284362 -0.7475347706608626 -2.3878125778772246
663 -2.6952249285269647 3.588812646476222 1.1511760131171467
985 0.5294295567625491 -2.240854374054394 -1.9247297130717496
951 -2.4249055253956326 -0.7035036394483217 -1.208510346886641
1239 -1.5774445344322434 0.5749954523863794 3.9194585237210067
1273 -3.1371876312379166 1.2800332423377838 2.539749730275538
123 1.5159002477311392 -1.0434911884374722 0.10309149283197841
122 -1.0659086566138778 -0.260079960088808 -0.616795930391426
445 0.508409109314933 -4.497270405935989 -0.5913959238781279
410 1.1528052519206105 1.7041297160626339 4.77127541787404
411 -2.626022147940441 1.4679543682282237 2.4581953739551334
733 0.6896216455371555 2.1535719465573133 -0.2149446881266545
698 0.5096654193470241 1.9534960974835174 1.3988802643931313
699 2.351705215934039 -0.05538778273752746 2.9294486104792514
700 -1.8922402832234209 -1.819250122530519 2.529604859377934
1021 4.139455584363708 5.476592410596753 3.9009954892026477
986 -2.400995036333489 -1.4472057547307833 1.1326951194654526
988 -0.8013363313067895 0.5447242633436624 -0.3248803339889129
45 -1.086501335036941 -2.2587859489898814 -0.17533636203578834
12 4.350603331353204 3.445308222658759 1.5444289607314774
16 1.6039453280437383 -0.6869472708740082 -0.9720555228277453
18 1.6668738900562519 -1.2471979565693456 8.010087830366702
306 2.9404927356405888 4.97427081270949 -1.5156838111157969
308 2.5321490097745953 -1.7752704990568688 -1.6937434091368793
594 -1.008581363433436 -1.7627592447711835 0.40928499004832
882 6.166642748520135 -4.961529816170466 1.613365339591779
884 -5.2001280394877325 0.35575191024979125 -0.5875674730413731
1170 1.7861749412738315 3.0229078983460327 -2.027600020164094
19 1.043811145421921 1.7646824967762114 0.5054449110196206
341 -4.767915125353433 0.47133131030352626 0.6483881416634206
629 2.4716443137930524 -1.9981866168390225 -0.17552456166118338
917 3.7181441827767614 -0.5102427154913989 -0.8865687101642151
883 1.6189976158138193 -0.8664777284165055 1.1790717223744291
1205 3.030524736645157 1.8311965595966058 -2.3553274718691832
1171 -0.6840144856679256 -0.6341903403556968 -1.09069201514761
54 -1.9178075995468766 0.6944763423234481 -2.279648144089915
1029 2.5974100069733814 -0.6771536702603035 5.6141564211713915
377 0.4210518611317546 -2.375369489905946 2.353288422155788
342 1.2232991516584053 -1.4316108012924929 -0.8295332279329267
630 0.8101579456398428 -1.2873232257292477 -1.4532290938747834
631 -0.8041419721342523 -1.1783504025492968 -6.201242103831577
665 -0.40201165707360026 -5.019638863521862 -0.2065137996306139
918 -2.9115822083211063 0.9466973999393561 0.12603034883289413
953 2.3235471038265882 -0.08146882143658707 -1.2753874926960431
919 0.45400049238383683 1.5198946738474355 -0.3975716708513939
1208 2.6351950055900253 -0.4824577882022394 -0.6623206754147926
1206 2.5172163593729167 1.5435629740257024 -1.232512272909659
1241 1.8255752193757186 4.81538755907428 -2.669917931970341
90 4.744054728717577 -6.439405152073886 -0.0014544711401889715
378 0.7533996187522054 -1.2079907607706781 -6.0139459978006755
666 1.8477313926798373 -2.3081789726160755 -5.487274579241906
668 3.733213781928631 1.0062356325421737 3.609479378219879
954 3.626037874640037 2.7116392339997155 -0.241189454031888
1242 7.472850601306625 0.8360550947458971 4.436582199335997
1317 -2.1020475939898433 -0.485566253917048 1.76742818963242
413 -0.5648353817593406 -2.5472115658168053 -1.3640838236694728
701 -0.08432516743719541 -0.6173626016387826 2.4473561887741697
667 -3.4629901610756093 3.132322873762719 0.5256732260291385
989 6.719022432588394 0.13232127307946417 1.0007361105810237
955 -2.5087780566936093 0.9343221129509639 -0.47926785543895783
1243 -0.9177484177713502 1.7161754233583892 -0.1327905929512619
1277 -0.30185483517217854 0.5759218153094894 3.378309887038253
126 -1.8778970148067617 0.43669811017427185 0.8530641328291977
449 1.3149059928235016 -0.7092956180738319 -1.2405131462736254
415 -0.8681538732516024 3.229745704166875 5.546314713282997
414 -2.6506654023685923 4.587175217566023 0.06062211128346993
704 2.001864787437599 -0.21256086533747887 1.5370051101182816
703 -2.8648505822363783 0.6213738079758567 2.0300722086249032
702 0.17759858597366404 2.0225874616837305 3.118670332800633
737 -1.9669923837240122 -1.4307187554352172 -0.16155291838711835
990 0.7122153603439301 -1.2268272856420261 -0.5567950319786245
991 0.9632277987740887 0.5088869082736747 -1.813940440485865
1025 1.8062145444061877 3.4658122691583073 1.1588086147581709
1278 -2.4335460395148667 2.1276363060348538 2.4545194199466374
1279 -1.126516632479799 -1.917091404922328 1.1725060610602422
1280 3.0532762266618767 -0.9277797336102216 -5.320915881743032
1313 1.1601873499028255 5.517350804130112 -2.7233743987991956
22 0.6690695386467755 0.14138419142745612 0.3081641732587239
310 -1.0410287352359475 3.4717445145226296 -4.501743280868118
596 4.800084428444698 -1.003119157908373 -3.352043259446278
598 2.558402184841751 0.0003297154119625893 -0.3035843857638911
886 2.7062158113530925 -0.5390811141013203 -0.18431625519319558
1172 3.573828661884463 -5.419158678884373 2.7047417535983893
1174 -1.0400020240906753 -2.5437727468652147 0.5979789619511944
994 -0.004773300233543068 0.8199924827758164 -3.1936486543195755
307 1.7883494245393752 -0.3214515849029206 2.5917976862755183
345 2.470586382118549 -0.2910826629710434 0.454839825080618
633 1.6378467075606729 0.14753258744547473 -0.45746070952172696
595 -3.3551635426804363 0.6320742756583987 4.076290447007457
921 2.2848278970119726 -1.527558080413388 1.0542587796632843
1209 -0.7404634420869695 3.1940254768067278 4.8405972072910695
55 -0.17821312271783832 -0.9797841675048501 -1.2117169052809897
58 1.3662553305509655 -0.8506713531711886 -1.0911718192319673
343 -1.666496655631503 3.691230966928871 -2.4408150741824235
344 4.310023073063172 1.5316445899577125 -0.482756242150693
346 1.3148693230316009 0.6289417149010998 2.3167852081670546
381 0.4810274207940972 -2.8931317762564803 -7.236821184490002
632 -1.9620973306402016 4.5919445522752484 -2.7132774374827937
669 -4.673120643315733 -1.6959757366071024 0.5190222270080329
634 2.3333100995369755 0.6679076032907335 5.82924737226909
920 6.222768925537446 -2.7081670124029578 -8.069246803486351
922 4.272567715524781 -1.713426826269584 -5.06315487785339
957 1.584984106180115 3.8147313603642994 1.7082429376327846
1207 -1.1098293484972876 3.110496633190463 1.2656764656696307
1210 -0.3918495632182364 3.3918334871661986 -2.9482440863236365
1245 0.2874375844722587 1.8867351631899794 0.854356937421838
94 1.3105414652696052 -0.22063566172831534 4.160743208556404
1282 -0.1461264885841229 0.036384302263948384 -1.0235203271113333
380 0.9519414343782353 -2.2723929573828108 -4.095867024127938
382 1.4248353355153898 -1.1269740376360253 0.6473758086884025
670 1.195895476108857 -2.64302270239862 -0.1507846497359007
956 0.43271517379711144 0.03109900849890464 -2.2230067192352747
958 2.976179073767084 -1.5485911719051182 -1.2755821133305885
1244 -0.14665236923337513 -0.11606702398759638 -0.5895595877073764
1246 2.830786999707428 -0.542161506926311 -0.6748812382119258
91 4.796368733075925 0.8966440795969675 1.5161866439284122
417 4.203935448717375 -2.07759961082788 4.6643140763675754
379 -2.44697553212442 -2.453419506212284 3.9735594422663962
705 4.625522720785339 -4.55864305032503 2.0566067176606504
992 1.9151957738261454 2.571828704629734 1.297749462880591
993 -1.1422735008525726 4.410365211523405 -1.753264717822367
1281 1.138316441772126 1.2270558338458668 2.033303457947091
127 4.239986120527941 -0.7614570549224662 1.6847765902876106
130 0.6533996491038867 0.8228728898202076 1.568341973311569
418 -9.044428908254794 -3.876315830429128 1.9444949262985909
416 0.6398455059069865 -2.9102297524124414 4.696226917349252
453 1.0927635788984096 3.3692729023511245 -1.7261495142625018
706 1.8433333934422746 1.4605583722663729 1.525234760940776
741 0.9143869884329474 -2.085484488191034 1.7881077289348786
161 -1.4153169653560767 -0.2663453436089637 -0.02815649816774098
20 -1.4838742184596678 -0.9728187005618468 0.3528786728413538
57 0.5331405775772367 2.9164765383773843 1.0209856644586581
165 -2.459653972749272 -2.598256106157651 4.0937742798847685
93 -0.18905291649006656 -3.0457831278220238 2.21089903530208
26 -3.6992752311508896 4.344118112189622 -6.152116881347107
312 0.3530988219042695 -0.0587961622828804 5.694446251699676
314 0.9249475390389035 -0.5271394875053703 0.10497262285800743
600 0.487749043099656 1.4311668899125667 0.5863414546725065
602 -0.40360974927320964 -1.2358581686311545 2.048055779698431
888 3.4608476490541618 0.26653113240574433 2.5726590053827127
890 4.4084487396217815 -0.9485222618055862 -1.6471377405185097
1176 -2.249436883712954 -0.49674013628536107 1.755498058218646
1178 2.8535118695725106 2.320314498086841 2.1056677634998446
23 -0.3296644787313309 -0.8329610020271712 2.0078647266282608
745 2.0891033285664142 1.6145794227357582 4.1462613120301794
349 -0.9986606658888064 -1.6218979466354926 -1.6554859120388299
311 -2.3330491882215156 2.4320624263851114 2.393786959118175
637 4.7558806645163365 -0.0804838004443859 0.07593998782197221
599 3.0339920321401346 4.096420716051057 2.258615267900972
925 1.3483128023363518 -4.733908797042762 0.4569985211370105
887 -0.4020293361090229 -1.0697672888883922 0.6037788083814689
924 -0.6028237268172992 -0.9908740630934688 -0.07694614187069221
1175 1.6951881113734535 -6.208865353286467 -0.08831136195258452
1213 -1.152300203564302 -2.9948490336327787 0.24523591183565702
62 -1.8200779387808914 1.1660282858305253 -0.15312458886184302
59 4.921740157025379 -0.6682969318279126 -2.601253443660723
712 2.66248529180662 1.9756164891531838 -0.445764483962389
1321 2.600446287383953 3.961792122437119 -2.73206546460743
348 0.5389010386987784 -0.03209140171866951 1.5992453938806686
385 2.0513152357210083 -1.8089357653067335 0.21210393937005098
350 3.4421200635126095 -1.316416573676546 -3.0552111430699895
347 -0.34300600796797104 -3.9012387766073333 0.37480233250502937
636 0.9847625560159029 -3.1043752397680557 0.1253946793236489
673 3.1540935964940986 0.5971885824231566 -0.11204180823741534
638 1.0203873283909213 3.376526881785722 -1.0763273676445269
635 -0.2923145953088717 -2.7853281523909796 -0.13318088165516218
961 -0.7357546139073332 2.307467701897101 -0.5200719871734995
923 3.600748506669427 1.057935258599324 0.727362685453593
926 -0.5308680957412537 3.7482671399998937 -2.6092496940509653
1212 -0.7587800350275407 1.3892185010368403 2.5902722135452763
1214 -0.8612819461352081 3.1689900552265255 3.3252453056534352
1211 -0.34582098723510557 -2.0325056922604468 -0.22251789923816098
1249 -1.3084056516481586 -3.7723105897964673 1.427862636165944
98 1.465378589081764 -0.19313851318691877 2.720131596930041
1037 -0.7779279292722061 -0.3589809334566979 2.913140428127688
384 -3.189560802900905 -2.2618734916129593 -1.7145758048038722
386 1.439852164325366 0.6800094736968748 3.98101136385136
672 0.8377658882982113 -3.235854957802015 -0.16245384618521905
674 3.5346547908131623 0.3005991716117679 1.0467627579997076
960 1.8127679725855372 -1.1320958678838864 -2.947570377973698
962 -1.6362410023953695 -3.520085771736131 1.6885519542562697
1248 -3.1338084716809966 0.19612939333616616 0.40523032361196487
1250 0.9588709023525819 -3.9065418459204846 -0.4859123061413181
95 2.2034959897994 -2.274427842698112 0.9081333038015137
1325 -1.5916643234200665 -0.5119210270895634 -2.5806800262114677
421 -0.4930456908434278 2.1016020519164345 0.3335016977042962
383 -0.26275629527441546 0.07617350280754434 0.2204414732064024
709 3.185207511620837 -0.437470218397888 0.5818094772072057
671 1.9262459950174757 -1.230201831402612 2.1078390752252654
997 -4.698515498941863 -0.9022713200352125 1.1570912479990305
959 -0.27509442529389255 -6.59702700638916 0.5808507643391939
1247 -1.3691591662415608 0.8496957933145547 -0.63124964105444
1285 -0.20084837902430894 4.870736462711591 -0.31261367891342573
131 1.647793412741278 -2.2461892983046714 -3.1985938758784616
134 -1.1700836235663734 -3.0673664664368965 1.0135261428535458
1290 4.700020938963911 0.9346731165332411 0.8292393151199656
420 2.4471197489449663 0.4871679288575737 1.659096532356479
419 -1.3081623290225528 0.5870340089804247 0.8395680793308589
422 -0.14824311991885533 1.0930288821759782 1.9010297102301075
457 -1.7407981033219546 1.8072312676285531 0.08503281319470261
708 4.625716285046481 -2.9817122800818576 0.8696600352491562
707 0.4103781029503835 2.3183271388195203 0.9602205015786831
710 -2.2553650429308107 -1.1446204642678603 1.6983281070371714
996 -0.9873581967353435 2.656783788356089 -1.7071360673100515
995 1.443568569287094 2.508072372002239 -2.1808354094649056
998 -4.489921934061199 -2.0375905679716717 4.391533939988521
1033 -0.19156148024881897 3.791057411669973 -4.612457653284741
1002 -2.3328356217974497 5.5681167084706145 2.9964765911667213
1284 -1.151093951505719 -2.9085669742753626 3.0430371907762956
1283 5.800051253579234 0.7359533178980224 4.096421683412867
1286 -0.8748827645216509 0.10672496536590018 -3.352500302581844
1287 -2.5737027830953947 -1.2826205488973654 -0.5358357366990592
30 1.1381204740611015 1.2437846854672048 0.39956991768891437
316 0.7435903965776893 -0.5205907238620061 -4.643842609374801
318 3.302506196861947 -0.2665761193721972 -5.362488220889083
604 -3.7815217658877254 -3.4308092218362645 2.5586758735210577
606 0.6522091230630017 -0.9708904007218645 0.3399714689242324
892 -1.5617625329221012 -2.2724786876652034 1.438801196336932
894 1.4511767986016704 1.0327963482136355 2.174446008135508
1180 4.319438901346209 0.8233603905918503 2.1795949443633647
1182 -1.8026159245703115 0.19217794748422298 0.15227306255309256
27 1.5943906744794192 -1.2678230735220342 2.7213567372864835
353 -3.21356411736877 0.17365282170338692 -3.583069632310551
315 3.8627605934675153 0.06316031451485249 -1.3521583884157842
641 2.9654979056980615 -0.7412118350344722 0.289450044053667
603 1.097769802953147 -0.46852409718970917 -1.711652754662807
929 -0.5906000294981057 0.6885082963685465 0.9384056481175665
928 0.2149642351859867 -0.9124391821035582 0.2706929891756639
891 -2.1931644733241504 1.8353519857220413 -0.3751427679018476
1179 0.6514437504240351 -1.4624265670536258 0.4279736734460151
1217 0.989098585896228 0.1445171344745868 -3.1894124093693677
66 4.099640098715069 -1.0866557456385746 1.2368183720174535
63 0.6159218806144265 -1.2948998313598514 -1.3440782699677145
352 0.03925959173093675 2.7782190659856765 3.4078147074625087
389 5.087252000014848 -1.4233247867684364 4.1548238268225015
354 -2.8210816763629305 1.169917075963128 0.15623684578707903
351 -1.9671897719583091 -2.1840124579889317 -3.913262614227485
640 1.5159053079728462 -1.2453694624794938 1.6694549373997802
642 -0.7827542964222917 0.09336804465176915 -2.5819405589666444
639 4.580473148763177 2.345296522930935 -2.032246533336672
677 -1.900439762762965 -0.1903597096830971 -0.7861071756828367
965 1.4072492339681117 -2.897486858458335 4.8661630366701285
930 1.4803233992000862 -0.826579174868278 1.3700999417683144
927 -1.4881190554336041 1.287910684724295 -0.737870245361282
1216 -0.5145346525303934 -0.0743528209693252 5.36086122943587
1218 4.301714892891126 -1.2681367568655868 -0.999920012541155
1215 3.4916622146539833 -1.9084497823906579 -4.045289283334461
1253 1.9859902668036404 1.1869261502827977 0.22144349781558845
102 -2.0788369976572234 2.2316772448265123 2.7314513200963497
388 -2.830282624984668 -0.4289768278275981 4.136725518743862
390 -4.510527377119454 -2.0614822971662545 -0.4495554814940126
676 1.96162890876619 -0.798845569778527 -3.434943515733047
678 -2.1595091505709942 -0.031195019508725202 -2.3850069985134765
964 -0.18946454032340848 -0.04532011103871271 1.4329180014653917
966 5.596785132568522 -0.5396494183971782 1.1021890277570952
1252 -2.411271127559645 0.4198768814242221 1.8007011998951366
1254 -3.140075604569824 4.691642511253857 2.785744256967709
99 -2.646690706973147 2.9176541204398987 5.028441810102556
1000 -1.2268004437880324 0.5000470782329749 2.8406996573646563
425 -1.9072865928038976 -1.9860414685785828 -2.154753600889176
387 3.836402831744765 3.1195919140335504 0.41564290424267847
713 0.5628583815073412 -1.672035229365387 -0.9980303436427226
675 3.6554879249591483 0.9461984379057023 1.3181158385559828
1001 -0.3511450101454107 3.2386072201089333 1.820711050856507
963 -0.2084027297861728 -0.10008087474585706 2.214762306171806
1251 2.42643087638059 1.073078152604485 1.5790670219959642
1289 -2.6769225035053394 -1.358410220520271 0.7145835967872437
138 0.40483525191040526 -1.3783953823486284 0.9443524135459197
135 1.9681099786369773 4.238828592191963 -3.26201339792603
1288 -2.2263476101951243 -0.558219264176547 -1.7030700705759911
999 -2.553685482428038 3.225539318037471 -2.1949021055857267
426 0.32818324981748204 1.1139212220930033 0.26725304299052016
424 1.6373096634592457 1.4945774680654382 0.14598137623685972
423 2.640959666664076 -2.060756889462733 -0.6929827570238771
461 6.312578037435872 0.05857627619537089 6.986015607216666
749 0.9028688312785019 0.3511360640389247 -0.5582976496082361
711 -0.3110895205138923 -3.6225801341573463 -1.2156836673616098
714 4.268084264425217 4.063982339997411 1.3456787604180622
60 0.02560365017715073 -1.0191619030940584 -1.4239860663375834
28 5.9127201371417115 4.687262573943255 3.2024640067503034
61 -2.1135792947694307 2.2629363492477474 -2.893627106770173
173 2.7306134448872768 3.141025389080049 3.0143095976272214
169 -2.258889057051523 -5.294491196415329 1.6517242025194023
136 -0.22482744119995568 1.3419656849735155 -0.909059926412033
64 1.1129915986641745 -0.08357272908806997 -1.4343036634008433
34 -1.3280889198157144 1.9699463416756673 5.742575368928911
320 2.1518653208646867 1.7703573373952453 -1.7424762005884264
322 -1.0088520602090176 -0.08820823973562666 1.2202955406234806
608 0.9127840184431754 0.5436250831216276 2.8266278367323405
610 2.1800265483191086 -0.6734277862545935 0.910063742520182
896 -2.784213613570803 1.382594842596057 0.9369517515583978
898 -1.5812705341709214 0.05743726217370394 -1.0881223665756383
1184 1.2543945013159952 4.220178520064954 1.000567019006144
1186 -0.9082040811452767 -1.3716013403493166 0.6290870800528152
31 -1.5883526490254516 -1.1144437955350905 -2.9329587103275454
397 -0.7153090528054457 -1.8836746461290186 2.790435456691698
357 -1.1829519475290915 2.2888543880458023 -5.0746027236199875
319 1.0614663102983688 -0.31601587209698273 0.26457950266037084
645 2.3319156181668674 -1.4772971352520514 2.7315014204114143
607 -1.8127717149810094 -3.1330946526957972 -2.5132218573914793
933 0.5463194163501399 0.0786159606225024 -0.44599262703174103
895 -1.1567173704731935 0.42697191067042556 -1.8109792026268325
1183 2.1100264625237446 -1.1449706903616161 0.9128240244136615
1221 1.1008258957867658 -5.379066234671666 -1.1773548758199717
70 0.10879188525058853 1.272158736505751 2.0102259038318517
67 0.80070041959409 -1.5806878466470167 -2.190036568843411
356 -0.1817443255790643 -1.030921581130836 0.567120769106365
393 -0.1928326466024274 -1.4127941039214686 -3.6582317621888643
358 3.0160346154055278 2.523016306137305 -0.900733382496228
355 1.5339274163085337 -0.9338040112081123 0.7583278711015403
644 -1.3362452339078488 -2.867093567244443 -4.442398710745331
681 -0.25138813615643135 -0.37577891718077505 -5.058303232011955
646 3.2516836777632516 1.1256223517300896 -3.2464374752658767
643 3.2178718857204744 1.6523582244294852 3.4146518502337098
932 -1.7178049628305 -5.035795330617821 -6.708481225313996
931 1.0621168841999395 -1.8705171976057386 -2.3875495441465446
969 2.377271445742329 -4.459965900166329 -0.2128488538900751
934 0.44111976322250646 -4.531350018024931 1.2859743375523949
1220 -1.0505002084594126 -0.6660269088972103 2.3606835134120154
1222 0.784327360605283 -3.3814801506989927 2.1999571628547647
1219 2.1081368011633743 -4.130222855512807 -0.9003214086397359
1257 -0.9992310451379902 -1.565160844634257 -1.097332218099847
106 1.6340773504652113 -0.0078119211814648305 -1.2639415882939893
686 1.296483629839334 0.5874398085049378 0.035936772873538886
392 0.3788539015473297 -0.9482869330384066 0.9440165501161156
394 3.1441341315813482 5.987978573718417 2.577170670696204
680 -3.396651880922995 -0.7421344678392292 2.921504173118296
682 4.362806171539602 -3.0980894698686043 -4.195021567562102
968 -1.4422849888286138 -1.8012264296791223 -3.0909354331117687
970 4.3445656441670595 5.766591959080516 0.06726550183538839
1256 -0.6301117533058417 0.06461190625303626 -1.3724923149284396
1258 -1.0987729726874564 1.3096954946947512 -0.09863676558918935
103 1.4143790441895199 -0.9875975534995545 -0.43406198802714435
69 -0.33510750069147915 -4.694437665302252 1.710540111580476
429 1.7370112607079953 -0.1710110666529002 1.4668220036649604
391 1.6007630186598991 1.0037887113363142 1.4593723755784243
717 1.9274149956212898 1.7443224688373171 0.6045742924269947
679 1.220656458624557 -1.815476905286746 1.1666210265902481
1005 1.111735069803704 -5.48607594497465 3.8683355303228226
967 -3.627182590433916 0.015276132487010428 2.3216343291618875
1255 3.221834501442643 0.16869196704765452 2.022331564207288
1293 4.775968546505426 -2.1229904414577203 -1.1055145946441751
139 3.6787621116099403 -3.4842341145996407 -0.8896414321504218
142 -3.087186489689819 -2.418513835588893 6.167596927812679
649 0.8706682509077357 -3.7704793584546996 -0.6264246285096401
108 -4.909297883795877 3.5180659374284127 -1.697040386416965
428 1.1367164802550598 -1.5364828632277665 1.152419926688401
427 -1.8982780417648637 -1.954790009364863 -1.3853042740482313
430 1.9468013873338228 3.2131432902066965 -3.852451463264274
465 1.2940062622570423 -0.5458214771279858 0.854985809009108
753 -2.692123491794337 1.8513788369067101 -0.2991142802603125
716 1.4430615508346014 1.0909420818656945 3.0366726784366795
715 1.2435922106300783 3.2194345549614365 -0.41177367151810573
718 5.965748478146755 0.9178999515939908 -1.7688431822760395
1004 3.5719502006507753 0.9050835728193015 0.5384092860573159
1006 5.06976997096081 -1.2230286591947859 -3.7248160944644564
1003 1.9336917736520307 -2.6314115010581447 -2.3319794441692903
1041 1.2609614971288512 -1.8720422433767707 1.8142939679796994
1329 3.339678611062493 -0.15185521925790063 1.9480669210774
1292 0.941012679529049 -1.011912446681688 -1.184415197185428
1291 -4.727123065257883 -2.0470603006982464 4.732273422438897
1294 -2.1341187407395408 2.5638358483648833 1.2215575914688148
143 0.37959360280722704 -0.35711639552800595 -2.3524418668736327
324 -2.4856507841120212 0.3713826279394517 1.9988288215597745
612 -5.118443543367293 -1.3468811511842125 6.5962662179618015
900 -2.1486429382198615 -1.8387855320433601 0.28542686184508864
1297 -2.042981336766957 -0.2085243630163427 -1.2620420113824722
1188 -1.6010183435680712 0.14943573617644546 -1.385172512770728
35 0.49398867546898667 -0.4099487300158079 1.891929044329847
323 0.38818179639661254 2.7139998530041534 -1.0976658986548649
611 -0.6354449991548818 -2.1671206865002417 -0.03990740933650091
899 2.8891440775484973 -0.22635829972472804 -0.039165714559121885
719 -2.3165544579869244 0.37290115164425947 0.93624996753526
1187 1.5721466812476985 -1.4182655865078087 -2.3089176616924445
973 0.8911193170360863 -1.597026367357732 -3.8979000571785223
398 -2.122799303850533 -1.7110139359754617 2.6146149288398406
71 -1.8069811268879654 -0.055514841564157674 -0.9316013113815218
360 -0.560803957552663 0.9548274897301383 0.6586015774648494
359 -1.3390311703322706 -0.8891994235450391 0.3553958396831826
648 4.745735096935206 -0.6222204509967035 -0.5929270006305289
647 1.2485394289092693 -0.57420776367452 -1.4591123868201177
936 -0.4478631421625953 -0.11136436723545245 -0.3325355365712594
935 -4.109243692443471 1.9970555042825748 1.3508238471112235
1224 -0.5882823613532524 0.9957896063602867 -1.5821190966653362
1223 3.2854386127726767 -0.10499951195195568 2.332912951992047
432 2.96602351687817 -1.3818330998258535 -2.8689477027750194
431 2.06889854778666 0.8296466865505546 0.058469596295706146
396 2.2468476249995093 -0.653185296212955 -4.6938054697221485
684 -1.4610266494837825 -1.041156821267941 -2.6210241928854403
974 -0.22278701518699817 -1.3410456455333462 1.138140273469321
972 1.6538897862087034 1.7764580478363292 -2.309945086272353
1008 0.042290322151042795 0.15140655115349672 2.568165540201846
1260 -0.2704219086721558 1.9362474882311753 -0.09488064616657962
1296 -2.2865774418381273 -4.883195673790229 4.792738309607157
107 -2.0570537208575552 -3.5046779696663157 0.11687166409064517
395 2.7297505111989873 1.0288953396621066 0.9280208426427481
1007 -3.5096016171586806 -3.2260540616331825 3.334599378087932
683 -1.3423746645198373 -2.917149726020446 -3.6180291389274135
971 -2.704719004033261 -5.367727782599599 1.9351957794862131
1295 -1.6423454994587428 0.36605997380365 -1.7603950712151895
720 -1.3911131718235241 1.6757213628526197 1.9804592857988905
1259 4.245981569746161 -2.6165939894994192 1.3529226374570464
141 -0.546808508251221 3.70631880304995 4.085224471235686
36 2.025905696020918 0.22903521873619026 0.44077774524698565
721 -0.46958830938437096 0.9256624336536782 -1.746697150286155
105 -0.7636538039198465 4.027386400094403 -2.3423925873163594
362 2.125056720553118 1.5300756243279983 -1.2722454694412988
650 2.51778436108341 -0.3649674997431204 -1.3123172925210111
325 1.6281290025631046 2.4296442109264107 0.7938603694094257
145 -0.7312616445241892 2.711286714795112 -2.141538123408976
74 2.8240142269363333 -2.6643822875862084 -0.36568648796732506
938 -1.7997513396706863 1.3849196671842217 -1.89718962839739
1262 -3.2963797424765673 -0.06363563558923442 -2.8283095956578763
326 1.8743472345084382 -1.889383671966865 1.3179776121989992
110 1.4397175838196765 -0.031286484929028434 -2.6074167729337
436 -0.5693010410091289 2.5716175058539004 -5.265475115188534
146 0.740152061841589 -3.0720110269926475 -0.37170693674314587
724 -0.5264762321300486 -0.6841542511884574 -0.6087267782400901
152 0.8075777414451739 -1.6192752304301747 -3.0201817365831163
1012 3.2421767153311745 -0.867600507688618 -2.705454132601056
260 -2.3198949959103694 -2.7928511726249954 -1.5539161872021838
1300 2.235014433143105 -1.061632556160009 0.38678522380301894
836 2.4579537142725516 0.4089410881760274 0.03566678574273702
147 3.001846255941161 2.1864534580166906 0.4356518754353814
435 1.4294862335200316 3.8174252091942575 2.1427218238140466
830 2.7760000260985946 0.6152276461459649 -2.3199918797613286
548 -1.6156270091068663 -6.3633271397570885 -3.763980006480911
723 -1.3087910632668185 2.77670694126504 -0.11463744736410379
1011 1.2750170063187078 3.706552057144828 -2.770546339737192
1048 -0.7667976172187048 0.8880909678455304 -1.8756103805630748
547 -0.2341042116102111 -1.3923558575481225 1.1810914163415593
1299 0.13072734826157062 -2.3544232076420584 0.5597203317195113
546 -3.39375931228296 -3.465449611427001 -2.672469400417719
183 -1.5025137650606821 1.613372471729344 -0.7408302646007421
472 -0.31461359045150816 -2.3753829557373045 -2.6608670622807433
471 -1.8458394981773962 -1.5808487714103634 0.35719313617335685
1082 1.4655563715046924 -2.2052591219410216 -0.5929292318863832
760 -3.4392705735263998 4.094819138741718 -1.8085046642149225
759 2.387332511297564 -0.984764829406723 -1.4136106285693661
1411 4.085424352772546 1.3986387015881825 -0.5672893305030631
5 4.00814123286341 0.6917863572469164 -0.8026447479459218
1047 -3.5044289551515537 -1.7075850933567667 -0.9101719025002281
1370 0.3562551805172158 4.399546811667252 -0.7149649412960786
1336 -1.8506603398950612 0.7880623218399222 -2.0543260447828158
1335 -1.2480385118353619 1.1818052387941613 2.144258268321989
1412 -0.305643399123731 -0.7267806139243953 0.24424944939807516
869 -3.456403830715978 -1.210473739271545 -1.4682008236358939
508 3.2671450119188243 1.6766832079440197 3.593452352884686
796 0.22868184358117083 -3.290748025061564 1.08230690916414
581 3.6177354455979187 -4.87361712094629 1.9074254983711412
1084 0.11524845164392927 -2.6771632642917726 -1.4896336780619552
293 -4.087984527688561 1.023798830090225 0.42945452955350927
1372 2.7315087705949326 -0.42944662442384957 2.374372691059543
1410 0.8351139518120465 -1.7463260684375341 -2.6229852797509836
219 -0.6490663055210718 -0.4366393100857008 -1.9248167629254378
507 2.7787221095449457 -2.995511832323059 -1.3317308629155526
795 -3.724622267132122 2.65664035021203 4.944633307752151
1083 -0.04904418677454239 0.25502258373159675 2.457675902450183
1334 -1.6719293154227055 -5.365074007055436 1.0843001405096253
1371 1.2182774850397209 0.1467601715991275 1.3225245486802655
255 -3.0637794215928227 5.183135567453087 -0.21141574632436494
835 0.3948489987731315 -1.0029207053974318 0.40062786825796004
259 3.0851884633388837 0.3743474034413578 -1.8327856075694238
544 -3.7273299194269414 -1.9974415478262448 -0.5635277932317925
543 4.2839119037766205 -1.3293181974092214 2.8758013843697925
258 -3.394668235215558 0.34764450120501245 2.181266014544894
832 -1.9060517174566944 -2.9784093243010186 -1.773805661624055
831 -1.9551516345339774 -3.004091296072161 -3.2590345339551945
1081 -0.805029610182646 2.2689694653174217 -2.0995116867120416
1120 -3.875687758764987 1.455965469665382 -0.5614538820634944
1119 -1.722928731498486 1.0573092354083802 -0.4183500218517433
1123 -1.929744733024469 0.24638290369645033 0.4554638265720972
1408 -0.38978374578912006 -0.19624972625259487 -0.9976731023246384
1407 -2.4746942990919236 -2.0287746378441427 0.5168462402426731
1122 -0.9656248717840752 -0.8267222537986636 -1.6491771163523175
150 -4.072480564425787 -1.6574314170661226 -0.8503816265910611
440 -0.35349161796479933 -0.7433457128601302 1.632641544495879
438 -1.2687012484737732 1.7530773669243505 0.5011085096924436
728 -4.336872801709156 0.20221482072706704 -0.06427510409250461
726 2.8577005513884823 1.1468865804948412 -1.7291528329628834
1016 -0.3690263145812533 0.19648252331383897 -3.082187483649387
1014 0.7774307258014168 -7.3752418896096215 1.4326831456701867
1302 -0.12544041956437044 -4.250802752386164 -0.06573523266940393
1304 -1.6694914586943255 -4.894758605361043 0.5971168762474748
151 2.947779673876855 2.987139235719271 1.6529539223183476
473 -1.9740722206057275 0.07377762757101385 -1.8062775869260441
439 2.5895635128054493 -3.405118763911524 1.1449375242034598
761 -0.9875498680832281 -2.143252302751356 0.5043341549233775
764 0.6115290228182129 -2.440031437190188 0.4211182280319746
727 0.8645796445866418 1.7193480588972123 0.34686274010966034
1049 -2.704335741505064 -2.381225512966171 5.9320461369749315
1015 -4.065662254643494 -1.604604319626947 0.8688383702615977
1303 -3.780482668792932 2.9399438829041733 3.0016638323996836
1337 -2.585129457795977 0.35393035226762215 4.826154151786105
186 -1.910100420069538 1.1094459803587675 -2.5810521910361617
187 -2.1448012926121 -3.4665778724404284 -2.042316210628763
476 -3.558871460563856 -1.503049533207273 0.888038725631104
509 1.7330721839922507 1.1457830016419503 1.3805276989024684
474 -0.48028580005405835 -3.013536737474435 -0.6687652546613967
475 5.185556027023255 2.1600704574841716 0.3490780920513965
762 1.0072383636228577 -1.192857379687911 5.57222527630407
763 -1.438577301465817 -3.235047722569686 -3.4760674916010403
797 -0.0985580786736396 -0.4084599288369816 0.11024636717591979
1052 -2.4117341915340393 -2.9843672373954995 1.5379454032618618
1050 3.4206085798924764 5.177093325492522 1.752604707776064
1051 -0.4929505575033887 2.917549002405068 -2.6972743651862086
1085 -1.5371629911646076 -0.6021413032986165 0.5237274132986907
1340 1.309156158507765 0.7918275230005767 6.2614486440456005
1338 3.8112888400623053 2.654742875010788 3.6039283218513276
1339 1.8386558288506745 -2.9907018871029414 0.813725550211509
1373 3.4708882265116396 1.436161400655386 0.6554843740599771
222 -3.8574163535581523 3.9862117056687283 5.617277406563437
512 1.0447089719068425 -2.775649489083973 0.2336102589351047
510 1.4306284018794166 -1.7178342783846894 1.390440379105186
800 0.15685800992988427 -0.4536520727302965 -2.018519903281229
798 2.0259689539010113 -1.0753315230570213 -0.9171517613431219
1088 2.3116836053831133 -1.3382150250135736 -3.2994234986381548
1086 -0.9761989161069756 0.8987587924399814 -4.028532991196214
1376 -0.4350047174141771 1.5429173349102872 2.6015145636832115
1374 -2.456252600883627 5.376997842667557 2.721765054293931
1157 3.216310999108926 -0.5937579944758234 -1.2313712794321978
223 -2.002027837556066 -5.163410605177279 -0.15752689608185552
545 1.0626329075211447 -1.3183111479295235 -0.10184136567126519
511 -1.6593991530633958 -0.5747618637286592 -2.0687854386155404
799 -2.9590006664727393 -0.31241203472530266 1.6814996701567468
833 -1.8187985575692303 0.6597680254487722 2.3780358219616455
1124 3.564980105065368 -1.9752783031778316 0.9323617770906154
1087 4.433115127997699 2.215292317973276 0.3340692967086624
1121 -0.9976422440352788 2.3817051678105026 4.07670038547375
1409 -0.5768591483983444 4.1144071451971875 -0.8270538977742949
1375 -1.1245927905450268 -1.43623577331007 -0.5466630277313133
834 -2.4342606941421105 -1.8408597635065767 -0.7364963576816002
506 -3.5134750628785762 -2.1766988211948877 2.3489216337024823
1369 0.20278092133775466 4.321252101487469 2.4585153908033965
1405 0.5550953402807356 0.11628859511172038 1.9118731116564713
1333 1.7905889243853865 2.7870378549374792 4.75503634901466
1 -3.412052771339064 0.7696895583008929 4.053989697519984
794 1.5201377862584842 -1.9938672622975588 5.734670235173136
154 2.4075351737290998 1.6647202292287688 -0.016616135273199554
444 -8.143077529482348 -3.2725170080639607 -0.0871808410544471
225 -3.457250637834555 2.5094838046868744 -3.3728833541303755
442 4.207828929096464 7.293339111528871 -3.353389125144121
732 -4.871065137525714 -2.0972457635186816 -1.770878704275353
730 1.8064721836219118 -1.338915208635267 -3.685761168773085
1020 -0.5904271083495052 6.496758207010618 0.06710010665808865
1018 -0.43569719413181757 -4.500151821409672 1.1692236224693038
1306 -4.329556709355629 0.009881740150324891 -0.12810320780516798
1308 -1.962503907057324 3.692650262085973 3.9791369857414325
155 -3.5846241115935316 -0.8978989193743843 1.5358499815574662
477 1.4599274193216416 -0.6356482503823174 1.2085171828472951
443 -4.5212953783944565 1.2390663202475214 2.418466548780257
765 1.4502200204305522 0.23185220251571992 -2.516069279602003
731 -7.034087641918946 2.823370750127842 2.0616192799782547
1053 -2.9355910611856557 -1.714903833154408 1.1999021365991427
1019 -1.8897835292284193 1.354746585546485 -0.2692582743547931
1307 -1.868366765619921 1.8652934720303982 -1.6164363685115781
1341 0.027510410172784994 -0.9348199275190342 1.8474660773127367
190 -2.220440433524243 3.71178113582063 -2.1735930659393787
191 -4.324161455752793 -0.5127296958896529 -1.8864165636232118
480 -2.0519494567119234 -0.7936087255964036 -1.4307718887467131
478 -2.1175318872894455 0.5146518513575732 1.3949759922190346
479 -0.051536507154976985 1.824835057562926 -4.816635528002571
513 -0.1555163295813082 0.21592746971617327 -1.8723208514930263
768 1.176118889710879 -1.1700474841601005 0.5717808909019333
766 -2.2761788042765914 -0.08921544003865575 1.056151324511978
767 2.4454857682069067 1.0308932188600488 2.435202653924171
801 -1.0119165452371501 -1.8805681652820012 -0.8406846066103457
1056 -0.15771197601366913 0.5777664486329446 -1.8300435435534124
1089 3.333424744168125 -2.798645506351845 -2.584292047585212
1055 -0.4207655637228915 0.7208047108051902 5.158157295744951
1054 1.2244964301664187 -5.041724011895587 -2.647852606674138
1344 -6.00147666147083 1.6885712233858032 -1.569149412557049
1342 1.8155446066682646 -0.7779090647674702 1.1850407308689366
1343 -1.8093840834190364 -0.7191011645093114 -0.06882210449199967
1377 0.2692907316740661 -0.9453690303879083 -1.6654745155227961
226 -0.027448233121686632 -0.40861531455871597 1.6928996909369978
516 -1.9720440741961356 2.3687206924541617 -3.842755836276833
514 -2.327908997273543 -0.29746463487319835 1.2203208873382771
804 -3.1640373853120694 1.5166796792602257 1.6028297764807908
802 -0.09134212251292355 0.7515344834963562 -1.924517972340354
1092 -2.8813077562793747 -5.303065389680857 -1.405865748520186
1090 -2.1344729084463636 0.6767678697671655 0.16469591568436162
1378 1.371953022589913 2.3161930140130416 1.998922596166171
1380 1.2759674836599544 -1.72045044325385 -0.5909351444305444
227 1.0768319907545396 -2.1368224980557295 2.399009797977474
549 -1.12623136003779 1.9372729941021982 -0.9909216976284966
515 3.4346751740123547 1.6905281556990472 3.331117293981197
837 -0.8094688151302938 1.031870019166187 -0.2449954191088372
803 0.9249727576559871 -2.552563857541431 0.28699340781442867
1091 -0.9700436095431879 -2.550867640306635 0.6582236663219106
1125 -2.021678494808933 -2.78634111130712 -0.6184555691143626
1379 -3.95378550369463 -0.4128394248941908 -2.69802616280372
1413 -1.5861312741415106 5.555824715406453 -1.0394076805168733
262 1.1743440144614496 -2.5492509300471538 0.8614732440630744
263 -2.549029131312822 -1.3883327294844934 -0.7232891398715287
552 -0.6240644546010108 2.8835303646469996 -5.7053856469698285
550 0.2085940241923748 -0.10717844654735412 0.648619491896034
551 4.3840443231060595 0.5297707207516721 1.5895745531992873
297 0.5477534611464351 -1.942079492584833 -1.8853090500480103
840 3.172795998742175 -0.05531005305106658 -0.994057783646309
838 1.26019529683996 3.0661535896439878 -3.5764606357847706
839 -1.1636128503266785 1.932615739341984 -1.0635743953910541
585 2.4890859416347895 -2.6193711393058092 -4.2080122224904155
1128 -2.8974110077333295 1.179826577914188 2.218689181445873
1126 -1.4032359453579561 0.373071855214973 -8.177594322376736
1127 6.377156175339605 1.1089952580737292 -0.2601050561946346
873 2.4181129404335295 4.681457754320385 2.826467606231508
1161 0.6236978591394481 -2.1550184229188454 -3.720935789666852
1416 -1.2966277694050568 -3.254079511232819 -3.8179297197109268
1414 1.7974962705463597 0.030839356998243594 -2.699677397396564
1415 3.6430048596668767 -2.418728054061814 -1.3470177228454836
158 0.20771372581729264 3.358389801065542 1.2341179612587148
1165 1.8828065474528022 -2.805425281365443 -2.087645960607975
448 -0.5609929585979625 -0.7548971338801663 3.4325562292093745
446 -4.429896692468844 3.7148719570576465 -1.162008267567498
736 -1.2970239711842124 1.7196583372007117 -0.07274679431745397
734 0.9343542908579308 -3.327365298007107 0.6324928435664542
1024 -2.9931484551687326 -2.7530167753609995 1.5784350571432817
1022 -0.7158185905956086 -0.68063387246253 -3.2169314776380142
1310 2.7739135409254634 1.7079440119316667 1.2230081002711992
1312 2.668440661387339 -0.11453132330377419 -0.5542344335161306
159 -0.9113718738568106 -2.8063844716620445 1.4155695726632709
481 -1.913382006440645 4.284069489948117 -0.570974700806267
447 -0.09378115433563956 -1.00621249440162 1.0283057812230618
769 1.333409949071501 -0.11115740334094304 5.180535278070975
735 4.812977997947113 2.2289345177756075 -4.912471685160835
1057 -1.6424557599914746 0.07813455897507063 3.0153867273467747
1023 0.3088871220383068 -1.7650062651509506 2.3131796351872156
1311 -1.1659992009174875 -0.7523581130605799 -1.3685980687029289
1345 -3.20733499647001 1.3639280010489 0.7463830929783768
1348 2.576678805881283 0.8504377719431514 3.9809303867277226
194 -0.18406622938418682 0.8082318273984038 -6.279324144515993
195 1.8891266113330512 -2.774185669889164 1.3895799894546392
484 0.2133904840038789 -1.652206646622065 -0.9586746515535634
517 0.062169322135233754 1.856283261442524 -2.04829955284017
482 -1.4615262164364449 3.8295856283637564 -1.2649827047246651
483 2.032713837676466 0.8928050760835442 -4.792945626039424
772 -0.7780019102184444 4.576753369459912 2.980660269409806
805 0.19081830832490418 -3.0866347900710926 -0.6643494902183297
770 0.16505471712645015 1.6872666372572438 7.56741304923841
771 0.016945198920173373 -1.4904996813778815 -0.9747511603001766
1060 2.1691742554962956 -1.3374152766921965 -2.7781537876310836
1058 2.55374632240714 1.5876870420336249 1.4155827041381306
1059 1.623999568013899 -2.950282409106519 -0.9422435966502389
1093 6.957062324562294 8.688793873338863 0.36146892586604773
1346 -0.10498907085029212 -3.6611881335422156 1.267208502767479
1347 -5.922170400101385 -0.5139816076093319 2.558023290443561
1381 0.15991303886878247 -1.5589995093876294 -2.7490368372121874
1418 0.8324869203618256 0.4644562453423245 2.590957485443337
230 -2.059935313130709 0.4164991694605638 0.4982106193070435
520 2.318264896926154 0.3039368436009722 -1.378187972151109
518 -0.12921956175066973 -3.8701322995198457 -2.1324899724166326
808 0.19882912314554066 -0.2914121288352591 1.2832797605359896
806 -3.0709450792527133 -0.27535338672606213 -2.6702491536563624
1096 -3.273080152740672 -0.5176738851085106 -2.738508056765474
1094 0.5639075220909573 0.25837085610511024 -0.5498285140210626
1382 1.4113413826193486 0.36479258219080124 3.012672517388576
1384 -3.3586682112533977 0.5496375449389683 -3.0234688259863307
231 6.775949988283081 1.214576612588344 -3.6502737118460042
553 3.665378673864478 1.9942232832532207 2.4537313440045927
519 -0.15957156612559448 1.7263831126941491 0.20456758977752001
841 1.0824722157309818 4.061992918570326 0.19120245350302958
807 -3.8382751961268884 1.190724077040728 -1.3758254288193374
1095 -1.8172854922495778 0.6581953479300792 -0.057963195239774515
1129 -3.44791883200992 -1.41989444814787 -1.8575617338557142
1383 -2.5172262200668807 -4.7126549009484195 -0.7858570715804064
1417 0.9925153389702784 -4.400028182143622 -2.7310190941291457
266 2.202844736870726 0.07160195382334421 5.016580316636689
267 -2.759134985323042 -2.174021037221676 0.8723006522702439
1420 1.5468839836377424 2.430804974332036 -1.86089042626653
301 2.9029404659119984 -1.0024143119895785 -0.10503593067444619
556 -2.3005422329635725 0.24018727088123915 3.257564672742347
554 -0.10360444449984754 2.6114095973246787 2.330490660677931
555 1.60426191271505 -0.2593653299856139 -2.0864538874752103
843 -0.6734115568116658 -1.209812186898608 1.0839501280473611
844 2.3677226186872935 -5.197642700203662 0.2957860027708125
842 2.6603473947702354 -1.547487832644343 -3.9331915524391863
589 -3.0525414098761656 0.051402863773748246 1.6976642225069827
1132 0.16538813792345627 1.036920618508956 -0.9690088112124651
1131 -1.5750424703842738 -0.2770106445670481 -2.3978793016371447
1130 -0.5076171976067265 -1.6400827570544618 0.973331995443635
877 3.214357776955053 -0.8144950393638118 2.732858307012755
1419 0.24920273613025185 2.4464923537039205 6.7887950143398585
229 0.10571198352899135 2.6807895512482127 1.0232317541497868
261 0.8969516817706641 4.7654611564253075 -2.7584534442719555
192 1.158437823174807 1.9581066348208613 0.894403363622336
160 -1.6757399948669809 -2.5458763013291077 -2.719623716037729
9 -1.1133685933031547 -1.193707935221521 1.2707857625093144
162 0.485085395364495 0.036174568534619214 2.048914435774518
450 0.42697869201711397 1.3942860132017516 6.012680676608394
740 -3.5943328535713386 -4.151445137689548 0.3888787047392453
738 -2.1522283197132683 -1.6190690123251363 0.23858854103952756
1026 4.352183188323898 2.0291194633291934 0.07452086510734554
1028 -1.6667223990347066 -4.389098751023464 -1.423534311504529
1314 -0.5535224318375139 4.7224330463137445 -0.2701293800881237
1316 0.2287506283575664 1.8637003130380956 1.0796130030377011
163 -3.300977323843028 -2.5038891695055603 1.5171967172093508
485 2.556850194477778 -0.8134333761890886 1.6114954717582681
451 0.24753474177136556 2.6205110875297697 -1.8826557810339384
773 -0.8070028860889408 -3.6638036465582813 1.4961920534493471
739 -0.12151786406834501 2.4159320892125753 0.5776169457983691
1061 4.877277349719019 -0.4527950473057865 0.729081211298284
1027 0.15943699283662738 -0.1520729107783936 -2.5068129924395164
1349 1.7618747786533822 -0.07046531112358521 -2.040826901693275
1315 -3.7573886075824587 3.495034262616728 2.6216869653561976
198 1.1729237544237023 -0.36131799871616743 3.478065596936887
199 1.9580129533748483 -1.2643761356800096 -3.295254651714054
21 -0.23682732456158942 -0.8265118268991875 -2.6815790670651336
488 1.5280044150734313 0.04119850790967007 2.9308207988882744
521 -2.6563487367698544 2.3308556718116304 0.823230151294301
486 -0.36327053310694263 -4.131839503210531 1.7640059037071996
487 -2.1672173725833717 3.346438958535897 -1.0693826901323311
774 2.0779304524697775 2.377493158325016 -3.288555853524071
809 2.2382781427490297 5.334216674457621 -0.2539729497419792
775 1.7209094696994633 -0.3949404802964942 -5.362006758493832
1062 1.0154679245019722 0.6593751426903528 4.140757182310803
1097 -0.26069204885036473 -1.0180198723327523 -0.09921439699217909
1350 -1.7769209887684416 -4.774377974148434 2.709930244759302
1385 0.03907076756421956 -2.305314870921808 -3.6574278507950386
1351 0.09251337205803072 0.4166513821279141 -0.906726999553732
234 4.215044936786981 -3.428107294064896 -4.304296468371565
522 2.9348585832645053 -0.13225396399980957 -0.4951138342881468
810 0.34472504767182255 0.7882908158817219 -0.854361915584335
812 -1.347690302451003 -1.5587498666201614 -2.6965984847668234
1098 0.9977911628148282 1.9359557759282278 -1.0558989616949828
1100 -0.7017469610561337 -2.62333544686296 -4.015170071980919
1386 1.5456021962225162 -3.393946424439595 -2.257320995371501
1388 2.3600258211346348 2.4439481313156715 1.819980132710087
235 4.545715122123126 4.212884312513812 -4.114261772939635
557 -1.3372368895157924 -3.4859901582724793 0.9588305276234194
845 -3.829521702122085 -3.5601015037538026 -0.8898510875263178
1133 -3.9526045471391926 -3.098714531769207 1.3245613610523235
1421 -2.4734246449251316 0.6390676018160215 3.734878065628956
270 -0.4767218462668709 1.2450262497994486 0.11119335347626058
271 -1.2443573218966735 -4.222347405536555 -4.255240283015823
558 3.1315434362875965 -0.7078018788130079 1.7519592813915625
559 -3.224626812846078 -5.729076704270965 -1.7920364936477993
305 -2.218101749897241 -2.627745644172556 -2.461286784662038
593 -2.3621611593387164 2.910633304376121 -2.411793295189153
846 -1.9117516129133831 -0.5416956279083094 1.6903787381673363
848 -2.632716893800209 -1.2221075121308005 -1.9572427510213553
1134 -0.8859292938767254 -0.15874690529051486 1.1094769098336352
1136 1.6009096336537287 0.0006664214223454508 -1.8404558421791264
881 -4.144303565520745 -0.015113317694430674 2.7766627112325
1422 0.724225256152924 0.5491368533408659 1.2826013727839396
1423 -3.144459451322478 1.1307235451055444 -3.966436877553066
1169 0.03638202799940275 2.2070482846666764 -6.13706881665169
166 1.564547665402651 3.0095975040893674 2.3771635200090975
1424 -2.716876653392249 -0.5166185133377255 -1.415741944903706
452 2.156913420715662 -0.5845251324216305 0.7031131761703949
454 0.39724641289270285 3.9596917806829373 0.10389296448998002
742 -5.731822827575318 -2.4151923981334877 -2.020002029010342
1030 0.1614255802396413 1.8627385518391986 -2.185909082343281
1318 -1.2014754708068909 0.8325444210597672 0.31720739067239145
1426 1.5277777909583743 -3.950803776084947 2.8965194367366514
489 1.3126869638189989 3.073024332729643 -1.6393878248250748
777 0.10998631496872485 4.896355432845329 -2.1676215028033385
1065 -3.778873998335817 0.9059910572979742 1.9832944941498223
1353 2.7765618630091433 0.9672875331789345 -1.4172020983815972
1352 2.957437984193472 -2.509872455513605 1.7185151251236122
202 1.2696477826614418 0.8724175093914445 -1.626161168265504
490 2.946976122781932 1.3154215670244256 -3.6344877516109317
525 -4.306183762971534 1.9125194516457038 0.5135567388616206
776 3.062000460638819 -3.595369967973425 -1.3051757577658352
813 1.0320720057707218 0.8353806114486565 -0.6837979295206326
778 -2.2564414229038494 0.7229530957232471 1.890979864353906
1064 -2.293707127731389 -0.35308429434412375 2.366069088653598
1063 -1.414371280637927 -0.9218621861809907 0.13815762787045446
1066 -4.346139787235308 -0.21271036295250503 1.1738705374149574
1354 -5.641119151969702 -2.0606685428240747 0.6736606432643608
1389 2.6380989480257306 -1.9718436126382612 -1.110992364397371
238 -3.647830081934014 0.22266082701128379 -0.29037992300667015
524 -6.134408587595339 3.7494664225128247 -5.737500617736658
526 0.033011372526761625 -0.477044388051142 -2.3561092044021126
814 1.8911098991044581 -3.958809390514827 -3.8531283392508473
1101 -2.4451444885431277 2.9205145477001784 1.4921979981880873
1102 3.096364200637411 0.09636027822641419 2.3574107572207352
1390 2.341328236850613 -0.15319733733415988 1.3529200721656
561 1.5927138754704666 4.2168530375680735 -2.603336632424925
523 4.729079037343991 0.18374125063490862 -0.136327780692581
849 -3.703505744430984 -1.4866908603199274 5.262006850998746
811 -6.428727401149211 0.028267148480025366 1.9060273147064677
1099 1.7009773323186093 -2.175772132218993 4.8519845593651
1137 -4.6695848090798915 0.38182720452383734 -2.5517454975466562
1387 -1.8671053262887745 2.475414091373963 -0.2792652971035961
1425 1.474875173673767 0.542531030344258 -1.4916245874410516
274 0.49653697985112427 1.6996170730817608 -0.8126503070356297
1173 -0.6809442322537782 3.708044725314494 -0.2806045440243479
562 -1.5482706809751627 2.7915901259915237 -3.5617658474211455
309 1.3408791389059616 -0.6011940611115604 -4.372549728475146
560 2.781554740231541 0.9595118702001951 -0.22630109444852262
847 -1.9745250182839513 3.275598937427211 2.5829359220829837
597 1.20092459334365 -1.276476548951137 2.8372271665455764
850 -1.2758892394815664 -0.3290450593463612 -2.182343228760239
1135 1.705374070286281 2.746568641370476 -3.9798326650933933
1138 1.516798995195736 -0.8001239103252413 -0.7693596058997451
885 -1.2466678276935639 0.3074841435440139 4.467448936424478
237 -2.3448460120908994 2.851059165065175 -1.892115158900952
197 -1.5193810455313397 -0.5670918248746988 -1.9694583003216746
236 -1.2415376443016677 -2.3439639081277344 -4.862005076593218
272 -0.39374518729932745 -4.511965914761477 -1.8541427300473634
273 -1.9745849315403303 3.8368634508155393 0.36773989036800253
201 0.864800190103527 1.048210603351197 -0.6485235628326496
269 -0.42040722215068344 1.6682144901329408 -0.1838596066449657
200 2.338742542546693 -2.145195031108268 -0.3986737643788012
17 4.313717011331895 2.4685765492993528 1.131050580960374
170 2.1883421288679084 2.5964920290620825 0.5540742078640292
1146 -0.4656754908577464 1.2590975948842078 -1.3764090083675693
456 1.3026911451405703 1.29729939606622 -0.021721035648937032
458 -3.421857243572452 1.0719129061656507 -0.6174734516430039
744 -1.0145278668317272 -3.5668103023425286 0.27208559654140724
746 -0.7593285516206998 -4.151129496814098 -1.0754478213848873
1143 0.6531380826185244 -5.706461481107466 -1.1703593592895902
1032 6.718312639272309 2.0371204384518276 1.5055028921971116
1034 0.33745306778613393 4.419694789419149 -2.6598539692637564
1320 2.7604650927377197 -0.8901010437562201 0.5997263091491642
1322 -0.32199919375383357 3.1299494097551785 -0.32834482510517865
167 3.67032185193783 2.073507897289092 1.521357079613305
893 -1.7497570012910826 -2.6263548314972214 2.6027417132028896
493 2.217545793317364 -3.4199838797937008 3.0640249390913414
455 0.28277285876564195 0.15189705756725075 -0.21076767257980158
781 1.5005950014918168 0.8334116724845888 1.8305163315484287
743 -3.5531085737164294 -0.21763954018392054 -0.7539858582793346
1069 -0.6453620673958981 2.145451694319899 -2.488138896809646
1031 -1.4433358721050953 1.5835274941036765 0.04746677182952801
1319 -2.751059441103566 1.46000577008404 0.2824677630847367
1357 2.5870733250167146 -0.31720411839744556 -0.4104638171925958
492 -0.9496332899597602 -0.07044918624391272 4.643070182112719
206 -4.766773740123472 -1.3988316768760265 0.6598413952555016
203 -0.44725428400290573 -6.698981348457294 -0.2882453985833423
494 -0.9314585147160356 -1.9262965543365695 4.149084974349812
491 -0.7802701080428228 0.9019001225375489 4.330235959390625
529 -0.039942477710020796 -1.2530363916473035 2.8994197899051852
780 1.8619467997186372 -0.9233755533649867 0.5430738829212025
782 -0.426133711393558 -0.5405710830463872 2.4800351964067864
779 -1.3010577058418016 3.164208811089284 2.859547209605648
817 -2.464170908772865 -4.079241197911054 2.921651384289882
1068 -2.0468333786697204 0.3446625580854656 2.107244929118284
1070 -0.19169262242557555 0.3293417932192436 1.2881920282467691
1067 0.5182177893078216 -5.675236007207673 -1.1781427268476663
1105 -0.5654952260068352 -4.00329295067386 0.09517543426006067
1356 -1.3685368318916868 5.3095273075730915 -0.6611406215100234
1358 1.4265028199908982 4.021315292968179 6.085017722259172
1355 -0.2926112716407754 -0.35167340548067827 0.9099929656084867
1393 -4.351721326228674 -1.9418925061801513 0.9022165359152015
242 -5.202792251906463 -0.7465400082627217 -2.863839831956646
1434 -1.9399601113428648 -1.3423474570523395 0.13296265925922146
528 4.0480939712228645 1.4694657940092648 3.570155916989137
530 -3.4122826815592515 2.6530867168774406 8.094322813498174
816 -0.1571124318499953 -1.9109586696318681 -3.1817951606123964
818 0.18110740079773446 -0.8420792424536679 0.17243911952925584
1104 0.16614677771996422 -0.38030832928264163 2.016907615354802
1106 2.5278798071443753 -3.174716632141839 0.8648738860913259
1392 0.5711032401311478 -1.213497023118633 2.9806445929508496
1394 -0.2893696736446481 1.0896364280638604 -1.8722000743972904
239 -4.619677442302692 -4.804756941439988 -0.5096893608763955
565 2.2364589994729864 2.5830027859630986 0.10310146620082775
527 -0.9669468491247748 0.8752171728561986 -0.7208104265893002
853 -2.997475436873114 2.0422748656911223 0.004496235228202862
815 0.41772215867383666 -1.0827109263323988 4.218942704367323
1103 -0.1346416658803433 2.9146523697342186 -0.6680663919974142
1141 2.247505116945567 0.08903356184257182 1.3033431847545744
1391 0.49641753583178644 1.2281449398968562 1.2432698591361013
1429 3.374833628427678 5.581685412629592 3.705751762132375
275 1.213486028977556 -2.1614160928743997 -2.9960301930719755
278 2.797521939994593 4.02275433342989 1.3004178705008862
1144 1.25011253825391 2.86946764048525 -0.2774318901303159
564 -0.003957386732784424 -2.4742758126842714 2.076508338669244
563 -1.652895836382992 -6.164961324610847 -2.781048235397169
566 1.37503220240802 -2.2883631239836837 1.621016289880547
313 -1.3288827811202575 -3.1760979029043765 -3.543156081124347
852 1.023200301642774 6.608082596707595 -2.0497126534317713
851 0.36727652167169234 -6.320567909081426 3.2401049023700876
854 -1.6337933728792207 2.7855470200119425 0.4784106544223819
601 1.0313280544005305 -1.224130050093169 0.916506300519673
889 3.620783092425583 0.1295589290300489 2.5778369932396874
1140 -1.0967743886872352 0.4261979336478707 -2.9920082998537247
1139 0.14751070533827412 -3.940260959258433 -0.7893541686248554
1142 -0.8724484299827294 -4.962493313200463 -3.1927621881306663
1177 2.162198252351452 -2.886448600834876 3.769218085931916
1428 3.446799232722979 2.2335061738926862 1.0191648574421568
1427 -0.2667563204235166 -1.3362475238216853 -1.116824933650255
1430 -1.972774887873928 -4.050935170409887 3.178965510189052
204 -4.697274270473951 1.4073955790839294 1.0934574451889922
174 1.129588239893827 -0.16193711497991986 -0.5755095834123649
460 3.854047730696816 -0.9445768987481501 -1.615783279911802
462 3.0248621916882867 -2.4154490667614774 0.9682879703350327
748 0.311563737090076 3.9933140900824027 1.2003279889560419
750 1.117459884551087 3.1994849468827664 3.925350821196837
1036 0.41457715451787686 0.8175968455056375 -2.5626301507731615
1038 2.7195219229338714 -1.059370669378976 -2.7076230087291884
1324 -1.1617480162229394 0.25274081164623774 2.3209817678558613
1326 -1.9041406071223652 1.7377420858695323 2.3572147126491014
171 -1.6485432059483294 -0.9460910091766405 -3.069818626209617
497 -1.371755798709742 -0.3290453774130248 -1.5858292755035932
459 1.06210664477888 -1.1661032647813818 1.8014807211066044
785 -0.15006670310511805 -3.6052593478891004 1.1572603089727749
747 3.5014832877004665 -0.6362099792310532 2.413295663766483
1073 -0.5585016197789514 3.860272953882777 3.4910285660799665
1035 1.1928954530085218 -3.4596557892701085 -4.319726448266793
1323 1.097490110309363 0.4894277490512456 -2.9796672146315504
1361 0.35675450668953174 4.106501185053095 -0.8883235266241319
210 -0.28038631989826607 0.6541035021296869 0.42134366967425385
207 0.6147322296952702 1.769865659392569 2.1905745052921204
1431 5.540638725137273 -2.6999596640991923 -1.1010213216388585
496 3.6134514359137797 0.40792429857356133 3.4295164870068024
498 0.2783316365569354 -1.9345386366492552 -0.23409182030207554
495 -5.337121739660562 0.8277935899764106 -1.0616065655642408
533 -2.912575515475828 0.9109347407501465 -1.0867360288737598
784 1.378092123149471 1.8078580357681988 -2.1195911526792535
821 -2.158744986327644 -0.7970323391366819 -0.6810946390789622
786 1.4237649375398667 0.37674858685577994 2.181668684943569
783 2.7387282569236553 -0.6089302012424122 -1.453956283197453
1072 -0.524995803169402 2.8894126778514773 3.0005295318641605
1109 -1.659633127821058 0.9429389589897159 1.2055332007206603
1074 2.1718846683676185 3.0758932738714684 -3.346575129683704
1071 1.7081337785542414 3.1207600323840152 -3.1437296010434093
1360 -1.3252518218524239 -2.4959580517517086 -0.22952532198049877
1362 -0.8369661941208514 3.365234722935397 1.3521950313391433
1359 -1.6205637985178925 1.5414582764611038 1.781907603088592
1397 0.8861600342034293 1.4563642190244694 -0.06292877720531297
246 1.798697578949679 1.3702386942377371 -1.4612599306696588
1181 1.7788698809707466 -2.486884504604884 -1.6259972884393767
532 3.6942283104345948 2.1109150702388253 1.6306461758678639
534 -1.0910815718442826 -2.208274887685338 -2.0888841664292213
820 3.9554862327685463 -2.7152013001405995 5.61882445108597
822 0.6769888421104527 -2.182581342537283 -1.8565332853067116
1108 0.1735060029918382 1.0855145348474364 -0.08662647342196925
1110 -1.0235858112854512 3.0525325839216344 0.45889469344992223
1396 0.9350239859333129 -1.3207781054237413 0.14077692013817192
1398 -2.7998910211159114 1.2519513325488503 -0.03044872656709101
243 -3.708791595899797 1.8864164682354478 1.8216730704556114
569 -0.5461165685852472 -1.378424571021424 0.00749666351732337
531 -0.07461189041749587 -2.7903704452531692 -2.9648586636925995
857 -2.3231186333841425 0.4049780832858625 3.0833358536825597
819 -1.2367600474162392 0.6023228708654824 0.27867888779161537
1145 -1.2729552876338373 0.3634736277049857 3.1102054969380197
1107 -0.6003227311851895 0.016737035214143343 -3.1937679462352695
1395 -1.9457773657962725 -1.217842981790241 -2.952759481866889
1433 -2.5179154394867314 -0.4085086224525753 3.6952480856238017
1432 0.23097087418352288 -0.7870101936949427 0.8303597098480888
282 -2.0919736037563443 -3.887181585261333 2.1325652527630967
279 2.131668810202697 1.999771633689567 1.7300800082677616
317 -2.152436157947732 -0.20140968165757275 2.3364257470343914
570 -2.440662835969089 -1.3651182522028005 -0.4598335812865706
568 -0.3904552098731863 -0.8644402671930475 2.2713260678025664
567 4.554957162786126 -0.37361796522482826 -1.6373027057738052
856 1.2200431753464778 -3.4583701050348536 -2.4260497101270215
855 -1.151116712557559 -5.2409025628506365 0.399548631600281
858 -0.126912393788459 5.87390111982094 -4.0828818503255
605 -1.2418625736704245 0.6701880634575137 2.1112806035364016
244 0.10983824468414147 -0.6065760860033595 -4.320646722878531
277 -3.302308414431814 -1.8974210961212121 0.34194050340215826
276 0.11833744554278669 0.7642996721059797 -2.5878112250798355
281 -0.4482905457835793 0.8590327907359022 2.063024850797158
29 4.551025861869695 -2.640226142368373 -0.9792781240693899
245 3.0441690160374613 0.6529993338598816 -0.810804955903796
25 -0.40226908867546146 -0.8585183308919975 -1.1969820908927578
209 2.1614882855426614 -0.6234637619051506 0.3374406840400907
178 -0.7838647565537228 2.8769201553714465 1.6839728598558035
285 -4.13141826134058 0.8359306156593299 0.6268031556760147
464 1.380227264344591 -0.07309369939295789 3.9250823501489003
466 -2.1499824477060003 1.7252917508274053 2.0749542434727752
752 -0.6886243455670492 -0.2721716695887772 -0.04091180778063355
754 -0.033864855915711554 0.7561702065894316 -1.8920001293539335
1040 0.2914320733178765 -0.17703640018201522 4.147411840841914
1042 -1.3568166461950313 -0.4324130333484235 -1.5701799912765573
1328 1.2873106265145116 1.5720602923863458 0.18433090612224515
1330 2.126467468641488 0.8872859353357525 -1.0240927160720905
175 -4.037559661981042 -2.506795026810213 2.555446490659923
284 4.5825205998362115 1.7396110842770836 -0.9404564941751994
501 -1.6028900093144538 -0.17840073999206907 -8.654060345146558
463 -2.4796925034802935 1.4942343164421756 -2.9240120282792654
789 -0.06991130900539498 -1.9043677043863094 2.2023503270658007
751 -5.144510760611906 2.85356063308845 -0.9915919171023849
1077 -0.46917387068659433 -3.0989806788700127 -1.22062664007579
1039 0.7623250615478395 -1.690589914703041 3.231337706039548
1327 -0.8093190506391272 3.3031992456618684 -0.7558942423160471
1365 1.2714395309866882 0.08968014162016097 1.2809170563292047
500 -1.31034964438593 0.10349770439239797 1.906560366625247
214 -6.583954603753823 -1.7262918014583368 -1.8680526019665946
211 -1.4774956436799411 1.1851612514330994 -0.017249361178935357
537 -3.9118135604558772 2.295880377252247 0.290262994058298
502 -0.3211702612112987 -0.6011710541750372 -5.323653432902888
499 -1.0164305752572804 -0.34116116649345296 2.325919132376353
788 -0.1344359818393433 1.169876591114055 1.698295312912096
825 -4.195590803070861 -0.4384016565799171 1.566731030475118
790 2.063756242118835 0.38719216935868694 3.854741218532636
787 -3.8128649855590697 1.633048101767341 -0.13293027436437382
1076 0.8773971155016358 1.7727894691657418 -0.6476871444869192
1113 2.7096599476154624 1.7061500638164202 -1.0970590151347843
1078 -3.829275009328016 -1.5461089043512928 -0.2397992196895933
1075 -1.3893695858449342 -1.0646829058055671 -0.8563272118526832
1364 3.178544930820878 5.604653259343605 4.080022362194425
1366 -4.0822023190166 1.4435967865773227 -4.035330823015422
1363 2.4962790410236066 1.6156224890442343 0.4041503714580726
1401 1.0388795893855223 3.57458703147613 2.6332071360657827
250 0.38524393659444905 1.7437278403667864 -3.1919643377515494
536 -1.169642339835854 2.6672986100736096 -2.220200110765382
538 3.009088268357497 -1.268886032069236 -1.2058545166357741
824 0.3398459561281492 -0.3214053466140141 0.05449725537020378
826 0.927096648588063 -1.0453309461936278 -1.7436595375275434
1112 -0.8146526668940277 -2.3447130060213364 -1.5978273699050436
1114 0.7880065862611438 -1.1861396720296777 -1.9289523127303432
1400 2.299505264909647 -0.7346547047683429 0.4033792506894938
1402 5.2902494214075375 -1.035826168646064 -2.5865680153152377
247 -0.5756083617482312 0.12744037197016592 -0.218577679785786
573 0.2662313075217606 2.9345089775872912 -5.750405748433637
535 -0.06993407551718485 2.024595692489748 -4.424183525280216
861 -0.012275919916239294 -3.159965451743721 -0.7647145337984973
823 0.040692196393545405 1.4309873960485664 -1.9044043963206165
1111 -0.1662813105212693 0.9880467915670675 -0.2161107045191766
1149 -2.2939438826374743 0.5825458892465191 -1.5345679380733093
1399 0.12346130297086555 -0.22042220484444688 2.4803011335155105
1437 1.3704597667939937 -2.534502498587697 3.4969682967367275
283 1.642305131157441 5.20522596083871 -3.0688634463771267
286 1.1893222505743553 -1.3006572625285564 -3.7409818307903655
572 -2.9431179248737442 2.9043756561964567 1.0540163666524647
571 -4.659612570407825 2.947692681191045 3.6564629294594395
574 -4.033025436838443 -0.1463380958083553 1.2283343001795306
321 -2.3050387484988346 -0.9253386632241355 -1.005393771588269
860 1.8439945706507685 0.3321240352979168 0.018178575339764677
859 1.0107246046459626 1.2788663171326347 -0.6588738599656119
862 2.356104355443714 -4.888671277258634 -6.039640985468912
609 -4.552450368585674 3.0209580170181374 1.4352396081826586
1148 -0.8735243166604802 -0.22670393040897696 1.8542886132744507
897 0.6201176702223583 2.461559233066634 2.7505417660259415
1150 -1.5491276369697353 -2.0331432251448 -3.2501186767638197
1147 1.9362202656819743 0.9516805865146549 -0.8376515380924896
1185 5.206606687643008 -1.3740053015988465 -1.2556071190032283
1436 -3.349239773240587 -2.373390129791055 4.484754301457011
1435 -3.2095526887073955 -1.6363362103290002 -4.808005064348886
1438 0.7968378129089665 1.0602903558792225 1.2792831053254499
212 -0.04513109670271947 0.5700307648227336 0.38855282958171966
468 1.1738294851986786 -2.894339228442466 4.709584069996774
756 2.069041065114731 -0.2817099922038801 4.613125353492177
1044 3.283751622895549 -0.33368607882274015 1.2769445644815423
1332 0.31817758216732367 -0.496993009786873 -1.3287747433715813
179 0.848495911471026 -1.2320585193079419 0.18719170969048968
467 0.6556984673712595 0.20286087396290617 -1.2165416122436212
755 -0.5897529031097791 -0.5128922049724636 -4.025550410284089
1043 -0.09279567590837233 0.8743460223490849 -2.872577846423473
1331 -0.38702013678825 -1.851711160438562 -1.4247503435978095
1118 0.08210776945325364 1.2547846625907393 3.494631711145418
33 0.8141721621169108 3.339003396796044 -2.5506792326300096
215 -2.6014915644962104 -2.6262379613235303 0.5483783722374442
288 1.5197058530311633 3.963092244039815 1.2584332748352947
504 -4.647095713485083 2.0258389291709444 -2.3932718678749336
503 0.7292773017255695 0.008230841470085161 2.850174972395703
1046 0.5506301835909154 -1.8601750849805838 0.7500668537346641
792 0.40253426518716934 -3.5163513705961518 -1.6176182848633405
791 2.0967310279001246 5.001150546099832 1.5290532066460338
1080 -2.4949655123688954 3.056786459269968 2.942424801869903
1079 7.080613339643329 -1.857689765954684 -1.8562311427740283
1368 -5.820211940570009 0.5636358447662179 5.067500412065139
1367 0.19971921515546714 -1.838698209004119 -1.0424437743106347
1298 1.7428954763603228 -0.42859982678689484 -1.2403980277585056
1439 -2.957909727781787 0.6675726260830961 -0.20853910887421795
829 0.7228282025356199 -5.30461915512458 -0.2505753583620333
540 0.44246286981459454 2.3150499205460173 4.9547432186226885
828 -2.8178365080201937 -0.5222143141732642 5.055345411676708
1116 -2.651709201491505 0.5500823556536255 0.7374359877314037
1404 -0.29379755596555024 -6.284177916791389 0.46171289378513175
251 3.481091249766087 1.9336061336322412 -2.5238576665808155
1406 -4.487855638979455 1.9187885628159984 -0.594717014496291
539 2.6342684910490872 0.4474052326020765 -2.037071965421909
827 4.453420933332007 1.560784075546585 -0.7705662574245047
1152 -1.0095884160263071 -3.120670642429382 -2.524640691705909
1115 2.9966612706531834 0.7060099160619064 4.54074004489854
1403 -6.541119751795693 -2.5326324256729955 -5.24912612475766
254 3.03288517551294 2.9136546326634565 -0.8511787386646256
287 0.4978157038168146 -2.755113853882644 3.684377341479657
1440 1.4719248224664563 1.1549349937741797 -0.9492972544798278
575 -0.9060365832531556 0.6375069335887599 3.0153989769894536
576 4.513663815963538 0.4316150366842535 -1.4804240844827865
863 -1.8334967218000533 0.7645426951533872 -0.29924291309753476
864 -0.1337597735795313 -1.3959225298186042 -3.4169933116299624
218 0.05460406593009275 2.317244865655133 0.07850019750676848
1151 -0.5705407203810594 -0.5849564172045112 -1.6378390106294072
865 -1.1697592440811297 -0.4547768688150353 -0.9729012948998651
434 -1.1325016594838306 2.144251167125019 0.42675559757797854
289 3.30216489943449 -0.25154445139570775 -0.7323065768229605
182 1.6300536495984947 1.8623757558009728 0.473291861656734
1010 -2.614700162314389 2.9382047245597382 0.9111037411960506
1117 -2.2224620176219565 2.8146911102517636 1.6735182894614122
213 -0.3095984827419094 -0.14223897215898695 -1.9553163168573962
1045 -0.021599932614210674 -6.136194390200318 -1.6147636820348295
758 -3.3257056806080527 0.7075367356599486 -1.6147362680516415
793 -1.0613019726103654 -3.9627630247019443 0.6372148664835688
470 1.0381006621301818 -1.0558142880335373 -0.926820525509276
722 1.974472732485425 -0.11535319388895075 0.0878807510809996
541 0.9642389748594189 4.971178174259434 0.3623367381267725
469 -1.01750158240239 2.8555173757307593 -2.0326177055351526
542 -2.5726528837909886 -0.9798014631010192 -0.22711739313613932
757 -1.523189302287449 -1.1292987845714475 -4.93084884774565
1153 0.4929757571119944 0.051724737367033355 -1.2849554711613171
505 0.5226821806110448 1.8051237825937583 -2.803660330549956
577 -1.3040656970471782 -0.1316814976591288 -4.94796563960695
1444 2.576677781694591 0.308025441141055 4.353571736194555
1838 -0.8966662399625872 -3.5464158470078546 -5.147990506616007
1732 4.609401587081663 -2.49136546983836 -2.2274419343365484
1801 -3.393133323533288 1.1965547442748565 -0.029391988262408807
2020 0.17299622343619345 0.5495199545129528 -0.49409780845603707
2308 -0.7170709462110633 -2.9094094507485693 -2.0313721050936584
2419 -4.930016268508822 0.13772725162740995 5.763755897069564
2596 0.7500135938299773 0.05842588419346813 1.6392066500437874
1443 -0.3891673365089613 5.945353912320472 1.5861584131244144
2126 -2.6393226489982555 2.1787632472546545 1.3234677800357646
1731 4.176703289390148 1.5188668758297792 0.5554814498617074
1877 -4.03569820386433 0.7016675865357408 2.531505537487341
2019 1.462046569271083 -1.476002185619246 0.816609144454443
2741 -4.387628650398807 -1.7228216347349368 -1.0110732486535863
2307 2.532176337431674 -2.5206367132599143 1.5212392793364453
1480 -3.9791310739816215 -0.8469892883381223 0.6940389597445927
1479 -0.009931585820287135 2.4434527695478145 -4.52438660615163
1843 -3.668614777956922 1.917374303104941 1.29807854932783
1768 2.4223324402489794 1.7996385799398893 -2.924513373833381
1767 -0.6644550173913838 -0.6519764994470562 -2.1608056575481025
1842 -1.580036782567652 -1.1234465475817195 1.8421653777654508
1844 1.5059102067360715 -0.35354836712313786 -2.080146420821802
2056 3.224798250691865 0.7327801348185534 -2.5883858063569227
1589 2.1255164051044253 -0.378512878393848 -1.0107483989519674
2344 -0.07096360863940536 4.518741226328085 1.4631417826427895
2055 0.9752161818845048 1.6098360082315648 -0.028076526533835414
2632 -1.9543905203569163 1.095568835101797 2.4703267186801487
2343 -2.2500861556371685 0.412783065919196 0.4163060765043457
1516 0.3759717357751253 -0.5803063715591934 -0.5577262104922451
2418 3.8717443196442014 1.4569409515708989 1.7882474966917026
1804 0.9501961212371746 0.4752955455634252 2.0090492406087535
2092 -2.786195987064964 0.1502038096205096 -0.9586536036021263
2708 -2.0947785251994495 0.6729141166228846 -2.260009181882333
2380 -2.876635371077345 2.5246393094780735 -2.1362845651890208
2668 -0.1944399195926551 -2.440895807636008 2.9747880714426427
1515 3.373321298212068 2.172003145783415 -1.7262768589481696
1556 -0.7921827593255162 -2.2173233409406112 2.938876418582153
2453 -0.0021674857533655095 -0.45688244268636946 -1.1691617950063014
1803 -3.3057062767002097 -2.5542596429624798 -5.371156412366196
2091 -3.4337469177508058 -1.2203290506803466 -0.012820408995023
2090 -2.847441922797768 -2.1976531897063554 0.4373074309853254
2379 2.0018116524371226 0.39470613953647044 0.4273187369246268
2420 3.1065501148577113 -1.8852959847502253 -1.2742921114351133
1552 -0.3539749022174739 -1.2575887940209305 0.4136218340631571
1551 -0.2622121848374579 -0.42598407343004807 2.222180258413428
2130 1.9394236109715297 -0.26087407502759696 -0.41319804591496423
1840 0.6487084489039531 -3.540239028331149 1.5329954800177654
2165 0.61606594231232 3.2247870351395895 2.6893914840012614
2131 -1.8022617727137589 2.7292621514826836 0.6237669332122555
2128 -2.2414173321420794 2.261912377960787 -0.392536632878454
1839 2.7657390446285888 -0.3280123256413492 -3.601060097169992
2416 -4.298601337253285 4.897974425244558 0.23183368603441398
2127 -3.582409593438727 0.7762998658898131 2.5065534944560826
2132 1.9298965793173006 -2.273156237602571 0.6331887323076176
2704 -0.8114253187123041 2.324780878947096 1.2247948833246172
2415 0.999822953764457 1.3341817207876825 -3.3747008107586653
1446 -1.0652938727224484 -1.0851069383002372 0.23823238287173829
1448 -0.21294896407551261 -2.4880328821453452 -1.533859271689683
1734 -1.5904818707295123 -0.5649113877350023 -0.7116516509401946
1736 2.429598978714875 -2.18352951837006 -0.2840853270085997
2024 1.8988126095976465 -2.446536719849967 -0.9055706414343209
2022 -4.325469543264145 2.8536371112996664 -1.7173459677248732
2312 -1.3166263669466909 2.779662562606556 -1.203841251143807
2310 0.16998837496197025 -3.961233079884973 4.026530317943281
2600 0.48963493749501574 -2.6748189864437513 -3.0340267896422346
1447 4.432527201618912 -8.015972968275689 0.3306418139400108
1481 -1.1634484120919557 -2.778039217443453 -2.9715042056422365
1735 0.5891202313604523 0.4664749531033669 0.5487470321639384
1769 0.2696116242125657 -4.237061501580028 0.6402435947955099
2057 1.96072576105572 0.34658210961857 -4.1101066328419815
2023 -4.426707100726195 0.8485813013097314 -0.8955328417711205
2345 0.17493705026645637 -4.826217802690422 -0.7074443965683692
2311 4.359362436867986 4.074662593257521 2.5872497447568263
2633 -1.1159255140216413 -1.6741448422596539 0.01163627164737746
1484 -1.4633423626887243 3.1500361134780053 -0.08557981705106764
1482 3.8446034018655304 0.5833422922832575 0.3557411951070246
1483 -1.5592328905651454 -0.4793747815069159 -1.452651463080387
1517 2.8187541170470793 3.209206214493185 -2.865404511753285
1772 0.5249643854218141 0.08082794938266086 -2.2824879519851278
1770 -0.409790604306142 1.7665347084309753 -3.694704158294506
1771 -3.634037492823219 -2.7372490868592925 1.6706306165460714
1805 -1.9186246179292719 -1.5875006680958794 -0.8377731106275056
2093 -1.231891015859781 -0.42863396159469025 0.39246264432096223
2060 2.3514311224009927 3.0560360565819225 4.675581483816222
2348 1.4944605295595939 4.118344081773183 1.561612110978075
2058 -3.137507943763265 1.7466445624584017 -3.2019681004550073
2059 -1.10094675945861 2.032242695625465 0.7304449431881233
2381 -1.1235645863105348 4.099078184274079 -0.13699027260702623
2636 5.778516762072305 -2.4161787910083623 2.476283794476942
2346 -2.0753799855582553 -2.7085817239402923 0.35163846144632144
2347 -0.6091515922783096 -0.766363181732844 -3.0862495738501323
2669 0.18092451631458537 -0.2928282709652995 0.030969079203916325
1518 2.229556675539573 -1.430533484060924 2.780074998417357
1520 2.148258984384497 2.514406106912621 2.694694826158446
1808 -1.7497199350109411 0.5422844431637739 1.4691076051889838
1806 -1.7400374515118369 -1.873281514196086 -0.4873252681906555
2096 5.377885957831909 -1.0531019344238917 0.03671534752043601
2384 -0.3509498678955257 -4.608985064378935 3.400687572615377
2094 0.08335611677338829 1.6274423180048048 2.568800331970314
2382 -0.13578497936719508 -2.3737009139132255 1.1614698494955682
2672 -0.8396776943947467 -4.920419866266171 -0.5772130069888033
1519 4.016207721237122 -0.4941608794237763 -4.436578292140462
1553 -1.4986178330628837 2.6709687106593822 -1.002136332544933
1841 3.8079978327757584 -1.2686510626963436 0.958400282260174
1807 -0.9856926630109285 0.9045492656444823 -2.9915839298666005
2129 3.2965237035939214 -4.843615199529792 2.5467534060273587
2417 -3.693682591722917 3.0418040191690636 -1.1004536023595777
2095 1.4435718838608012 2.4039057935763126 -3.227571696161058
2383 0.15783457271944792 2.9062136184292586 0.6125649039744301
2705 -1.4088037254579033 -0.5381510406175108 0.13298733247543107
1554 1.4290717763337475 0.11521652347594068 -2.906738867382318
1555 -1.1069966576319 -3.5355851907631806 -4.371785461020151
2054 -1.1617725880058911 -1.3649551746728432 1.688115319257752
2053 -1.0306951109399842 -1.634747410865936 2.3117005201021534
2449 1.9760592677322328 -1.6957511508674514 -1.2346931795335292
2125 -4.088884383936945 2.4372960490031903 0.8660860538912201
2377 -2.874353133010394 1.943024120219826 -3.0502733979664622
2737 -0.507794983712778 -1.440523410023676 1.9639261629056572
2413 -5.1206111056593375 -5.999946835535429 -3.7494526459551762
1873 1.640508182673672 -0.4411259851746639 0.14587444016616738
1549 -3.591418111267022 0.7851876462999801 -1.1270597375267064
1837 -1.477591269953855 1.5718274466790816 -2.697647485057998
1766 1.3982401495473924 1.5068863788507818 0.8647905969560602
2378 0.9392234452508721 -0.5162556439015027 1.9578766219358075
2701 0.7066606928405982 1.3610720549682729 6.163711903544985
1514 -1.5022947934271569 5.593139152082332 1.1887499705646527
1550 0.10836657607548857 0.396397688039381 6.059161021582342
1442 6.114171579741062 4.06373065834912 -0.9199692010034682
2414 -3.4061396710810388 2.4010898025107337 0.4458326353638015
1513 -0.3211309141458889 -3.7649634007350685 2.296263709926548
1802 1.9173046621204042 1.593121716221805 3.3329441197908545
1452 -0.7719647309990917 0.05685518592478548 1.2554408349484263
1450 -0.718074468356899 -2.0514939565217345 2.03743199374926
1740 0.43118542215216976 -1.5828619210492025 -0.8367369742738548
1738 2.1998877139417825 0.8632989620096007 3.8594279503480173
2028 -0.9233890668305478 -1.9733388730767518 1.1086979687523628
2026 2.352420974238414 4.368707066722848 1.5481347333469866
2316 -2.128217398976687 0.8794951403601022 -2.4775264817196705
2314 -1.3335251926955538 -2.915618188569467 -2.7137152356168124
2604 -1.6615309373984952 1.624940024479294 -0.10989630250488476
1451 3.6857620679011953 4.7398468905454765 2.76468404374334
1485 2.2193204580386863 0.4916373805890578 -0.7485236223655385
1739 1.3208231507942805 -1.4794785388076086 -4.124252098797999
1773 0.9082522472858157 -3.6123384574674673 -1.5296364714557702
2061 1.399920372039566 -1.0710279966258192 0.6403589469661948
2064 -1.242686283308739 1.4990714670248095 0.9857963263786124
2027 -0.9838135117948782 0.38669477871497077 4.416303053086176
2349 1.1290476707572779 -0.5899397182069291 -1.7532213499585039
2315 -8.702873768346135 -1.540365194740896 4.099635852485115
2637 -0.9740120480882045 0.4849045311945081 -3.413638694166309
1488 2.9792408230517906 3.421785672803544 2.9771666169747655
1486 -2.255401131445484 0.4576082263342401 -1.6252226330117512
1487 -1.779991200926456 2.7027807706413283 -1.3595859204545355
1521 -3.3273324121213492 1.2590717991241864 0.8799864924897064
1776 -2.23779470120331 -0.559306600877356 0.5476973849485859
1775 -1.8554226337357556 3.6247212256926313 3.7830990226135532
1809 -2.4240287372444436 -3.2639037698157827 -1.7934489774032059
1774 1.373819539714376 1.6483108278289786 -1.2207092885461273
2097 2.1082163063816455 -2.438075556922764 0.10340736471777516
2352 1.8466701739594646 -2.1945095467882347 1.218561694152588
2062 -3.081363383870999 1.2027702278017187 1.4330221043953473
2063 3.107426651399151 -0.355077399981702 1.2381574579683137
2385 0.053234136905427595 -0.7940554817460432 3.1313926545678115
2640 0.28294056243138405 0.9531899403718154 0.6737716883116612
2350 -0.5129402935082021 0.12554245654142926 -4.784017152345097
2351 1.7901578557895845 -4.266597496483228 -0.072578174303518
2673 0.034729930285994005 2.8170065550051717 -1.1190988119822292
1522 2.202674424760294 0.8727197110194401 -4.212497549959173
1524 0.47300714531811133 -0.6618061859831966 -1.6616350607701953
1810 2.246493515114962 -1.0454900545709025 -0.030515099925263713
1812 -3.6807711220592823 0.7481638299282071 -0.024441577101373332
2100 -1.7565671798835545 2.9566201406141306 0.7167125816846475
2098 -1.2783238556066487 -0.31094272688417635 2.743147848270861
2388 -0.3266060158125103 0.6932799548604457 -4.184948123936299
2386 -1.259450692645914 2.6679878092699516 0.4658514942035455
2676 -1.2672145484350121 4.422019613633633 4.462735321726446
1523 0.7624102851831296 2.863861450652826 2.0004687006457536
1557 -1.065450753117513 -5.375968210476756 2.4881676376602275
1811 0.9162364057313818 -0.811340733511889 -0.5881550817635014
1845 -2.7737742792016533 -4.31975509467097 -1.5527359415993482
2133 -2.1339141482554593 -3.749520188606211 1.4468977866794879
2099 1.1067752571670846 -3.308497900101634 0.4596950253953434
2421 -0.06455099719921553 -2.8442354802350858 1.5611152046263057
2387 -0.13411591400841646 2.273942105288136 -2.4187705666819865
2709 -0.8378313214752905 1.2887060476116325 -0.22092136623604158
1593 2.3680164083498108 -5.26727982253581 1.797616276041967
1560 2.6618945358360095 -1.6286812891771696 -2.001383568435052
1558 2.753349936077473 2.872182637092383 -1.5014164800973424
1559 2.3717250575273416 0.22850194182976513 6.06771182466931
1881 -0.15480771909629354 1.4701216944856295 -0.9283422551317394
1848 -2.5807391022468233 1.9831203933276444 -1.660599882381076
1847 -0.7475083669320793 3.979911735982624 2.147297851936262
1846 -1.1231369539739593 -1.2043402487779438 0.609007184981159
2136 -0.16137634633142225 0.3521551911777935 3.0355906355161144
2135 -3.0984024369638967 1.1043339768432625 -2.5467376073787724
2169 2.7096071731319857 -1.9525414484411645 0.1851018238578904
2457 -0.344280991361678 0.6790449579224573 -5.289774106476618
2424 0.8629844659973582 3.8917392423082022 -3.5371975505398856
2134 -5.648156507616702 -0.4910212345047866 -1.2132056880805835
2745 2.90997626868156 -2.867158748038988 -4.067890991110782
2712 -1.2940549063727236 2.5193237000128463 0.07406277179704358
2422 -0.07359755672228475 3.849706215395468 -2.58391593846817
2423 -1.4618103702683738 2.3905544026506615 2.8286444056622564
1454 6.1744974172406115 -2.114559749964915 4.4078637802233525
1456 1.1604036137535616 1.8255468181044776 2.4900141225115826
1742 0.16994674020201392 -2.217692260126594 -0.06834645842887417
1744 -0.10705314120128297 -6.330986463831115 -0.3845830052746677
2032 1.394133952216454 -1.4101836092089604 1.6601362664204387
2030 1.2497123255515965 -0.49264175297024504 5.171468397018218
2320 -1.8479874893909678 0.24215523411256018 2.5209549704659393
2318 -2.542796267527341 -0.09603065755695338 1.776376124713009
2608 -0.7304097139488781 1.32941188513037 -0.7826490180054718
1455 4.362212874265358 1.9282366057150016 -0.18806489829967868
1489 2.1490013420214065 1.4365373177616432 2.673997707335306
1743 -3.069865717714363 0.2177710364280161 3.45578747900832
1777 0.8372102664981802 0.9329405232121466 -1.247255026163605
1780 3.384161726939439 3.812079976495853 0.2517306585779172
2065 0.780743613219894 0.5139833855541565 -2.9115599628714772
2068 -0.30335662862552165 1.7934185784650443 -1.9459294718202775
2031 -1.1438667008198142 2.243257460266198 -1.7986008798819069
2353 -3.097159313136515 3.11020630860626 1.5452299617415817
2319 0.13470880954463177 8.867524607760798 3.831335169742515
2641 -0.2507621240294496 0.46537311115302604 2.69430054578116
1492 -3.1868978812707263 1.0612475755643966 0.26717390561567594
1490 1.1706352372942401 2.24854001001214 -1.016851410177569
1491 -4.2943396475129525 -1.6699523476916434 -1.1563275477773416
1525 4.672339905375446 -4.404032893093467 0.2932970660307679
1778 -4.216647649337167 0.8390861938756227 -4.397920387491943
1779 0.24405902417884687 0.5896280193878637 -1.1820395958514367
1813 -1.644404242651427 0.6596618611071502 -5.209611169301025
2066 0.5988323784490858 -1.0972881949987014 -3.2160123985283993
2067 0.24970149344598017 -2.999403446308941 -2.8639408870568364
2101 -2.6450947020177034 -2.897777476042449 -4.1437228552122525
2356 1.2961029589827968 3.0280244958795213 -2.138106898858292
2389 -0.7645721235379929 0.42368364362916106 1.8485645287191528
2644 3.0084718803583983 1.617385603380504 -0.6159912174562628
2354 0.29539152117237905 0.300600267975782 -2.438189079478216
2355 -1.1410952778000019 4.6605283263942905 1.3252016537196163
2677 0.15830777049822264 0.5273187885913101 -0.7629679328299668
1526 -0.3981445753218608 -2.640734183019555 -1.1814337035393694
1528 -0.7566724014192013 6.4543498560467585 -1.423927368921753
1814 -0.7332823331858256 0.30009461313809555 3.1666422107166214
1816 4.059902473784924 4.6832632757355155 -0.8365115041654729
2104 0.09605923352664374 0.38668538389822565 -0.34321384356164897
2102 0.35863948631303155 -3.253795663965396 -3.2065415183175388
2392 -4.700694907069057 -1.2892820628266233 -2.3140596593968277
2390 -3.2510905410293396 -1.8430081370193974 -0.19694774053903719
2680 0.41620648873617927 0.05535707521532366 -5.573802271081511
1527 -0.8055196704625639 2.960645000692763 4.2087469080649
1561 -0.7564616014270306 3.8447558032544964 -2.491272038610241
1815 1.1171884919831507 1.3889697300137285 2.2035333869475804
1849 2.6080507749284556 0.6383047778076392 6.220272668281157
2137 2.8789726494115677 1.943603741316158 0.40224480434657134
2103 -3.3827681379676937 0.9123617635964205 -4.746421337847747
2425 2.137041662437247 -2.204804237056051 -1.178430134636436
2391 2.414639965865076 1.497316002181704 1.403717899456915
2713 0.09036843986479869 0.8845752677357174 2.47088763273165
1564 6.803153616349683 -2.5723929205837437 3.51578735539963
1562 -3.760164022094898 1.6013046562026618 0.43769474502991074
1563 2.9173173168233637 0.7954810647459835 -1.3551595856455294
1597 -3.6556945934300553 -1.7255995590217676 -0.2539784031545512
1850 1.2378425041420575 0.7364735331510049 1.6142361450987863
1852 0.6943962108407544 -0.44317971389203753 -5.13985131779639
2749 -0.9459488791164454 -4.546232664995503 1.9431077190357886
2140 -3.6353082552908464 1.058391223087864 -1.1016224556768859
1851 0.2697550606120834 0.8409595847033497 -1.6382245219427727
2173 -1.8131579385464747 -0.6931389514655508 0.31966680893872707
2138 -0.0479481345196296 1.9824364252802325 -0.03711774099555276
2139 1.1291007685185912 0.39724719453664775 2.358078519873458
2428 -3.6483917700585375 0.8295867067176582 -0.09890809157150411
2426 0.6624035489449734 -3.276167813018225 -2.2179492615081298
2716 2.2329226662035797 3.7987487799653246 -2.9888615532444023
2427 -4.416769962854909 0.35958513627875954 -1.134668243115197
1885 -4.006801894224728 -0.010015385068481111 0.08488881800524627
2461 -4.076587644996251 0.7640336654450488 -0.117847383752252
1458 3.510699745754115 -0.17717244815494548 -4.837836149784012
1460 -2.0212133622517 -2.365647395600091 6.420117905049353
1746 -0.11375700029450339 -1.8877775802094625 3.176927605363111
1748 -0.5642854878309344 -4.169502829312699 3.501631250348931
2036 5.324917032553095 -0.9110954515227149 -4.8679927638210305
2034 -2.270116614905304 1.9953463104425082 -2.5004127105818728
2324 -0.5368145635603236 -1.4985079648183919 1.513069136519558
2322 0.48172838371197413 -1.6151858929746024 -0.9404088678356558
1493 4.589967757614614 -2.4947803006265126 4.074037100341496
1459 -1.7896046901052853 -0.9231441953090735 -1.2500638023840471
1781 0.15463196471185095 -0.8782504067563405 1.3816651711648553
2069 2.4948214306285483 1.4733956195875977 -3.8867523028983317
2357 -4.922507317557337 -1.9797836165520657 1.0888530066128808
2645 3.2064506441063774 2.0687903913678998 -1.0576719485935895
1496 2.7647117921912265 -3.439015827492278 1.7633868890804476
1494 1.7663436310516438 1.0887852130279936 -0.9581328964031007
1529 0.0242375940111491 0.46502901208881103 4.0323179937605245
1783 1.2624495000336542 2.863460418944785 -1.8764709091374296
1784 -0.9111159347353618 -1.3389816375952064 -0.4289611383939572
1782 0.5693736035029985 -2.755441519994951 0.3284299575627238
2105 0.4580711766135133 3.569798669633352 3.4313565496548804
2072 -2.461073302088572 0.22532481775771032 -7.124955908331331
2070 -0.6999317196438195 0.2752324793929379 2.5059697700607413
2360 1.4999942734071705 -1.390057234799925 -2.3653434253111136
2393 -3.9248921440334112 3.9321120718380986 0.9879006494602222
2358 0.4028476053659041 2.372644248560742 1.388724045295941
2681 -0.7324069111417374 0.8054413181472962 0.018227873694688066
1530 -1.843324906052751 -0.41491548926811567 -0.9081803817954057
1817 -0.6266771310553104 2.192384423663815 1.089768554550749
1818 1.7996512654128818 1.817899058403063 -2.074610251091763
2106 -1.78955859892755 4.280503729962583 -1.227806502786081
2396 -0.5767081864040525 4.611966307433928 0.7102098259860397
2394 0.6949315181822895 1.4893770760622604 0.8841781358342276
2684 -0.6239303064998775 -3.1611725757289446 2.9675482300422704
1531 -0.9885820700031632 -1.3512656310704607 -3.5991361738518495
1565 -1.3008023374197057 1.2804231579577356 0.7950006915009802
1853 -0.014483016308220674 0.7791648519264683 2.7683555635413692
2141 1.7318955491690118 4.354779412576204 5.105002667446742
2429 -4.626237325652261 0.11662847162732215 -2.077537946669589
2717 -2.34260697266673 -0.33035451907534774 -3.1881458716186493
1566 4.0282332590762655 2.6933856972371197 -0.6268876132764425
1567 -1.5624190993838813 -1.2532194191185126 -0.309023104688658
1568 -3.0627235484933006 3.371795606833917 -2.355239972362589
1601 0.49006442985749954 4.566318692308039 -2.951051376651293
1856 -3.0272648684763594 1.378479537321075 -1.7509562556946934
1854 2.637665632995328 -0.8248244261631936 0.5806643104751477
1889 -0.4398188174570698 3.943469390610704 -1.7961434189296157
2142 0.06696336999121988 0.07671006897928721 0.4868476567575845
2465 -1.0583523902067933 0.6431683699951333 4.133581865632445
2720 -2.2752587322212854 0.6459973925957603 -0.2264143295943488
2430 -1.4314989864985312 1.5652618885188094 3.4004338033398755
2753 -2.0202881940086113 0.22983434363451527 -0.2940335227153554
1462 2.6502927314095435 0.36534727186038296 -0.5677052903403165
1750 0.9236710448342734 -1.8224704008976662 -3.3400876393090253
2038 -0.30201185078373716 -2.213802522641043 0.43137121086458924
2612 -2.485196133471571 -4.2205873420909406 1.1580419226120418
2326 -2.6758878841853635 -0.07498416886462797 -0.9495109462738098
1497 -4.473357780695103 -1.9593031008246409 -2.409983742771986
1785 1.9947251753529462 0.7841335875638044 2.370245903154964
1747 0.7917340315330123 1.4180482351726278 3.1178729227540836
2073 1.9095303226914517 -3.1342470364808674 0.14558073646463401
2035 0.9324995852933586 -4.03301945676182 -0.8536211621259975
2361 -4.537319828144603 1.1372165543768202 -1.1580779181546879
2323 1.352054125285313 -4.704893675193224 -3.1397105014936137
2649 0.008032951857078552 1.0843057460655123 1.4010345048242616
1495 -1.2317940213335175 -3.9971529297942614 -1.8806749785205632
1498 0.8405674376829552 0.8488469038778582 1.7315323105318328
1533 1.5660090857331408 0.0405017370918747 0.20272995328169857
1786 2.1980207418914746 -4.06695757641886 0.5045002475006036
1821 0.2567755147279499 2.486064626042249 -0.04389641513859573
2109 -2.6100863471990894 1.997965070114333 2.351528553461593
2071 5.499877019549597 1.2677435128168724 -1.8068768344856543
2074 -1.7574661870329538 2.208872039997633 -0.44098203066541536
2397 1.137469297083989 -1.4541528127669112 3.022905373957899
2648 0.05474553872126502 -0.7888775243675522 -0.9759364071579123
2359 -0.6941304716950284 4.3091752770642735 -1.424696125980118
2362 -0.5270691493410605 -0.2142429223218745 -3.9480751000321064
2685 -4.35409819754083 3.646807146958404 -1.6323180977237381
1532 -0.6106000325018961 -1.2580534524700182 -1.6388595825227659
1534 5.926556355363328 2.793243789038338 -0.05069303675434226
1820 -3.853875041535421 1.0358000289606808 -2.2023830065484593
1822 -0.9375637197615504 2.3646949315773043 1.4133925472774067
2108 -0.25113370947800256 3.19500681143633 2.997722654079686
2110 1.5047585413006277 1.5584948953862847 2.5819974378524337
2398 -0.5701448518767857 -1.503064585912977 4.940341026795568
1569 1.1140808983279409 1.9892829098892195 -2.5036615868186236
1819 -0.7448747119291454 -1.8479966732510833 -1.4143815523770553
1857 -3.0056141393534377 3.4978023928924067 2.005109283642106
2145 -0.4739802185506983 -0.17491656389457766 -2.2953573082926777
2107 -1.0057749427891864 1.2883751151357838 0.11073373695884269
2433 1.8345661328993947 -0.8848040900489396 -2.8935437423582715
2395 -1.1405021484808666 -2.872436472961811 -2.6413512706465117
2721 -0.993568999148066 1.3111069855366397 0.6678777692112211
1570 -4.722498841564366 -4.141500905999913 0.8496377158013839
1605 -2.737283773353997 -0.8604017765657386 -0.24013010396987444
1858 0.5188590536658879 0.36428977319435557 5.729173186228878
1855 -4.248897428111079 2.6247892156529073 0.17035047935531106
1893 1.7644306351484085 -2.0803306436720277 -1.8080596862595557
2144 0.702929392071038 1.2341416193350818 -0.4423692129008405
2181 3.6405305553385716 -1.2298868661408644 1.8690310709380853
2143 0.6799852273880537 1.1779863794316336 -1.273103993419021
2146 -1.4156825145561018 2.6400720485052855 2.191263545704889
2432 -1.6071061903305102 0.49618407457840275 -2.187808670806735
2469 -5.964256266114758 3.1429564495395184 -1.1249446356287454
2431 3.72932169793323 -0.35451970840053343 0.2721058521284832
2434 -1.4248823064996448 -2.5142780787464147 -6.873069678751296
2757 5.617611803844394 0.7263317169116615 -2.2130369401750034
2177 -0.020799935977808992 3.752565560606711 1.4125753622854293
1464 -2.229897958503182 4.706764886451366 2.698543853961258
1466 -0.5646230595762785 3.8255511785954863 -4.309022652374697
1752 2.2568335409458427 -1.033074959130871 -3.7224228940692243
1754 -3.075490079172077 -3.141673894717853 -1.1423985844195765
2040 -2.6602706407765795 -3.721491547642936 -1.8557636526622994
2042 -0.011125479190459284 0.5794552733705555 -3.1944234459971668
2328 1.2917896782054743 -2.817010644374486 0.10471605716433861
2330 -0.16606671172930773 -3.668511730656714 1.535402199973911
2616 0.060332000210808465 -1.7377858498287775 1.142572162553507
1463 3.649700027805306 0.6782789043464852 2.1159514879077523
1501 -0.48913809418128507 1.823195612209208 -1.8402670278998454
1751 2.5746969884075135 -2.239217750440795 0.8162062172633302
1789 -2.0786800668177596 -2.2981467441693564 -1.0563093893333197
2077 -0.7514269864378883 0.21872465044359274 1.4959974312361772
2039 -0.17174549076032078 0.2569737240951673 -0.45139969387664575
2365 -2.884246214337162 1.8447911330298827 -1.1745675943508487
2327 -0.6952172033261363 1.5733969235868106 -2.9848549739953465
2653 1.6971028200364626 -0.966531890733361 -0.7579937211784664
1500 2.361169289266633 0.40951486503435924 0.6785778911643591
1502 -0.8063580729997789 -2.3284199235997223 -2.186913794678075
1499 0.5581153204193149 0.8708720423677233 -0.23468036756054123
1537 -2.7145285053546284 -3.870269105937174 -0.794799418895078
1788 -0.5241718053342432 -0.019716656025509476 -1.4889595627191006
1790 -2.2975429585178055 2.9522302566011747 -0.3267098649582517
1825 -0.6793373816808747 -1.5403292816581673 -1.951936798421988
2076 -6.3777877885271055 0.6810801403793314 2.6234631936394086
1787 1.3555519682159345 1.1699994574378636 0.840876091843205
2113 -2.9349571383916877 -3.717599215169211 0.2335479398666203
2364 -0.3847384984974399 1.2692511608549093 1.4586105474620032
2078 -5.020473233912814 -6.129320939759593 -0.564894794677133
2075 0.49471261450707077 -5.33824192885268 0.10057613447992603
2401 -3.0819590848926994 -0.5689074584408591 2.903898338933226
2652 -0.42345232655929793 0.7451341887504412 0.7756188889914384
2366 -1.564118987870836 4.923384301184412 0.6266680141565178
2363 -0.24593163357825426 -2.924831829910637 0.5103060122063773
1536 3.2944276614945736 -1.2351333739620713 -1.675571976568626
1538 -4.71150147375581 -3.073928479901834 2.4689628449390906
1824 -2.851304180254626 -0.40932603659838845 -2.4371206315836726
1826 -2.4579628661919064 -1.6211844967121622 1.7692191766545091
2112 1.106505870978719 4.64250340340491 -2.2381615136807254
2114 -3.9834862201092016 5.128971474501544 1.181944996831308
2400 2.240132046184451 -3.4959276824638366 2.1437893830782135
2689 -2.327658128430068 1.2004496650150762 -2.4568669398420364
2688 2.8076781933480612 1.7678219845720293 0.634136713272758
2402 0.4458118691535383 -0.10073525589035241 2.620036773772895
1535 1.8127326431529323 -0.14892985253899407 0.15824758994856983
1573 -0.4721972598003076 -1.091727005726568 -3.9391039521004347
1823 4.858444034441552 -1.210014777432384 -1.4350689647732295
1861 1.530486856312395 -0.5275696735934774 1.1320829007791995
1860 1.8640605246862902 0.06516068640906778 2.3767869854339128
2149 -1.3175072747306782 1.8753932335115426 2.8493989640735324
2111 1.2846568521740387 -1.063033040205019 2.6367255686323072
2437 -1.4874570995029723 -0.7594262300946963 2.532043079266008
2399 0.6765027329396885 1.9206365668104994 -1.9421537207041797
2725 -1.9143396311954812 -2.284000918409235 -1.4689563528688465
1572 -1.7659385580241396 0.5641798389601126 0.39857245830870053
1571 -4.069053092638783 -3.7005225160405 -0.5201485566128272
1574 2.0225852798926036 2.327775479622099 -3.6105929945529485
1609 -2.441710003431112 0.1141381262628408 -0.9776166797627878
1859 0.8011093481945233 -0.5474299890778799 1.4395783328700509
1862 0.6739599062689208 0.22993492669206497 -3.5900951655258364
1897 1.2367166954052933 5.84503542874117 0.1965060704838268
2185 -1.2862435681907143 -1.8239354432943693 1.9485441780037318
2148 3.9865403351675788 1.9104831746773938 -0.0954384318094375
2436 -0.6720662766296699 -0.967228072834766 0.21766991546627923
2473 0.7289148157023997 -1.7234271994305685 -0.4389544876097838
2147 -0.7484887737074405 -0.3705989614374203 -3.8287960647146595
2150 -3.159648408392045 -1.2290109500030661 1.9404075157935332
2724 -4.53770498469653 1.0642561996764888 -2.241232212334591
2435 -0.07500368862079332 1.396755290034546 -2.6948072550758573
2438 2.2248816138878786 5.1282764759306065 2.8208897999895495
2761 3.5328337443348437 0.20561990749261463 0.17896079673330992
1468 -1.5407369681608285 4.329535467842536 1.1406749983394402
1470 1.1760433346077588 -1.271700243600434 -1.0309795529635017
1756 2.093571961682471 1.0078837017215025 0.15526149694979532
1758 0.6260131250193818 3.104998233021525 2.1078417315226043
2044 3.4203421679259893 1.3235306640225795 3.4755792854877665
2046 -3.829682142236142 -1.4453194137850571 0.6965774896530751
2332 -4.8351181546606 2.4350821382320125 -4.64250318460039
2334 -3.419814056697041 0.27319980001077804 4.758314744411992
2620 -1.6373055095319358 -3.518321799822089 -1.215463083598715
1467 6.308954262264656 1.27600983705268 5.403136895519727
1505 -2.869188697764312 0.2334533009773532 0.3251987660915866
1755 0.3377256930540184 -3.776157009613902 3.998488390810987
1793 0.26865912919445406 -3.426225769527789 -1.1476450027802716
2081 -1.9152958803853992 1.441799851522354 1.4743160106467117
2043 1.165970568751068 -4.0408957468858535 3.5385699960466823
2369 1.8485648506280716 -0.9703580761732858 1.9586357961896095
2331 1.06601238405837 2.1668198551784688 0.6209006051938933
2657 2.4198026135089656 -4.457340470967557 2.0459422673683503
1504 -2.9847772830488357 0.45085699658784284 0.3235861909190035
1506 -2.4288689936708185 2.225899152357481 -1.2555519237763437
1503 -2.0852178313787686 1.169093828039121 -0.7540713815865594
1541 -1.3224894572276114 -0.7506886683834626 -6.506708377355387
1792 3.3239252279575653 1.138870634456582 0.1348598024495506
1794 1.7469737275488741 1.515801520119249 -2.3864638264204667
1791 -2.3182896489222435 2.655117559030564 -3.1900483084638322
1829 0.14733612082645567 3.3577487168227034 -0.0037116329065472885
2080 -0.13420694204121966 -1.3191128317624905 1.0250987844360606
2117 0.21506054365298768 3.5522223181060877 -5.755057598125931
2368 -0.14755600626418888 0.5788679438589327 0.8501577377453811
2082 -1.2519022528734667 -0.0008557950593545613 -0.521640450288791
2079 -2.6262844299025074 0.11090583901837052 2.5862958338648108
2656 -0.473906862031978 -2.7642794511387248 5.486839485642259
2370 2.8007931407987825 2.496290612089399 -0.29644792241818624
2367 0.10975975041064996 0.28073261690149237 0.5349671365387748
2693 -3.486490147761336 -0.6081144811169215 1.7106646268066832
1540 0.6829573739297143 -0.3896307680080094 -0.7226613053860031
1542 3.026807012903105 -0.951775769784058 0.1365423822901324
1828 -1.032591386226246 -0.5784572920651342 2.4796094097854486
1830 4.201998907333299 0.05789720701963492 -0.07515121612986617
2116 -1.033088867410082 -0.04269165213689255 -0.24789152613655174
2405 4.631493742421615 0.75325003080003 0.11830495003072945
2404 0.7119880686575999 3.286515216422101 0.19155944158009464
2118 -2.5569941192831553 1.116730269231826 1.5765471135920726
2406 1.6093983820320525 -0.1987787838269219 0.8254760815382723
2692 1.4656191737352362 3.907550297024014 2.0024288592350366
1539 2.7121787086121825 0.36567708452414366 -4.341688824395602
1577 -1.4388151910772211 -0.43934426063569393 -2.2021272924339232
1865 -1.4480203760866694 1.6879811810718122 3.036169943173656
1827 -5.224126504540891 -2.9393812583773493 -3.7687398930885943
2153 -2.130611408161729 0.800304676270629 1.42335035701897
2115 -3.0205908187262667 -0.515475238381514 -3.4048363643280117
2441 1.0847647061892092 1.0786393004563308 2.5788532632867245
2403 -3.9590117672153937 -2.9675119972426867 -1.3174102133167833
2729 -2.921746059705633 -1.3503629797594503 1.9028768556146118
1613 -0.7974892993210755 -0.4400840490235291 1.891543097779578
1576 -2.464777013858375 0.4147060517424174 3.3801173251773484
1575 -0.47991503939190744 2.8492938233253198 5.294951041207243
1578 -1.9832741082743688 0.34030367519956245 0.02652846248744658
1864 -2.1523425897817696 3.866250573517034 -5.244943805212033
1863 1.1697748729314559 0.720641188554331 -4.552069670445051
1901 0.5526948386381819 -1.4150836236899853 0.20436345207249462
1866 0.05532632846491664 -1.0604666740315398 1.37002780689871
2152 5.457732064890135 2.1974280735043727 5.919024321111449
2189 2.1324891701629034 4.384687049676526 -2.4395364706225235
2440 1.2480334634423693 -0.6586278193175192 5.208382647581891
2151 4.694566860337769 0.6822679883274189 2.247055207567652
2154 1.9043235941355443 -1.7279232174640904 2.815298119741021
2477 3.611268473281394 3.3635867862264037 0.8168250356666398
2442 0.41554810460123814 1.4708672981635633 3.0230562761135
2439 -0.49917469817453425 2.318195237464349 0.46540396337095474
2728 4.398226553903046 -0.29877942692468296 0.49941170215780906
2765 1.3551797401906247 -1.0843764353439347 0.37173074982995413
1472 -1.5674114441711509 -1.9464294454320523 -3.4834561182692787
1474 0.67447933749512 0.509188327355716 -0.40527295857038237
1760 -1.0032864888884003 -2.202090654286782 1.343476345048601
1762 -4.3085690775320975 -0.1455379038010648 2.176810801107025
2048 -1.4184298649263087 -0.17682242402803483 -3.137142501544307
2050 1.3956242075216876 1.278559544822636 0.8415806640966171
2336 -0.9398313601822236 2.659843866680858 1.301891353755143
2338 1.1653404645284442 2.4468005346124326 0.5516088990514489
2624 1.6442637001641518 -1.6653747010108926 0.1365813502702655
1471 2.2265949702018446 -1.3692637905754772 3.061505127778791
1509 0.12593105920306488 -3.4064569198064545 1.7795450098377816
1759 1.5944787270435854 1.560981331592583 -0.25281877896968213
1797 -0.7568818956632145 -2.7870490725447303 1.838558650324017
2085 0.7928420904997129 1.8204909741260709 3.2735201310238233
2047 0.11365962946700724 4.207964371789108 -3.111443824713786
2373 -3.336372282591178 1.3295385125169115 2.3835026686966625
2335 -1.705757155508844 2.6340722623352884 -0.1807189450396076
2661 0.32024302315465075 -1.4864929836964387 -0.42705759680501276
1508 -0.6563308393662244 1.9418923117143265 -0.44220438535461165
1510 0.5229021568543483 -3.7139352868054485 -1.4826203131937534
1507 -0.5484718877143026 0.7745949867000134 4.954598391681868
1545 -0.162646293455467 -1.461411192631798 0.06713850241375528
1796 -0.25071796290803455 -2.008940803595676 -0.9655073390466026
1798 -1.6419127663857236 0.10049813740361864 3.445139974900601
1795 0.996388086018966 -1.8604426967480892 -1.1570304065081591
1833 1.2576947641490486 -0.4395085044591605 5.77071729461006
2121 -1.3240386700328066 -3.648009410074658 1.2716895006777165
2084 -3.0036255531589546 -0.892107084716038 -3.1782512221093477
2086 -6.3341621508203305 2.9170878262587667 -4.4928929905398
2372 -4.2638138335529225 0.3411369958583931 -1.7484003742274221
2083 0.2776407547485127 2.056534499539825 0.6713908320731758
2409 1.9478649932662353 2.5051465125215002 -0.23017583364814576
2660 -1.9582811614049562 -1.9664323898689466 -0.9244789605891817
2374 2.5115839717878816 4.734720206643998 1.0981857609850283
2371 3.4011086424746875 -1.1513339651949017 0.7433857151977418
2697 3.177443657586934 2.982441068153063 1.5987900338107324
1544 1.660832148035942 0.6794246838702278 -0.034932237417959
1546 3.4966269803174885 -2.8847716240146255 1.7335891528845382
1832 1.8277631169427584 2.9599675507549557 0.891353883839613
1834 -1.0457501262326874 -2.252893626488231 4.73750274274345
2120 4.437669947367945 -3.3530645634198346 -1.573033550784773
2122 -0.8675279285756226 -3.3752602907169047 -3.5461045233660844
2408 -1.3709953282748049 -1.345436149964126 0.3194120127454793
2410 0.8300472984914394 -1.755205305844205 -0.013452003993929373
2696 1.8564691908988293 -0.6164278665061171 1.2561576299398687
1543 0.059699216179074976 -3.707559710897718 4.9087726741564035
1581 -3.0389189724213828 -3.2949585914405115 2.5138385748424694
1831 -0.787711236117147 1.5934908716616227 2.1606162553993853
1869 4.443709723770197 -0.5098004357455874 -2.62450258250273
2157 0.3187142472437121 -0.0577168664955869 0.5387972495012785
2119 -1.071844317908255 0.3993758539676744 -3.5168179302286737
2445 0.891923106448256 -1.3771166923984475 2.0071585159587015
2407 0.5538774247896691 4.012328951443813 2.422097340459365
2733 5.5260222310790645 -0.1166191604801623 -0.4008087810809521
1580 -0.44076125662492005 4.963509134626843 -0.06429385971609443
1579 2.5964393119899603 -2.5336560898766405 0.5609775589511269
1582 -5.31613837932744 -0.1008168539496155 2.4525863714670173
1617 0.6274166056264927 1.2500485426672072 -1.0941496901968741
1868 0.20936887939652793 1.1692404360418378 -1.942555833422407
1867 -2.9993338906195004 -2.1289820539965474 0.8549867329727469
1870 1.4012311009631524 -5.3788029010350815 -4.856352518641989
1905 1.9770141327053161 -2.9156595838880004 3.2208779230828917
2193 -2.3656693632712047 2.122768688205441 1.7432361931151217
2156 0.9801432151373597 -1.5167009197111563 -2.949832811003746
2481 -0.49309585678663204 1.7376131941997046 2.185929969698612
2444 0.061446400327047256 -0.4094868685713232 -0.066955685936445
2155 2.0811652319939786 -1.5698955588947927 -1.8026026932469563
2158 -2.054197081405632 1.3908986493299473 -2.4723653737473947
2769 0.6465311045981417 -0.8061472632024032 1.0534835755309806
2732 5.317023298983584 2.1779713516469292 -1.0169656734169463
2443 -3.705325947738465 0.24155876805510137 -0.9278072911487776
2446 -5.3099165085187465 -2.4778229298270524 1.5177655965541885
1476 -0.19616169614561701 2.2379387186606325 -3.397255000022014
1764 0.9442716072073881 -2.624913084612367 -4.320284959538575
2052 0.6928417080182839 0.8438810834124771 3.164383995351105
2340 -2.1500331939631425 -0.7590142889955126 -0.4681072340057713
2628 -3.133101435783707 2.5970600478543693 -3.7096648917829453
2306 3.2208845216463167 -0.8941502969267366 -0.8401450157737903
1475 -7.290719877533089 1.9111713722103632 -0.29454444017268566
1763 -4.515053767572771 1.7990647532199617 2.1058226442251566
2629 1.8418297569267317 1.7894608152133276 5.645440933425194
2051 -1.5507568146887436 4.1652400950841235 0.03013232367255145
2339 1.837600082831654 -2.258152942124879 3.273011211531388
2448 1.935654853233943 -1.172380266186324 1.4215460528948913
1512 7.204153695690144 2.1713364837454634 1.5608029780836457
1511 -3.1507410289757725 -0.9634594030936815 -0.4356163767414138
1800 -3.8388024089684274 -0.9666839446216449 1.1249234965080075
1799 -4.333954909273326 0.25298762338128356 0.46666410093626054
2159 1.651345123379196 -2.117255086303395 -2.2545569245242194
2088 2.075577473008047 0.05104692488471679 1.0477551534842477
2342 -1.4721562055938915 0.43177130626984406 0.8224030335715081
2376 2.1136527441353747 1.1816140195498783 1.3128160456382039
2087 -0.8990258787301407 0.25986929004314074 2.0113991566714473
1478 2.313578787120494 -0.33043869406934295 1.7986769960657985
2664 0.8702159478730607 -0.012055755575407374 1.6216957740963394
2375 -4.314773546115048 -2.0195054749152517 2.6859118594741522
2160 0.6175523681692966 -3.4686396536446105 -2.858748721473801
1548 1.3054513764876914 2.502929034451637 -0.22209645001984835
1836 -3.1350706619058517 -0.8417739794805776 4.802570822963048
2736 0.2484471367390006 2.97685719348146 1.156527243599982
2124 -1.7518439359196634 0.45419239890617236 2.378075520914236
2412 -0.4176013890927528 -1.1899689633299595 -0.3597228095467467
1871 -1.6210943949560175 1.002009971737823 -0.6893318689343273
2700 -0.9308227548406333 -5.010976719416718 2.4770394811125143
1872 6.878340600568798 2.134953445460123 1.0858287754090086
1547 -0.8997693462773282 -2.32238192786533 -3.3668965726346056
1835 -2.539749851088169 -0.06560958960061637 -3.2017057902993864
2665 0.05588155998916694 0.3600063779138635 0.5107444160907693
2123 -1.573904862397746 -2.4104271115355727 1.7636416850308305
2411 1.5453284393223186 4.630918479000207 -1.720049205566235
1583 -0.5687943857437472 1.5210534195437828 -2.655954979460273
2447 2.476142749078636 0.561987115723565 -3.943095415404191
1584 -0.9978112456622873 -0.5935463238081231 0.8402723996342684
1765 1.3991501636154098 1.291963939559178 1.696562921347353
2018 1.0737825065320776 2.551128977566228 2.2064225520255247
1730 1.5732531883836933 -4.68670352730681 -0.9481137293640138
2341 -3.0978877965026883 -3.1500179507547053 1.048175054304062
2161 2.6265925211873142 -2.2244093747837 0.9727178495968901
1585 1.2708252301389524 1.1648076348659624 -4.499586051472439
1477 5.198750244536886 1.6341949876985613 -1.256552780546845
2089 -7.910653704148316 2.2052480945630686 -1.8796153871243317
1588 0.7521138172802538 -0.2599276949279582 0.593286862754305
1876 0.09515394245537674 -0.24273760188372695 -2.6253542032076918
2164 1.8730968480875052 -4.695817289849328 2.2575961310670003
2452 3.4332250442030188 2.5564500432511843 -1.7125922716817872
2740 1.6467930248003124 1.7103651164528935 -2.6777564222674397
1587 -6.575949010993759 -1.9769949884548113 -1.7295775092469348
1694 0.45080963985698347 3.4443582897658906 -4.0967093527547
1875 -2.6983100113445446 -0.3012243956968798 1.1115449493566902
2163 2.233656196015298 0.13311166547008108 0.19026934167308268
2451 2.6727621820970335 1.2950747657305786 1.9764528685477993
2522 -1.9193179040357624 1.1804532683725093 -0.21643547689615306
1624 1.9183278602383882 1.0645563400667457 2.9721415765817283
1623 0.6614142245278151 -5.753456653986612 0.8598081014067323
2521 -2.544451160026447 3.0139404050512564 -4.927094302391164
1912 2.3513792620823546 3.794692911939496 -0.6794585309414468
1911 -1.429040995064825 1.5522230493043634 5.482074080084116
2200 0.14155860726841063 1.5647520167532192 -1.3718258471292666
2845 -2.8572027500121435 2.5370174002122523 -4.420064420646972
2198 2.0037058442279227 -0.7706987569923792 -4.0369915133194825
2488 -0.663448380658593 0.4611405592518579 -1.4359357913129878
2199 2.1183819972312117 -0.8822040779676009 -0.32639467595104305
2562 -2.511628172130759 -2.181567054828833 0.8459345653650738
2776 0.9632647545911222 1.911198278697049 1.073659132871284
2487 0.5113604805716863 -5.756668771170114 0.314723042709069
1586 -1.622876002456378 5.799662287270539 -1.7207815964156825
1660 -2.449141951652965 0.3609878073732289 1.7872622716548836
1948 1.7532339223197528 -0.9202457876499316 2.352073215543516
2236 1.3701554294710219 0.8770677558591191 -0.5963517432466265
2564 -2.0811437293029305 4.088038938204439 -0.27413567957304696
2524 0.12255738653803665 -0.35488921871938034 -0.2973563434864167
2852 -0.7883906826756291 -1.5305689974088 2.188116323827988
2812 -0.753052755937178 2.8350098907086623 0.8595390783054698
2021 0.6382711951353571 2.3220941028289355 1.189524773006135
1659 1.8545174408740501 -1.4354832760309355 1.0473052644343164
1947 -2.538121973731901 -3.2721618804209536 0.8510862114395729
1733 -2.9245800290019397 -4.719782562506353 2.170231439756966
2235 1.9118648910511744 -0.6289862308319343 0.620540652340529
2523 1.8166437699508384 -0.13735932658138292 2.0950591769839284
2597 1.5559227021503108 0.39575347815316614 -2.134084476351819
1696 3.5726394108267696 3.027724914302375 2.778204904382283
1695 2.9530892955899857 -5.391836285018457 1.1553191846643163
1984 2.6822816064960313 -0.7795094843887672 0.13334496411023972
1983 -3.818642902193679 6.208654931756062 0.4434447512089567
2276 1.0004629828477365 -0.13942354086458286 0.46504721538935845
2563 -0.29003161961399115 -0.8543544750756741 -1.1436394838170558
2272 2.4331294168470294 -2.3138867781803714 2.134785455234279
2275 -4.034165325598694 2.2802499198912676 -1.3113146489154617
2560 1.8960442954309398 -1.4543645342193436 -0.1508278465169526
2271 3.867040109955085 -0.6779914475574765 0.5073322781323505
2274 4.495948778962243 4.059705944232184 2.6016702270821863
2309 1.975665891869623 -1.5377137435424457 -3.019312325027893
2848 -1.0766591200379294 1.1807706667420839 -0.2227106975218808
2559 1.0138872225512539 1.7332282698608055 0.6513956208986506
1590 2.050883916337021 4.120768689541141 -0.6388011191677269
1592 4.403376205986116 2.1260958960543217 3.4404695487631
1878 -5.5867003491188125 -1.4990276160744758 0.10529225328268307
1880 -1.213500458558216 -0.2842041327214008 3.7877341821246375
2168 3.7646533865986544 1.8234412275461478 0.4105069257804297
2166 -0.3203856041985883 -0.9593728509961179 -5.458356455930158
2456 0.3069270933511897 -0.1572312663948096 0.7720482028175653
2454 2.982824956194809 1.8379160854771115 3.841397087635033
2744 -0.4173265720285844 0.9486987568340275 1.8926294884258394
1591 -1.426530113330044 -1.8047919997241584 2.3819002688885913
1625 1.4677890294005342 -0.7703708456717716 0.8212506381330802
1879 2.654909241747276 1.3866460342776454 -3.0318005158772934
1913 0.05915673518407517 -1.9778398080878694 1.6647622464715917
2201 -0.7704643192321284 -0.160534228850126 3.356148852882688
2167 -2.6981284231317364 -0.5445577652493885 -1.5867878163963196
2489 0.5693299748335684 -1.4418798925240437 -1.0445495967777456
2455 1.8406355267063865 -1.2239882860209208 -0.042850930450384475
2777 0.26312575583123843 1.104747437626672 2.505275102120783
1628 -2.2813476044852163 2.5971141561627133 -0.36570319623303627
1626 1.7904986911217837 1.5653431073281598 -1.4541098205690024
1627 2.8084122466817085 1.694129631438778 1.6146847421582646
1661 2.8700371249330656 -2.854892077854195 0.3082630017141047
1916 3.4855658090343757 0.7452423095497253 0.982077849423537
1914 -2.466345614713131 2.3869004016622766 1.2262235035312505
1949 0.8350853582844678 2.7480583093519115 -1.0122788531859832
2204 -0.17154325706009357 1.4758544716142374 -5.123405031350819
1915 -2.2803764370991795 3.3468230814652222 -1.4469271605429277
2237 0.7803193202726613 0.43969901181038984 2.055936060067851
2492 -0.5281215062098594 0.12530770586071835 -0.10669440109578139
2202 -1.3644757058399593 1.7069023904412155 -4.664290362951638
2203 -2.1302001719222394 0.12745266177405684 -4.942605217520719
2525 0.5139700637998851 0.13333091501057134 0.4531721131037738
2780 1.9914120356091358 1.5644213511901235 0.8428944622776828
2490 -3.253614748058263 -0.4090715717249937 0.5290255338167582
2491 1.1149186280283723 -1.829318647106113 -0.2581007869717249
2813 -2.174863682250686 -3.026712047216343 -1.8941262374371695
1662 3.4577113361539578 -1.5715040291394369 -2.984845250556979
1664 -1.539944550496116 0.24930346176756785 -0.005351677791460957
1950 0.029729501824703335 -1.3239999360113608 1.9013233519169266
1952 -1.1411756707169936 1.6411474652870335 2.5738142124370014
2240 0.23827619033405065 3.006902599049845 0.5567646958369977
2238 1.016324913773302 -1.3077886448101992 -1.5619592677484007
2528 2.881870763203714 2.7326134864543334 0.9314673270877512
2526 -0.636961104128427 3.0797215390015507 -0.6497846998960032
2816 -1.9567379560778853 -1.3760392881048464 0.010662063021598396
1697 2.010839686516095 2.2057697726228636 4.841649289015392
1663 0.46508356270133927 -1.7005527267980827 2.4004800748568
1985 -1.5262685418641726 0.7630431824340718 3.12648468700768
1951 0.3664147022481196 -4.217435522337944 2.0325090717495073
2273 -1.702858293927002 0.5198055304844967 -0.29147460511449347
2561 2.399267097536295 -0.2980136142975148 -0.08345641108907866
2239 0.24964824876961167 4.862874182311074 0.425952785220091
2527 -1.171461279142974 3.323243404013708 0.42975976504045754
2849 1.146437028135818 2.0180957450359007 -2.6469713620676125
1700 -1.9945761080994195 4.691210939214807 1.1249606974584336
1699 -2.0093856196321345 -5.021354350635109 -0.29024390040911274
1698 2.960133939863871 -2.7846716984580806 -0.4301013766412013
1445 2.607879204542506 -1.8407354969187142 -1.5516789882073903
1987 -0.03070650902746073 0.4444501437036268 -3.13720146151429
1986 5.799746380202168 1.3424957047188883 -1.8644964009543021
1988 -0.9568629090627269 -0.14977409182086776 3.1468254519695913
2450 -2.6769412873087144 -4.345842750043942 -1.014841595121888
1441 4.1363483713255 -0.3559755091701145 1.59822879703399
2558 -3.4024288689672084 -0.9830534336566168 -3.1464449024962966
2197 -0.2630157265482601 3.233243953648683 0.3508420487106562
1874 -1.2720570106292164 -0.6336014185002928 -1.143411485513261
2305 2.467417418141094 1.6454760381269213 3.3404728319729786
1657 1.875803366458867 -2.7624484251057257 -2.02189223924209
1621 0.3286016237282815 3.72492250802063 3.0529553972027106
1658 2.6567006015342223 1.4608714548513546 -0.43291403497363345
1622 0.11946160735137117 -2.029876201190057 0.5178750480763683
2162 -2.742768778165909 4.52953128624779 4.289694682812899
1594 2.354319496390626 -2.3940230319899247 2.42581569409052
1596 -6.149477186658679 -1.7676504824881503 -0.12555957009517638
1882 -4.620989659671507 2.9808324326194673 -2.3699532804881542
1884 -2.326725258882678 -0.36349343827002517 1.5362473922518403
2172 4.277591503431147 7.4558254410485 -0.7833116716306114
2170 -1.6846517980004025 2.0026289596884643 -0.1782735957407977
2460 -2.0521462305068194 0.7342569334630716 2.7302597135164293
2458 -3.286587269992912 -1.3845787632776498 2.521064611358423
2748 2.210091766809925 1.4889919589814535 -2.1467213087192722
1595 -1.666720842417397 -0.1318209080643307 -0.6083643831477835
1629 0.2905675172199743 4.951360960282199 -2.6908131942411315
1917 -1.6427283144047327 -0.3632348609518121 0.5591775154893768
1883 -0.3825157108929246 1.7742919719158827 -0.8696227269352444
2205 -2.070446836458557 5.49861290603104 -0.318999955050592
2171 -0.55833294337983 -3.3102474347658 -3.572600771843392
2493 -2.104788409623809 -0.5602025572736493 -2.7929273385011744
2459 -0.27866832469674196 0.7261191703436162 -1.7729698178596693
2781 2.844877280168218 1.3669189112260496 -1.1780899459732894
1632 -3.647846705267531 -5.611214663724499 2.239812786367445
1630 4.616173391585884 1.0771209208889472 -0.028799994872655974
1631 1.2980537562709158 0.14258981276062002 0.2621264952079983
1665 -3.7372265976757504 -2.253047072394133 -1.9611529403029984
1920 2.897781169844966 -0.2870134571814945 1.153565633398257
1918 -2.398576940201613 -1.9853642718406415 2.1709232023679923
1919 -0.4279850419885531 0.2142520920076741 -0.1324824248778607
1953 2.38489817392059 -5.168770015663791 -1.0595776307153804
2208 1.203490127165164 -2.0196845006250923 0.9022256687911909
2241 5.353853259867709 -2.684766485998056 2.382871137028904
2496 -2.8763032125961616 -0.2611296506451394 -0.9995070058338564
2206 0.7855644934503391 0.7715381443278729 -2.2397753664453774
2207 -0.22105534674828756 -1.4983329327552852 1.6871726378424738
2529 1.4563902933131427 3.588803024230357 2.737499976945701
2784 1.6150573453478039 -1.4628165836135945 0.6338891831472201
2494 1.7900451943251379 -3.8098698409633753 0.8865809285217019
2495 3.5062350284645003 0.8880408519423173 -1.2336296263825002
2817 0.7365609793885897 -3.563852316567014 -1.4379465004440395
1666 -5.494483126286358 0.08930286177888183 -3.5409826431905436
1668 -1.5562791393585909 -0.21091269361769746 5.329102044792805
1954 1.4649135169794012 -0.04317964542386391 -0.3767313039826836
1956 0.3740157965815612 0.2820783058284158 -0.19616407082896264
2244 3.2590788330886187 2.563323915406652 -0.2959272948870775
2532 2.7180839223427493 1.1665919225110397 0.49373808183140705
2242 4.202831926157112 1.5973708999312017 1.4973944435586752
2530 1.1017215569534828 -1.545495658963584 -5.041287569530616
2820 0.24628450834343552 -2.9987635298524045 0.4073008570798091
1667 -2.5558258224325225 -0.39376366430982884 2.3925966196460258
1701 1.9766146294612261 -0.3626602517523824 -1.8262575123793463
1955 3.0786402112398226 -6.623382910812886 1.8867163597122474
1989 -0.8696148229497767 1.4589279917519569 -1.8676787724835027
2277 -0.1729533743469047 0.039110347429080206 -1.9286870034390367
2243 0.6259855128167049 -1.2994379431145195 -2.804858313409586
2565 0.15196202762242672 0.6980653976964005 -0.31397149992487067
2568 4.897288373262917 -4.53197291742956 -0.9515383198732522
2531 -0.8613378581026447 -2.3910743171485214 4.143109006896873
2853 -0.9160112511476645 -1.711369224544847 0.505764423232083
2856 0.455394441213709 2.5647830866946832 3.0964969633464
1704 0.9884234526351313 -1.863202619008911 -2.3977607717041787
1702 -2.3362413981045655 1.2980203126706593 -5.958379564300082
1703 -1.5216215433832223 -1.116239373629016 -4.6232080962437845
1449 3.5142358752476093 -0.2188947300244954 -1.858465213149019
1992 -0.7188201124936319 0.8390674385925604 -0.6527364830450871
1737 2.4434176252645545 -0.8790822751256501 2.2789915722457157
2025 -2.923086622088448 -0.27117458788644533 0.49630844246365835
2280 3.6077680511158245 1.5087725663317235 -3.6961082364272664
1990 3.649565304751275 -2.770642832833726 -1.371319762103804
1991 1.5280106405133849 -1.9618754042033875 -0.5011827772295445
2278 0.5373405285114745 -2.056948695100408 -2.6371191190146237
2279 2.1877289488048413 -1.7690215530487714 1.9336555931721144
2313 2.4679466109163655 -1.032633113368817 -1.4922973719232202
2566 1.109550538218838 -0.49410632926211767 0.9048359172825635
2567 0.7564534181114124 -2.10434862358227 -0.9424508990579015
2601 -2.0816957403455594 0.39454771495662305 -4.278911346226542
1598 3.9772103851092675 -4.031719773338703 -1.9826093597300536
1600 -1.3841308201820248 1.4806351254318761 5.864330116673353
1886 -1.169847846691284 -1.4107004899013025 1.1193687888597346
1888 -3.840206464194938 -3.1618617210788798 -0.07923151272527823
2176 0.5997385338242562 2.0876691816761226 1.1437495692618973
2174 1.446967831131239 1.0817516577060025 1.1368851014108563
2464 -0.9405431851058673 0.3356629414287674 -2.8197629152282824
2462 -1.5118338273941918 -3.7402309449175535 0.16539261569203212
2752 0.7308782480441515 5.580305844497127 -1.2562044231558338
1599 1.8940376974627113 -1.145482798627493 -1.0244435871497606
1633 1.293971132511511 3.1449919016120074 -4.828510225486097
1887 4.538401207436323 -0.41494904604909033 0.740225584300004
1921 0.026254041938132754 3.2415656539733884 2.1610525396534506
2209 -1.023591151633065 -2.429466485391954 -1.317924034082232
2175 2.3956985408899523 -3.0451135284176782 -1.4475719091419461
2497 -1.8764141723791925 0.6780499266280922 2.0581351916489714
2463 -0.45036950184704894 -0.4995547308243608 -0.943889031244069
2785 -2.464207318525527 -6.534732914099528 8.345859552988177
1636 -1.063321804018465 1.1818623210489307 4.057939950184251
1634 -0.6143579521104597 -2.3243375193177602 3.2363926731504176
1635 -2.4206748848663158 -2.229102147899574 -4.74033845534156
1669 7.056669008833997 -1.0219271109286736 1.9869634256423117
1924 -5.501824327414615 0.39938405277403727 2.1389614061672115
1922 -4.0691699238000245 3.2724410239252073 0.835817645065453
1923 -0.6074459802493088 2.130673102584051 -1.8365192267882406
1957 -0.9836156949862223 -4.933372682138295 3.23951174795682
2212 -0.9567648695723413 -1.1953759025077226 -0.8820872170728797
2245 5.1130674746916 -2.031614494307678 -2.899504752948715
2211 2.576619832239409 -0.8451569294842025 -1.2620424235071959
2500 -0.6962333987254402 2.2086515833636198 0.9941974101053789
2210 -2.1169767388498784 5.011356441406858 0.7469736769987223
2533 0.3142131423650744 0.6487780328672911 1.5777206642919548
2788 7.839728098353652 0.828636584503516 4.312304634493757
2498 0.21839347505321782 -5.157041670349587 1.1518884150370599
2499 -0.14057979878556945 -1.933250859782433 1.185426419542156
2821 -4.030294163871658 -1.4464626906595264 1.578742147255351
1672 1.3243624701263328 2.7409354214718684 1.112546321898572
1670 5.697814728850174 0.5788858593667346 -1.106224826518035
1958 1.482397308585848 3.384809156248372 -1.2651306510003568
1960 -3.294177178696935 4.496230223268053 -2.9503924622733937
2248 -2.1732874698305262 2.4507636248759046 -3.3212085235693
2246 2.8396461884327873 1.7830228620954125 1.05815420114025
2536 -0.6105499504557671 -0.5357518702130122 -0.013697983210215314
2824 -0.6823129584876403 -0.7564619663501184 0.49358563420476986
2534 2.5169841517649907 2.4710809477990052 1.0848527401888843
1671 -2.444550355030523 0.08877125154814948 -2.4387557981172634
1705 -2.204855416882828 -2.9580419794636743 2.2171858674209
1959 0.7405171283878667 2.198607794728419 -4.202249201400448
1993 3.306095235724221 -2.8860838179366928 -3.656676226624499
2281 1.0131774475924245 5.150371673456947 2.2401005722115386
2247 -0.4669696234766568 -3.6761187472173202 0.41025760006388345
2569 0.26278061003741615 -0.9409757777171418 2.8808481758544984
2860 -0.7942408399000489 -0.6135644330395256 -0.790822995390567
2535 -1.496900397744166 -3.4495055245363795 0.9441812827118193
2857 5.681905144644395 -1.7224396053070579 1.1668770807667224
1708 -1.5573041037288526 -0.7187380052253682 -0.4023673285611439
1707 3.257428200129062 1.2975253806796156 -0.9115883242451646
1706 -5.8967872857559565 -2.834556451585045 -3.4521362262132085
1453 -1.0048597181284356 -3.7577749033355112 -3.2751491456271746
1996 5.710913443401523 3.429847625940712 0.042558895409117524
1995 -2.0410595384713837 -6.495848983700122 -0.19410532616096815
1741 0.16348425763756572 0.6576633859175618 -0.01039170974893453
2284 -1.7627265218650292 3.474247594650846 1.8612681855774025
1994 -2.049449245403598 2.0334639463083546 3.2105170168108184
2029 -1.642889768214817 -2.776624507406692 1.0565049901710277
2282 -3.1448260749498282 1.1814311634567618 2.9613613244063526
2572 4.315323069131127 -6.602028937354504 -1.939370439936817
2283 3.5852328403656553 -2.746305783003129 -1.7010966972718986
2317 1.149657000673115 -2.2547095957370313 -0.95176663443846
2570 -1.732139201427399 -0.8104521949246356 -4.883703690471807
2571 -4.874411906649348 -0.02483454464234966 -3.762720257301539
2605 -6.118172833711858 -1.3129197328881508 -2.193227530205132
1602 -1.096073442860044 2.943450952833344 -1.878900862384848
1890 -2.270579744771735 2.4784977822225525 2.7946402907100154
2864 -0.1671730423688735 -2.923289522989313 0.3380180285547115
2178 -3.0229842916604417 -0.017121286339246578 -1.1005485683602128
2468 -5.471227856094064 -0.6514601296283534 -1.7199659263604172
2466 -4.094196321764052 -0.7837634183949609 -0.03780129195775576
1637 -2.365370553999848 -0.5355936118897386 -1.3664439826167192
1603 2.199949595731161 2.7817240587610774 -1.9732345713679544
1925 3.109891076559239 -3.3887927506928293 0.2759235598394118
2213 -2.0789642902801724 -3.4213908035052456 -4.483711314039775
2501 -0.301269005815593 -0.6605024549525159 0.85069795098698
2789 4.4094145564018286 2.018249353532922 -0.7231467855905526
1640 -1.1341439025336038 1.927224717227129 -0.027368240727747725
1638 -0.3409264919252029 2.704233525695793 1.0631110619660895
1673 -2.1739167819139915 2.972361074930169 -0.5019877399936221
1926 4.496588725038062 -3.6849400285841387 -0.31162003917350667
1961 -2.4688599494522836 -1.657216464501746 -0.5663928425303939
1927 -0.28111116416816406 4.536285382835972 2.731923567553901
1928 1.12982452168028 4.629563683939536 4.09889027622404
2249 -0.6851519670467277 -4.186271230869919 0.6579927117924904
2214 -0.3652100340658859 -0.7128500350873576 -3.6885551223988395
2537 2.393313583516821 -3.9060986584091584 0.22001052338474242
2504 2.781321924265616 3.8741040667007085 0.4747057527626297
2502 1.0381771721052329 -0.9895027940402576 -3.307376329152763
2825 0.9276959467889048 1.257353422360723 4.093464642341364
2503 -1.8440811504125725 -1.0042113603443446 -2.5300190331200176
1674 -0.7084416576321607 -0.16475975443627577 0.6547936231196816
1676 1.830971579990068 1.281941288568999 4.411197009442266
1962 2.4224088464772406 2.6113087883738886 -4.310880534465246
1964 7.315279908154919 0.28985560383863557 1.8747955448705635
2252 4.147795320360431 -0.23737596027086805 -1.367853172713494
2250 -2.863077619520733 -3.3945922215974518 -3.336469205019137
2538 1.0416201530065532 2.6877441161980404 3.296001223023423
2828 -4.654662659857033 1.9784637163959358 -1.7865759137892894
1709 -3.0161405910961725 -2.7357775769074264 3.5355158390281547
1712 2.4264570339613507 -0.0718814595612465 -1.6802113492327406
1675 5.235325076462064 3.5268892730560086 -1.141961344216107
1963 -2.0884333801402195 1.7267736672471625 3.310301317376857
1997 2.576877430902767 -2.068076722700653 3.3924719105330556
2285 -1.0978973807062546 -6.966599776329682 1.2979143419880117
2251 0.6552579380285777 3.402965501439476 1.5142477904712541
2573 4.143961551399644 0.2212650238381494 6.6013318920611255
2861 -0.705490205921327 -2.869530943583659 3.1024217568288477
1710 1.4054621246637875 1.048640723658818 -1.26505346698696
1711 2.1262533803428254 3.3568524637924164 -1.5068720631051167
1457 0.7573626532711571 -2.8386130571711368 -5.654115450221026
1745 0.2886735751812788 1.3107102943730193 0.7136940120239159
1998 3.346431826238028 -0.21459423027342162 -4.6962866492413875
1999 -0.8085794569620657 3.350774767775694 0.400579538353433
2287 -0.6634447572629079 -0.3765878654807808 1.0729713103290275
2033 4.514798393905655 2.5731773794775297 0.43581969437917706
2286 -1.6837585739482037 -1.9318866654174776 -2.9521854967966186
2321 -0.7674702850912952 -1.2540403899877766 -0.4082347115803406
2574 -1.9738687228693297 -0.5413587619011364 -0.06655818761844551
2609 -0.5471329087443286 -2.7049909077583125 1.806386691092367
1604 -3.141768678311699 -2.48132997659096 1.038542828161155
1606 -1.7964511337612703 -1.555142058424887 -1.5413612416884015
1892 2.71468729995195 -2.925904057919537 -0.1404873790652875
1894 0.6383229508419468 -1.7920354003472478 -1.4443555650644435
2180 -1.1712722979662853 2.5722651997005364 -0.03663910260565165
2182 2.7025974988043426 -0.13147379477045099 0.9235443743329322
2756 2.8096382503906425 0.6978904744549442 -2.6195280284754925
2470 -2.717246406103872 -0.8755771619313651 -3.8304250220499583
1641 1.41235451531418 -0.4349108461655207 0.14842002439075844
1891 1.9425436573904737 1.963985285438454 -1.0358484573450997
1929 -3.643435191650574 -1.0162122338042339 -0.52490099194979
2217 1.3244264277661226 -0.5788375188881802 0.6732776487372797
2179 -1.8394617036486824 -2.0974765574911536 -2.591924446509157
2505 -4.370299447153575 -1.5408652486201293 0.7272835468593353
2467 -1.1534890986287376 5.422153201119988 1.7428633863478395
2793 -0.892021519542546 -1.2292785861442193 1.5031003973806347
1639 -0.8029091593762563 -0.6246373898321831 -3.0109174320262935
1642 -0.4110528826806502 -2.109254967305916 1.0198063960149857
1677 0.5669961734154453 -2.6322712473406185 2.136233437786081
1930 -1.65320709675377 -3.1225533095178486 -3.540608295328254
1965 -1.9368731464909876 -0.888569481009113 -2.4890001517550413
2216 1.6682665932552585 2.3449112040875066 -0.44428470587834956
2253 -3.878692014648996 0.5431510376395973 -2.43112234670995
2215 4.247000474302398 -0.6089142980487197 2.366120532517633
2218 -1.8121735687443818 2.716463286040518 0.7889810258429906
2541 -1.440915390289192 3.799868332283198 0.0279546507847075
2792 0.9762090920803923 -1.174675135308354 1.4770662674966357
2506 -2.195198863873487 -3.8103750496890343 0.7739993486304784
2829 3.1916473002237784 -0.9386446526935116 -1.1527101408401523
1678 0.6903046408723065 -0.7371648543220538 -0.43202025285548784
1966 -0.6816358627730794 -2.0860336223775087 -3.3625748681693812
2540 4.665326306302415 0.37980917459603086 -1.3946941839771547
2254 2.5832931982612206 3.8284887045417166 3.2025051063277448
2542 1.612819384855557 0.7345827994934089 -2.7961599341673176
1713 -0.016023279399864025 1.2210436993689016 -2.993805784055311
2001 0.08957549173057738 -3.1621971281064924 -1.460899296597358
2000 -0.3165821836804115 1.8017042431397121 1.0731105129045109
2289 -4.484603462056571 2.6232045829031136 -2.6125249352411206
2577 1.2271272594327953 -3.3584591286951664 -1.744647688712546
2865 -2.1401167013885325 -2.227633821221675 -1.7230067003302636
2539 5.343359367875541 2.2698338938632374 -8.924274425791141
1714 -3.0512854319510474 -0.5882895863923774 -0.3662049851405555
1461 -2.044143422599904 -0.42763354277198495 0.03123456695862539
1749 0.9323752772049324 -1.3662480683692575 0.29879510832329215
2002 0.8996673558246304 0.25002658230469826 0.7557932527471001
2288 -1.9733910189799857 -1.7868785711056785 -0.2250557465622642
2037 2.050180966615486 0.4561172534791865 2.7403821119885303
2290 3.050078698614749 -2.619596485130449 0.6945713846564362
2576 -0.3390795126770957 -5.57836364417391 -0.05746825218557725
2325 -1.5789626351672332 -2.8780878575125066 -1.006363988954555
2578 1.815919674927492 -3.6834955838063372 -2.0434130391029814
2575 -2.149815364096214 -1.185866825618103 -4.41799664285552
2613 -0.10886982304234784 0.02495101121538506 1.53123188728716
1608 1.8705116102231825 -3.6327843762586585 -0.15455729429174367
1610 -1.477384124411182 0.025043773212760776 -5.601914510291311
1896 1.1815913615733942 -2.6810825716278313 -0.28360503626970757
1898 2.7822439999633906 -1.344021532462577 -1.1433374467150883
2184 1.3133428185522547 1.5178671472677276 3.4376987105957464
2186 4.306600001466219 0.5761046484192626 0.08911853025117922
2472 0.5487799842628271 -1.4519665894474871 5.591517819615697
2474 1.8186315932229573 3.962280726133174 -1.3357864491364084
2760 2.8949712447870537 1.9312593832986216 -2.9950575417912098
1607 -1.0483555005882772 -0.20825970074060643 -3.9603669601207687
1645 -0.08979715133562179 -1.847132413526562 -1.6129454712259361
1895 -0.9563170573417384 1.352498348259228 -1.2772127542005067
1933 4.895861955880831 0.2511235430626898 -0.44945137469815066
2221 4.976206746254864 -3.186214746250985 -5.245460434144922
2183 -2.0400812966537987 -0.26601518036858707 3.373089194584294
2509 -2.4148746230915727 0.9596411289118668 -2.572928286420369
2471 3.5095749955569158 -1.4191571283292361 1.6780481007231147
2797 -0.9643375991562383 3.5938390923477024 0.629816609205492
1644 -5.031431452628639 2.0141589166931317 4.9551652343726404
1646 -0.17163701797435146 -1.8196882989261565 -1.6248064147650232
1643 -0.6736720609031646 -2.1812619520449745 -0.46272517764216253
1681 3.377596917691775 -3.7669836747640435 -1.5539496240099047
1932 -0.3532164827265025 2.8986059684636376 -2.022311046540043
1934 -1.9175709917854982 -0.3502174677349257 0.15988998957895173
1931 0.14032951267728325 1.8974563795311545 0.13039290358477235
1969 1.736297718614351 -0.27567317237621086 -2.0192799918944173
2220 2.493118366296154 0.7971125521343465 -0.0890568092008986
2257 -0.9353120258400429 -1.8772892831412422 2.0708208335552674
2508 -1.3204747990653334 -3.9679514997213015 -0.7935375659725085
2222 2.7393909070320834 2.3653730497488326 -2.0066149607699897
2219 3.3902838718684594 -0.9752055701390735 1.81690182265217
2545 1.279764680908801 1.6160262694212908 -7.346600155348591
2796 4.1744781275866165 -2.5225786852361414 3.2341490416163676
2510 0.48124889676293203 -3.895001281994018 -3.1253692899916157
2507 -3.7551186112076116 -2.3084666502547484 -0.5007841948000863
1680 1.6624047456751807 2.286890392163872 -0.8408106516968188
1682 -3.436993686305877 5.2576910088621265 -2.7371678785347258
1968 1.7390751781257092 0.7485208107115825 -0.41115048899509327
1970 3.4618346528365063 -2.3569646874030816 0.2757810281026663
2256 -1.9982175620768365 1.1617738088001237 1.9568085198242324
2258 -0.36984636196742643 0.7534233866207326 -4.7041043240779326
2544 -3.4532616453583547 1.3741663859504796 5.6861325052236324
2833 -2.237423304737898 -0.8298231656706403 2.828802574051711
2546 -2.418889379825008 -0.8712335420292915 -0.645342031599199
2832 -3.384755957027618 -1.7134451254016865 1.1658127390910658
1679 0.4597654100393303 -0.28307176000958 1.150978397619212
1717 0.9553526893315379 0.5514477146400703 -2.410713224655678
1967 2.555242744547208 1.3569701278868689 0.08933611115912157
2005 2.4021094006161867 1.948838905473657 -3.5662251183514866
2004 1.7173808639473407 0.8335972086315477 1.5926231553349846
2293 0.6694801474737941 4.299339315709086 -3.389898148552794
2292 -0.4868265912555647 0.8873094657211216 1.9517131987769427
2255 -1.0028928634059222 0.6866357367709541 1.023355167722502
2581 4.985322006701728 0.0752500278531952 0.5079815977331634
2543 0.9889432665228198 0.8399644268717311 0.18819448657899154
2869 -3.8120066923589055 2.102794082075919 -1.4427746796393892
1716 -3.8926957958256647 -3.4937434409787445 -6.06893032605528
1715 2.5856445879322183 2.1962706931017704 0.6784188757354529
1718 -0.7526255662410725 0.16792278236635702 -0.5858583942289005
1465 6.21087713751769 -6.330955570707495 4.475131543513083
2003 -1.6442855986400602 -1.9790268570409704 1.7368474958195244
2006 -1.3067857096372788 -1.700882896833541 2.438928611623292
1753 -0.4416701515494837 1.3228273609000518 0.7430791388901263
2291 -4.364105871195272 -0.0970826702639244 -0.18039663262697705
2294 0.9059173608558793 3.7646091282598335 2.8870946068322727
2621 0.5999675561757897 0.9910975984418646 -0.6907122655732334
2580 -2.4341923740686773 -1.2495468003718222 -1.5095024712312428
2329 -1.909961276836174 2.3047177425812655 0.1451433472139176
2579 1.6497604203874132 -1.749874696810542 -2.6314707517920564
2868 0.5536633324861372 -2.5142626606022076 1.5848805020869445
2582 -2.052662738789553 0.13262836199814174 1.7395356248128473
2617 -1.4257134022654019 0.8467309701939445 2.1107982677142556
1612 0.10239639045899168 3.2211082546941303 0.8211118438706956
1614 -2.6652486138855687 -0.6756440067216309 1.5646727313463218
1900 -0.5745529618256461 -1.399844572673356 -3.435235120901088
1902 -3.188813118311642 -0.8434457187281825 0.03722147244863241
2188 -3.111087656458436 -6.368529905958171 -0.40440323284468105
2190 -0.8404488834218224 2.932562411377897 0.11017166910508182
2476 -0.7452614766766229 -0.32045106345136637 1.0442255417989257
2478 1.3489449137956075 1.0723332222931612 0.6198271394599221
2764 -1.2013898245576715 1.0866893403366111 0.16597202499577873
1611 -0.2085459317618989 0.6375283030633101 -2.84265809888096
1649 -1.5964340375953514 1.0393641707777808 1.0274863754811
1899 -2.5520468371573664 -1.8604357584977094 -0.21887444637550418
1937 0.6522417427307668 -2.032463091374197 0.8272273271429603
2225 -4.852181010633668 0.8834050010244239 -2.7673034642693044
2187 2.578564665452774 -6.485003944123463 -2.5997405464698256
2513 1.891071925980466 4.121589812970006 5.351081076624576
2475 1.3221013409931348 0.6442222547532332 1.8633561705092694
2801 -0.37950627362239 2.6091944300241483 2.206346856698626
2800 -1.0541918456197255 -1.637509845578876 -2.884538905323295
1648 -0.45370007816026037 0.356189190629907 2.6167087302431136
1650 0.12903991069445622 0.6081884919071103 0.050524915817890224
1647 0.21039412222787643 -4.901606643798777 -1.6244251470139723
1685 -0.1559480963845421 -2.139398272226668 -3.0355994846947807
1936 -0.6994192491751894 -2.2201854657290885 1.7953603902232145
1938 1.4483873677845904 -0.8651128142821586 -1.0432467868010578
1973 -2.252555402205127 -1.3956638215635524 1.2526179610268364
1935 2.3647008015585005 -4.4434130054750485 -3.5103659264047917
2224 -2.42970400707369 2.530869706115997 -2.1152737190107076
2261 -0.5244388904773214 -1.1481936023090809 -2.0697072022603296
2512 1.4271954512632798 1.1052027044321242 -0.6543752995135015
2226 3.6063558506075215 -1.9159000972351308 1.2370811847161771
2223 -1.1799024716958093 0.5958150358004257 -5.091264812678803
2549 -0.8827948239519474 0.13126788643400936 -1.0357699564172314
2514 -4.531133121945231 -2.956481130779565 -1.3896683985006217
2511 0.11891061451677669 1.4191571444472995 4.6935791734569605
2837 1.9854836363744979 -2.4984079796675602 -0.7685454094155658
1684 -0.8092043538156729 0.763234883633195 -1.53566705242104
1686 1.2924931749118562 -1.3672586114675123 -1.7138302018167348
1972 0.13156475140638257 -3.1915022235028623 1.0782114137468142
1974 -0.02775652063496014 -1.1291469231578035 1.27622418921426
2260 0.8906022388614262 -1.2981231806903082 -0.5915232192443197
2262 0.8039605902337362 -1.1828961817162775 2.9377354312258532
2548 -0.99652481775313 -0.9683384799885936 2.425994933522645
2550 1.4675138219905204 -0.4124615493929863 0.040409230448721016
2836 -7.405598277600362 1.8342340300966318 0.7354739197429797
1683 1.08435904161138 0.327862394500266 4.26624533033249
1721 -1.8851218488159671 -3.710140809645441 -2.5656914423832684
1971 -0.4821513059179508 3.4123803027243533 1.2428671371201048
2009 -0.8768967051356416 2.1037776880391936 2.2042190222100317
2297 1.9640653032749913 -4.301886104279901 -0.2562633840603696
2259 -3.323139622626191 0.4243741472476199 -1.779486388875526
2585 -1.0768208383495048 1.8290331210871442 0.519510640753925
2547 -2.834373475508759 4.100554320840373 -0.9996524048968716
2873 -4.911396371770035 -3.678531917495599 -0.4710551265979222
1469 -1.8241294662933145 -0.9435435722904199 -0.3324094646784426
1720 0.13042770869884984 -2.248298832493379 1.235502611181117
1719 2.34480291617092 -3.3262785796300083 -2.204355709629654
1722 -3.61999098828298 -1.358444538184336 -2.11085839850766
1757 4.143210519145561 -2.78036851337345 0.014471338140068402
2008 1.4863036739346478 -2.1662177228961474 4.827295565846585
2010 -0.9657113996600151 -0.22447129798396145 1.2600056078301218
2007 2.0079701368321325 -0.056465283916421506 2.3190014255400264
2045 -1.8508705020660507 0.639776930147979 0.4667189913778079
2296 0.44892350510534784 -4.697811180646632 -3.3731340879234124
2295 2.353354262695903 -0.2947001579050275 -0.3427282330984965
2584 -0.4203309588602576 1.4040647468676648 0.21481308388200088
2298 3.2987985946937117 3.1648064146722232 2.040264437012778
2333 -4.065704972185388 -1.3044392858770122 -0.4782697057519496
2872 -3.4318858671688655 1.4220189512298402 -2.9268125267856173
2586 -1.804946323281167 -0.8382239484772765 -0.6820066706595
2583 -0.8995358096358713 3.0371229526040278 0.05837353844652364
2041 -0.8276572480513962 1.088113459483183 0.7858322675868918
1616 3.278701307214848 1.7377020049053824 0.8007973770622886
1618 -1.7788872625321126 1.415596135645041 1.079037996692977
1904 0.9211143451125218 -0.7326899012554209 0.2744210437168347
1906 -3.312804157817536 -4.291501037757162 -0.9664018066783835
2192 1.0842540085512753 3.937102879549539 1.3060344239137358
2194 -2.5959168752653343 -0.6152124312463492 0.9810982559872717
2480 -1.5234908967720446 3.0943121347349067 -2.0638059209694277
2482 -2.0276067492589007 -4.331760151694061 -5.247109539165245
2768 2.070765675020368 -3.6953251957478503 -2.5744578746675555
1615 -4.472394715583482 0.9110051260116114 -1.2505883859343851
1653 -1.8905039712359957 5.922960891046855 0.43930604604452617
1941 -0.6365776990095987 -2.6601200643991327 0.6425266882688764
1903 1.6489741887309253 -2.4115323654898515 1.9176132000362012
2229 -3.6517663509844867 -0.6610574346034107 -0.47503943012729316
2228 -3.3495746608567005 0.7903554712700985 2.033592186661472
2191 -0.16160418835692528 -1.0103457673108254 -1.4545411242610842
2517 0.6638709122327645 -0.020248230339769847 0.2517299667406469
2479 0.5199884515943145 0.6756446123100295 0.45016911998093445
2805 -4.5962611700002105 -3.127959361385914 1.3229288168484126
2804 -1.1873728888849249 -1.3995399371149333 0.15929775187079878
1652 1.401938302514113 -0.34184882696783686 2.083050058817871
1654 -2.760729289964335 -1.2346324145025713 0.5664300812888384
1651 -3.7785027766796304 0.47855438036137093 1.129077711187497
1689 -1.699317381525945 1.9087209693229246 1.6609978024097891
1940 2.9562034056765434 -0.31110595887034936 -2.4805401772119455
1977 -4.818358057899111 -3.849633996893968 2.5746559507210596
1942 4.143895335385729 -0.6965242195392983 2.7974971535563276
1939 -0.822902686716135 1.8696707094957936 2.347903560699167
2265 0.3633492959244786 2.1030287439744058 -4.133309362391063
2516 -0.12410203893921076 1.9892588407509482 -3.274764629693994
2230 -0.9455161135459063 -1.3889365894044652 0.174310705057322
2227 1.0727377234254283 -1.9605739956017498 1.4914938525469617
2553 -1.106864714276845 -1.1083446255551954 -0.6976195138678168
2518 1.2914139751283042 -2.2980440257104506 -0.6768639090549999
2515 -2.0347270591071234 -1.0518549396685848 -3.1362056120600217
2841 4.430362271275405 -0.0976459704794913 0.7686363638748812
1688 -0.4315067102340499 0.5136237834865633 -2.4772665574172543
1690 0.258714744099905 1.3758886235307384 -0.1460152935247587
1976 1.4238468546097407 -0.3623683751071826 0.6533598440926037
1978 0.1682828294522116 -2.586788744265716 -4.380736810947538
2264 2.2679344801003714 3.9357698307138076 2.0653169141717154
2266 -1.1458949894223998 -2.097362092915939 -0.9940649940860277
2552 -3.114370920789005 -0.47106616119376643 -1.035377753895684
2554 1.0490295883534477 -5.0682861679243745 0.3860960050239253
2840 2.4805203528004753 -1.5363461847517543 -2.256218705446639
1687 0.43138283895820917 -0.3485112391114852 1.382963060691894
1725 -3.294230008138493 2.506312353231985 -0.9800332239759559
2013 -4.035243152034642 -3.297524221838941 2.8331754990316367
2012 -2.705072332477707 3.8294449412649274 2.820229866190166
1975 1.7882093089582107 -1.9874062893502127 -1.9524488099399422
2301 2.9021768131680075 0.3910788669926204 -2.9725678828597704
2263 0.15055592181180602 -0.6143558806908784 6.534471236546618
2589 -2.0504571594769807 1.015142319477654 -1.540299269973388
2551 -1.8392686803740825 3.0425054470509996 2.2259423825216045
2877 -1.9754109010481142 3.5606638313088332 -4.600092443374723
1724 -2.0148912574594773 -0.21263942917401876 -2.9359064562425363
1723 1.6162638384323469 -0.030808709963111913 -3.1513907981827827
1726 -0.6526888785913415 0.3396126236579774 -3.4367312019492107
1473 0.36197984102665487 -2.944591346500069 -0.4763473928191521
2011 -2.258861929905445 -0.7231001875539506 -0.07238465647243326
1761 0.6485054374765088 0.7909300627115194 1.3207993200908634
2300 -4.807403166098084 -0.1637324456182519 0.058829298126884956
2014 0.33174514081839507 -3.0593670298165216 -3.4567356035937107
2049 -0.9051171515973733 -3.2342922979569706 0.9427161744957262
2299 0.40701073775621516 -1.1263706913622538 -2.9521105727465313
2588 -2.0568516559090737 -0.8289477863571136 -1.2062634436603883
2302 3.1014934880813914 -1.638533743996585 -2.784156597581175
2337 -2.8685111664813845 -0.14944567174376616 -0.018762643005868686
2876 1.7770743332452368 -2.04797727976678 1.5821287239163944
2587 -1.6033968656575108 0.42522554577665633 -0.831386051706083
2590 1.2318718683666698 0.44874517511523554 1.575181693870188
2625 -1.0060238991820378 0.9313852075429461 2.358856763319343
1620 4.775226033153691 -0.5598339766767347 -1.5865219222448204
1981 1.580468512496858 -0.4356161801074449 1.36060673368566
1908 0.10245834470089807 2.9437171757476777 0.28072135586773866
1693 -4.818988330672524 3.397153326995078 0.4392537447268327
2196 2.954583085445306 -2.9300306840202195 2.806737737332559
2484 1.0296626843113532 3.2675611691193858 0.648647796222401
2015 1.6919699116224665 -4.600935408891041 3.6243439276799636
2772 2.5892929576189956 0.6040564368976558 -1.4311099228709958
2592 0.8566199724176446 -1.2829803395868151 -3.614777678525597
1619 -3.3100944039485563 1.5994166151832192 3.401117275709139
1727 2.746318049189921 -1.520233160728181 0.6137432969541602
1907 0.5989053552013834 2.467724558405547 3.010153354192771
2304 -4.200171014788757 -2.505682898503708 1.7789388209329096
2195 -2.322452161518922 -1.379737778563369 -5.614554136096184
2303 0.08122457464783377 0.42698923601207495 -0.12750628280150483
2483 -1.0857689686194913 -3.4933826428388945 -2.412940742440272
1656 1.8951800538117793 -3.0379326590139284 2.8940624263896604
1655 -2.009393505069032 0.5215198817901788 -0.7034558725936257
2016 1.6884632519624565 -0.21342883477826244 6.532550755824682
1944 -2.400376946478593 2.661758970028895 1.3868642082766216
1728 -1.550439933586606 0.26039115373310506 0.6899173296317296
1946 0.044269099661144486 -0.4236113670460646 0.5576616893036616
1943 -4.751849811865341 -0.20834487018898226 2.3808244846069515
2232 -3.80439167384968 1.501436453182457 0.22639565169406045
2520 -0.15350725116099836 0.9479866538819339 2.2821855234496837
2231 -0.12657869986277132 0.024615457305239816 0.027534769046690055
2808 3.440704051156396 -1.3396311094867341 -4.3484299333506975
2519 -0.438333070079351 4.265450433793668 -2.452757377014626
2234 1.4539917014986823 4.154799437718037 -0.8409347992170553
1692 -1.7842126903038278 -2.89824277781003 1.2775798042184343
1980 -0.5516989689470593 -0.10280972764414013 1.9112648395297107
2268 -0.6208828962569041 0.25896253870165 0.7838154306200099
2556 -1.686318841038778 0.9194693441942653 0.3170005886319603
2844 5.388547455930143 -3.2003286495811123 -0.422135946177523
2809 2.934918804702051 2.6376492425077904 -4.101450052894787
1691 -1.4213494288111617 0.28362666133975933 -2.1376576609139186
1729 -1.0276341082721276 -1.1700734722118467 -0.28693875690210735
2233 -0.6711687007358978 3.1442237459115137 -1.3055803066506784
1979 1.6101897605325914 1.1304925271669317 -3.0347644675111822
2591 1.5171423313742614 1.0007985086883568 2.863879667141058
2267 -2.1876591511801124 -0.8392745976309272 0.6969170195189829
2555 0.49681045193988416 1.0756436055459955 -2.1557619480317967
2880 2.7713545081713606 -1.5273026943885508 -0.04049679033729618
1982 2.985149070403358 0.36088985041988486 -2.63672079909705
2269 -4.82859604198573 -1.0811576519781445 -1.9262926931455902
1909 -3.734388426827357 -0.5371243998641463 2.9503224351089727
2593 -0.41075852279124303 0.2444776343586534 4.102514097288769
1945 0.05563105034207172 1.6198183207418932 -0.4749640431803971
2017 -1.3834324198417516 1.0749558584295644 -0.6957279290007916
2486 0.3635617971137911 -0.8665890434354006 -0.4888315908557602
2557 1.7253721219529383 -1.1705983104097435 -4.787942132118554
1910 0.779927686518725 2.5036158938082305 -2.747779078450077
2773 1.1448389184348107 2.0348524793190808 -2.8862865196995977
2485 -1.5941531973262257 0.24551728703196823 -0.19757559793690002
2270 0.8376111457671395 -3.4376516180997987 -5.5355040954985615
2884 -1.0562012054075967 -2.7054949585976056 -0.16898936529757833
3172 0.16412050489341368 -1.0083136215377795 4.480141302048129
3460 -3.4531383199253285 2.4637444597253406 0.742805416348954
41 2.5568254312541057 0.15259124416691025 1.350191754095647
3748 -1.3087514287201159 2.0115911568284774 0.5135163849592932
3566 -2.821664595987868 0.08741424705078729 1.8658338498854892
8 2.4950102697310563 -1.7993335152579848 -0.03768177908771346
2595 1.4641540411481506 2.20507808496308 3.317614772729977
3859 -1.0982138679089968 -3.2842102210415915 4.095090343608707
2883 0.08605450303647438 0.24607942738042507 -1.864221069544229
3858 2.1140729775360754 1.6920067319383671 -1.5056190683872095
3171 0.7482991539730532 -1.7483145156737387 0.8351913327485694
3459 -0.5430547839636508 4.852931547153588 1.8422403760045778
3818 -2.3567169890470745 -2.8097737430598237 -3.388866943780896
3747 -1.7208237927000434 -1.9002711002327954 0.46082004718975195
37 -1.2946544622755713 4.432577989222979 -0.2463124236815623
2920 1.2711414152088552 2.2511670431678965 0.1845753697765379
2631 -2.707828780445309 4.902691287773277 -3.1403824145436054
2594 -1.9255481011217817 -1.5052460755291386 -0.9624983964506747
3208 -1.7861651332062685 2.4742659038281447 0.5459434653725135
2919 0.8258722184157239 -0.6199157541418687 -0.8079929155803443
3207 0.44823562533838557 0.5133141208471556 1.6086172395592233
3496 -1.189074462663771 -0.359463583947424 -0.5880674750656382
3494 1.97250996968777 4.1330652451314 1.5583675684454594
3495 -0.7917475811161818 -0.35944724119092863 4.816856146686989
3784 -4.020879576459713 2.6776882844278354 -0.49796507775924104
116 2.225381258692474 3.8337432731283982 -2.097074202807672
3783 -0.1675089295884538 -0.27641940316473973 -1.7244754874792536
44 2.1547766887336266 0.9508372255025365 -4.3284736936535655
2956 -1.2297961261332249 -1.0809525612379443 -0.6597855584465092
3244 -1.7579399515134169 -2.176256165003569 0.707724496175594
3565 2.4012799563072837 3.9722667904050177 -2.6474182482440165
3532 -0.4085617840012137 0.9402210404667355 -0.09475407989401159
3570 -2.9059831515551586 -1.341524998895262 0.19119873134432985
3820 1.8653467150786978 0.46677229860549135 -2.9929891996294424
3860 0.9595747423170018 -0.1999925627972899 -1.275412438424965
2667 -0.27946259809352353 5.40465282018412 2.0878809216165393
2994 1.8189187714348476 0.7928452609963138 -3.4819981410293446
2955 2.422947772408037 1.717753218895396 0.7247655747926302
3571 1.5188516351330648 -2.203704876530351 1.3281311720604114
3243 -2.7150872038604343 1.9084188414150138 -1.8425449720161848
3531 -4.025627554144773 1.1735604021493644 -3.3073907808596896
3819 2.3437145287575483 -1.1905420744035082 -5.137564598402726
109 2.083672455566115 2.6460105935819183 0.45321463585300636
2992 1.3780147017996478 1.117659165284657 -1.9940624846684092
2703 3.0272183323978124 1.2296696683439037 -1.5136536770305928
3280 0.21503943523068544 0.07507094841237043 2.1316003154049374
2991 1.5234243278445703 0.6569895754847327 4.0572459848963724
3282 -1.2673659138847606 -0.16194399786173988 -5.020034527489867
80 6.980401448678971 -2.572171364905527 -0.24357355192903718
3568 -2.385400019911978 2.497685281608703 -3.3954220171611484
3279 -1.1580748181278746 -0.3165506963077184 -0.7654845809503243
3283 3.7599448969250577 0.05504330508391173 -0.9869752883209889
3567 0.6829576478439965 -5.113519430098433 -0.48883660631324605
3856 -1.3444745775403109 -1.4707298241348064 2.651119429466906
3855 1.9284561246496426 -1.801841383709135 2.2791259484164637
2598 -0.7244509842123957 2.216092004903579 -1.6724983796486015
2888 -0.31022963796456515 -3.396972522699047 2.0575640268464666
2886 -0.24774134720713917 -3.5268000544939895 -4.431573210142623
3176 -0.9247204758150688 0.514284369954917 2.1101025559605344
112 -0.6870925790675478 -2.5177064378990375 -3.3295855288842446
3174 -2.345435323033795 -2.55423453312368 1.9403294126764479
3464 1.1574194357548677 0.7083940365054813 -1.7719909787274726
3462 0.4873338280767755 -1.6466967835366415 -1.680162225082475
3752 1.8897678430616036 0.2698704152680751 -1.7722125973680474
113 -1.0683877773017154 -0.5199707534182858 1.480089168254032
3750 1.8262389541280573 -2.0848041850079153 -1.970430174046918
2599 1.410341186780124 3.5986674752489556 3.465259292899745
2921 1.410345239232381 3.611951608392218 2.0132274820835776
2887 1.2806316360323553 0.5488069979934349 -2.8065205990430018
3209 2.109048761791288 2.5933813197274156 1.7199758565396046
3175 -0.30180080781177526 2.7409335987925503 2.0180616666246816
3497 -2.45822104960463 3.1908972708845558 -1.487651497850762
3463 -1.064924726331854 -3.1821842944173135 -3.275236399644265
3785 5.953535418809335 1.1199304250762834 1.4205083821568136
3751 -0.6026332061344425 0.7944663099272425 2.207311197997898
3893 -3.7084415488614613 -1.9137243329758 -1.3480893181627707
2924 -3.4822593158426964 4.350345973941494 0.13778909772500283
2634 2.345688897273112 3.437287088370014 -1.874141049832001
2635 -1.5714832443087408 -0.7878010775610454 1.5368125291266774
2957 -1.9763904487548216 0.563354577204261 1.8070079787431768
2923 0.4007112305688792 2.581753132438459 2.755512566461774
2922 -2.529396335822942 0.5110427590726252 0.9602608019171421
3212 -4.439785156322824 -0.7421560301142898 1.101720947171257
3245 -3.8552563485571496 -0.5548679230804738 2.197236575345921
3210 1.3941511433082534 1.5252408404637696 2.055482158625884
3211 0.7569338698574991 -3.8671338969986624 -3.344947242457076
3500 1.9041282235213963 -0.9955680006991947 1.1055424008040964
3533 -0.8385297948885588 -0.2901251217049681 -0.06482722136846139
3498 0.06923263064818932 1.8174903631937116 -2.2164051715050284
3499 1.4435747962854115 -0.29044151038079724 -0.8087583701173559
3788 -0.8304769971677888 0.7002732730529015 0.648807396878877
3821 -1.3226793159907932 -1.6297614301975758 2.03626287352347
3572 -3.8754843050306134 2.588441287674195 -0.4527527239200744
3786 0.6786207638014172 -1.0874638056831387 -2.240479875245359
3787 -0.8642905492143165 -0.7895746482401156 1.206915089010117
3605 -0.30243947020979944 1.631080769043872 0.9285564556161962
2670 0.7054178753954103 -0.23416231398514656 -4.490479426461681
2960 1.7468680837273658 4.378464240753543 1.6263607691693793
2958 -1.6994203925422782 5.493672852927125 0.17267157926867202
3248 -2.760387342185754 -0.6427501119505817 -1.2267832514349506
3246 1.9801392345971265 -3.2657603807891156 0.47367858455193473
3536 0.9518451733831625 2.7654057409673376 4.8590895892609005
3534 -5.67165741737221 -1.691694807861497 2.929303108239928
3824 -2.4986671708607195 -1.271611881214583 -2.157507504615147
3822 -3.180335669049909 0.5534337515283868 7.114619880087619
3782 1.0458788428320047 -2.0503913355798082 -1.007513556839319
2671 -3.228591689822376 -0.20446681908776557 2.001699326002083
2993 3.6745623976718362 0.9626067783541244 0.9845033919038018
2959 0.048082379542380406 -0.5116775630946188 2.264904447790731
3281 -0.8393139654917281 -1.5350789682307173 -1.125990811073397
3247 -5.100575913251316 -1.6956087828682838 1.0542179295417087
3569 -0.7015306195892312 0.22649960617693385 -2.690865298531781
3535 -1.2650697622558225 1.4975412537577641 -1.8640632843200036
3857 4.641103937388364 1.3614786999079935 -0.7528037800689699
2995 -1.9520960672096443 4.639495792716705 4.9372574457630884
3823 0.9992929147947698 0.769518564749675 0.031212720962146622
3029 0.4485169328146332 -0.096145392322872 -2.0791412215675904
2707 -2.775333312502017 0.755231590700596 -2.7223724289797957
2706 -2.0660861496358884 -4.764189727715455 1.039203239747075
2996 -2.941567755703512 3.7428303971265833 0.38857894277113275
3317 -1.100994417074856 1.0411246069740074 -0.8878506438234135
3284 1.3158520314366648 2.6462138024700903 -3.4062588653900123
40 -1.4898632975067656 -0.7944576510656381 -3.3406274758565777
149 1.8071152012272185 -1.145873442605857 -0.8117089082644794
3493 -2.2687644518796883 -4.204697575473415 -0.20271140016946365
3781 -0.49975322195159255 -1.801638671020537 1.0871131435628887
3817 -0.5027673839807403 -2.238303390505055 -1.0198530239740926
2917 1.6402793727866665 -0.7202931168427216 2.2659254008472316
2882 -2.2262362097055313 1.1578963228249002 -3.713106502359916
3746 0.8914849736024177 -0.15979342902565216 -0.6088744288820849
2989 -0.27669517551145795 4.461175826466433 3.1963946220861605
2702 -0.21038526413612144 -3.0949114178208994 0.5235166092465673
3205 0.03280906336193921 -0.44532158044356085 2.0950965750353436
3854 -0.34232880688386824 -1.7164705739852846 3.469040062406982
3025 -1.18208779432921 -3.3079291113560947 2.24967560639917
3241 0.5311215562028958 3.109649782633676 2.4899726215734734
2602 -3.1374798296991595 -0.6372673580847497 -1.1536260210579405
2892 5.183342430374494 3.8431663617868836 3.0400768489553216
2890 3.848898297225447 2.7743900695488724 0.6650973957720071
3180 2.488764746227345 0.5173154961070185 -0.8263862148103583
49 0.6909242694362983 3.781104032000894 2.659016089909915
3178 0.4765139564850239 1.1353986892450414 -0.9043882858884057
3468 -4.416222171803102 2.5603912683834507 2.303702202555247
3466 -0.397296274415143 -2.1301277880899514 0.10462107360197936
3756 -0.156168417723811 0.881729269343266 2.0987191805731653
3754 -1.6384534541430318 -3.7033020973389137 0.01580710623081834
3868 -2.3786444014376826 3.427899887342357 -0.00817763538291683
2603 -7.8246368961310795 1.860277689927303 1.729493507906125
2925 -0.6800147675481414 6.099285244084622 -2.5566957804603687
2891 1.965670497065513 -2.975103419793924 -0.09935024154188057
3213 -3.15610029776136 -0.3942469830563424 -0.09825274416918851
3179 1.0741500611604338 0.9504248776867292 -0.28884930349042626
3501 -1.0883984540833915 -4.033777543852838 -1.2010979925571346
3467 -3.265968126730787 2.0202767845683387 1.020562086530899
3789 0.87505953242221 -2.0310008849242642 5.031474698584471
3755 2.8617645394755753 -3.129208111641528 0.10960435533286518
3579 0.014356388321605679 1.5271957925197608 -0.5006524702594435
124 -1.4178965125115681 1.7505423378407747 -2.895050507255491
2928 1.0139977328308534 -2.551538767671114 1.8448419438740622
2638 -3.289664675767639 -5.150684607920656 3.0964580068365755
2639 0.8377715940448904 1.1775579512921857 1.0104167068740433
2961 1.778605062411362 1.4684579505084547 4.040839573162404
2926 -2.240055897989608 4.737260296138352 -0.7435360058794804
2927 0.583444264713758 -0.4542941588203229 0.22428567985605444
3216 -0.769380682513317 0.19845685159815787 -4.23149277177083
3249 0.09469912619363194 -0.3156468922604989 -0.35040831943092154
3214 -4.945657437535248 1.5088173536781162 3.7244667841910837
3215 4.691013155882707 3.0658643212971675 -0.36688549166319717
3504 -1.5813433359241738 3.338494485404774 -0.3313220640384216
3537 0.5386252483931528 -1.4861524429686408 3.050274467295904
3502 0.6210853759597466 -4.159343448314001 0.4842531491167209
3503 -3.1673754782929615 -0.11713287926748886 -1.949976402791593
3792 -0.3213102963505341 -2.1751607880368824 -0.3986810131551153
3825 -0.7316613519575204 3.6261851705657637 2.237147644599787
3790 1.1267485868009055 0.4077200151429457 -4.6463321866525735
3791 -3.2012721497757837 -0.6210225181628278 -4.213364455928901
2674 -3.24672867627984 3.761537860713041 4.944265040156891
2964 -5.658653335611995 -1.3085219811871631 0.4445726295422765
2962 0.41572863446391406 0.842634132415921 2.6409280745980763
3252 -0.9531770225721998 0.4175306968350726 -2.0640493012935472
3250 -2.1704616557019807 5.437169719336236 0.07556332858503097
3540 -1.234422720622611 -0.735445167647961 1.2440286279064778
3538 0.7397236277784116 -0.6153193874355053 -0.8740749853575542
3828 3.195147078827938 2.6697040573056454 0.7585320167554956
3826 0.707080894321711 5.049969272362146 3.789782791496185
2675 -3.090135483379991 2.991387499007964 -2.3746401290328594
2997 0.19904119037105045 -0.4231716801604805 -4.67146832492462
2963 -1.171327035835567 -1.0444151787699936 -0.8110056624874589
3285 -3.6267389090892594 0.07619052467172148 -0.5001076666906388
3251 1.0629675086975674 1.7496663997228437 1.5189247416653289
3573 1.6836660864147392 -1.8284113888570783 -1.919294681639893
3539 -2.908988320332367 -2.4429280012136267 -1.706865400903718
3861 8.740589665830761 -0.4581360955084457 0.09877347056549439
3827 3.986835171401846 -0.7632664016682768 0.6771644870496684
3867 -3.0912288426844188 1.2224562530485406 -1.006018424669228
3033 -1.8429575328118395 3.4404204178727853 2.7903000485792693
3000 1.092192923547343 0.4142069536801572 4.117191048099028
2710 1.556322782593613 -1.851396996876233 1.6408542676489526
2711 1.3393199649270628 -1.892517189210364 1.8628864217181047
2999 -4.3317182976840085 4.901470243832254 4.012649154158442
3288 -1.3697666103715298 1.6565378870594811 -2.8521899388313012
2998 -0.8240594813524439 2.5534774176574446 -0.3790241581543016
3321 2.1209319350854106 -2.8548551430392766 4.734834927711039
3286 6.1981814214802515 -1.717488501846357 -0.43849335890484925
3287 3.9731223613246884 -2.6840571292911224 -0.43003491570288793
3576 -0.27307318521389556 -3.3526222799654115 0.016206763652191508
3609 1.4710513575262119 4.047760878646962 4.1636578626075815
3574 -1.856645368459375 -7.612136465555306 -4.369532575876958
3575 1.6965830614722106 1.5907405193281112 2.7724801578921205
3864 -0.3667672372888923 -2.3844924076743728 1.4874635523970505
3897 -2.5191969127045146 -3.6909045320576674 1.8244970121003925
3862 2.3127225875251978 -2.539371134673483 -1.8407025968369208
3863 3.5973167948198053 -3.9017101193303505 -3.145991465284342
3866 -0.8328280340201052 -3.0470558454680945 -0.9704144083646311
3290 0.4794872579502056 1.0363784963835923 1.1634563496511665
2606 -0.9093276263496929 -2.732183743024225 4.2375087151055535
2896 0.07442862852803128 1.046241957215281 3.1212140226062717
2894 0.6763773418955628 -3.1283397906050943 2.6645643232775433
3184 -0.8569126166739465 1.9021288500350755 0.7544093518522113
3182 2.9059032500542017 -0.383419459315843 2.2450790973789614
3472 0.9235785875283141 2.0087558389646802 2.297116992032123
3470 -3.9314888310571496 0.10610640270970767 1.4514085883626688
3760 1.0878245875414683 3.2575089989321757 1.6970755913236988
3758 0.16971735193165985 0.2524573403406331 -1.5199280344101977
2607 -2.23825235785525 -2.2258940025260876 2.7937172720107983
2929 -4.452455231389004 -0.28120961240784387 -1.951815596146413
2895 -1.8832122636794062 5.422911956189793 0.6054295852075838
3217 -3.515171439607237 0.4858127487636863 1.677442584892084
3183 -2.3126313676961194 -0.9942046189663873 2.043310916397496
3505 -0.8454558473482581 2.624326107563941 3.112898886250933
3471 0.4673135663256232 -0.9946126440260658 0.8816638084611053
3793 2.28514626165456 -0.1938324079712279 -3.6526390807893634
3759 -2.6337908988857057 0.46667647105634846 2.825535382685977
2932 4.066671785228759 -0.4538140358446294 -3.2659360705247042
2642 -2.08680345474566 1.0846699889690683 0.2590920256588305
2643 -2.913173838047608 0.7321931478198286 -1.93931593847542
2965 -0.6138492285420153 -1.3901937817342689 -1.0180444289593193
2930 -3.152791867275945 2.894448008732453 -4.363040274686638
2931 -5.765541998299327 2.3821612374845778 0.7070933293799208
3220 -0.13428397975832498 0.653622579587235 2.273077427953294
3253 -0.13608121061960515 -2.3685188916545394 -2.9407102921851704
3218 -2.0256031087211643 -2.069737755377096 0.9850810472478333
3219 -0.025020754178378284 -3.6218881590121166 2.7988223805155426
3508 2.9619824580795266 -3.39412189283072 -1.5718873785442222
3541 -1.545771075364622 -1.4783575265277913 0.529397444468613
3506 -1.6957394968213593 0.9134146185662949 1.7517832904722244
3507 4.62706215375717 2.667175571144818 4.1667199038325595
3796 -0.609695169123916 2.6129569602510774 0.1610619652773665
3829 0.7307274377086742 -1.79491202357727 -1.5106017876902786
3794 2.506059620900664 0.809510169528395 0.7975052199773067
3795 -1.2622731655246404 -1.4013352423479009 -1.785587329975907
3901 3.2623347143551906 -3.6941224890240223 2.0799368431511636
3578 1.9363406787123563 0.6237069814776975 -1.0317973481537253
2678 1.4938802513688008 5.313239632267094 1.745563872292368
2968 -1.960553309876114 -0.7072078722545629 -0.19202417020524473
2966 -0.05761047485829514 -4.1769540977762825 0.9748358490955303
3256 -3.2023113411378206 -1.3671274123177277 -1.7760203449532934
3254 0.4438124162329873 0.727027621407882 -4.416445470895469
3544 -0.8560575459523486 -2.0270037935420007 -1.3019359635336258
3542 -1.9816589014831716 1.4039470162741403 -2.693613456770803
3832 0.687844431712626 -3.814551961524493 3.2421026532388133
3830 -2.0854925179513955 -2.592635397118543 -2.332872814242436
2679 -3.971605981163655 3.98258225136153 0.038086853220407474
3001 -1.183082386736291 -2.985020945188031 1.2325198718128225
2967 -2.647172072583274 4.1259374599985374 2.3906536143384685
3289 3.064943117477214 0.729062909497536 -2.0146071981429854
3255 0.583382523722758 3.5410611046874663 0.27384521021065283
3577 1.3010381454002953 5.041568140754253 0.3231598012467788
3543 -3.59940441058839 -2.2980099175383693 -0.647396978124143
3865 0.41700386220733304 -2.843505770128332 -3.061235324747306
3831 1.338000388147395 -1.5864782532535633 2.0545803630424837
3037 0.09527500237532754 3.1212900013212606 -0.6890981365862323
3004 -0.5680144128254516 2.4245294399335475 4.10796509898208
2715 3.6091453380964245 1.5337194922668709 2.264162585058265
2714 -1.8742433518609352 -4.467233075997361 2.6711445585977613
3325 3.1110755489945685 3.8328791596257092 -1.309065541369178
3292 4.376915801821661 -0.9623686565957051 -0.5575531212159853
3003 1.979069048223284 -2.054566804139711 1.0322597478690663
3002 0.8254887969426483 -4.377513882499383 1.8159656039924519
3580 3.549298735553347 1.298309529414634 -0.47720960945574886
3613 -1.4081163744463798 -0.5088530477388279 -2.262887636537119
3291 -0.5332619347236499 -1.243599711433228 -1.8184103161856615
84 -1.1768860119790439 -4.038015661497634 1.009828509234554
81 -2.717327576770868 -0.6644993059028956 1.7257029695201263
153 -2.6673564496425537 -4.667557861919856 -1.0167450705041756
117 -0.14018998801102345 1.1797586346210927 0.27389104319076846
52 0.7557900220149324 0.5486527906407291 4.106132406635501
85 -1.7867135155440343 -3.591895207362741 -3.2792374233381345
88 0.42603624625845515 -1.4145487313585263 -0.10364751568843307
121 -2.253569009872149 0.2908788201671005 2.021142096354191
2610 -3.941115737721057 -3.080848210093836 0.9138102583091001
2898 1.209418227978409 -0.5469810180250407 0.3153934174446399
3186 0.9565283908211157 2.8866506191114363 4.919221958574825
3872 -0.4122516324271431 0.4752241169059305 -1.5531901540313207
3474 -0.7177892225970519 -1.7998379570007026 -0.5512159126272191
3764 -2.4823280985223053 -1.69300052166029 -2.2025175884063852
3762 3.695687769609724 -0.4034867417736339 3.0666080023436844
56 2.292554890533683 -2.7383583241190057 1.6825032727159417
2933 1.918869011895918 3.1363699544579866 0.025072163412201115
2611 -0.9926662110958583 -0.6824815621988509 -1.856310382953485
3221 1.4183737099579705 2.1390387887105637 1.0381086789912723
2899 -2.9045403284933426 1.6737798554569192 -0.3393438774719646
3187 0.22874198855766548 1.259286647829939 3.1326707419670163
3509 -0.22226774536645047 0.7239625136447501 -2.277101063587866
3475 -5.576604590567911 3.1974041884712463 2.859009777616737
3797 -2.0351737680880246 -3.6674477537090797 -1.7952046015100065
125 -5.69512941610789 0.2394318666195001 4.276239694975535
2646 -4.40353383610387 1.3269624398459534 -0.20248499132667633
2647 0.026421329420496964 0.35417112961606284 4.0871490933095025
2969 -0.7109240623557214 2.07574921288444 0.8264849336394341
2934 -3.194388540209485 2.683865484929561 0.27103060306527965
2935 -1.3380482119037118 -1.1638428233784555 -5.519493646364366
3224 -2.8933786247560773 0.12190225560366864 0.11840854913897889
3222 -1.4660226875247977 -4.681611047954271 2.355153907855573
3223 -3.4420099472988284 1.6563720585978097 0.9214895146537614
3545 -1.3585462710066087 4.626466702106297 2.752495663684883
3512 0.9240744651935158 1.6093774089280894 -0.5696795021875566
3510 0.34260814331858863 -3.213818497265828 2.0379479225831814
3511 -2.4007341641143487 -0.9931728598490779 1.136513330435918
3800 3.9979484081752377 3.428267055942528 0.8339421084948424
3833 -0.2306128665486926 -1.9748375014828665 -1.9718551043313608
3798 -0.25607889924671845 -1.2308247829485433 0.21218434179885903
3909 0.6923299931367007 2.9769787999743627 -3.1589152106423026
2682 0.0759386984887515 -3.7169713820243975 -1.9502241143752657
2972 1.299247704019125 -0.5113577872067331 0.6624604947433849
3257 -1.7505286255198895 -2.072266830132415 -0.48800816599447433
2970 2.429501844387116 -4.410057161937338 -3.627446501116419
3258 -7.246901896935412 -1.3385315420876331 -3.3425433292869267
3548 -1.2868623550509117 3.33242320204886 -1.7033767682762897
3546 -2.05030039446199 -0.36430224466899225 1.3692051200487754
3836 -2.6840987624566925 0.5963594902436407 0.5409413297518544
3834 1.1148029059637572 -3.0499688393323803 -2.288706285564686
3005 -1.2500861601193904 -1.924221103850127 -3.9793213507541916
3293 -0.8735929446753874 2.0724248690268414 -5.614947286468531
3581 0.4837954255443035 -0.1525888332759505 1.4551556632426934
3869 1.6494736654440771 -1.1810989155137308 -0.06454902792583074
3547 1.1929164638603533 -1.0172606253421135 0.3365379602299931
3835 1.094750351537021 -0.7109532606595838 1.6040212284055937
3041 1.7893622543296512 0.5971421061014762 -2.080527286326623
2718 -0.2882847593962698 -0.13775674630176862 0.7484114631373646
3008 -1.882826508294847 -2.406150809203135 -3.5806043817044912
2719 0.4416403394125074 -1.168228389864019 2.216344751958329
3007 -0.0242458752062094 -3.040956263999853 8.214300279039447
3006 1.0297157916616968 -0.9349006279271459 2.255264790279419
3296 0.7185823244586722 -4.012311033063519 1.7858691355551175
3329 0.5101962553216135 2.523975375696243 -2.2110688941610865
3294 0.3561371165698758 -1.3985738598475814 -0.4595414647185248
3584 -0.5609723785894245 -2.129513561329752 7.2748670747031605
3295 3.7110065301072863 -3.2392457632398686 0.6355333141042085
3617 0.927310640568326 3.721648311135434 0.4228697139417715
3582 1.4581641149552598 1.0249701123599873 2.0921345385620715
3583 2.60131837907345 -2.7562026602668994 -1.9623810281540208
3874 -2.6266413118072105 1.3988886559814802 1.8901102649993478
3870 0.6294989609186196 4.023853378757124 2.859759816493208
3905 -2.928889970022743 -2.179553015374209 -1.8156786705907757
2900 1.5088675731060581 -1.2526751143131571 -0.5035831176520037
2614 -4.522041956924905 -0.8072379611310838 0.14480586210714982
3188 -0.4560694083982538 -0.9783005027062862 -2.594721097497453
2902 2.426481050508077 2.233887598934122 3.8894941793531848
3476 0.1613575282001664 -0.4725840304532891 -5.670634796525771
3190 4.140793338554468 -2.5220419424900413 -0.33424789480354333
3478 1.5158036562542687 -0.34690424278969945 0.010141281527981367
3766 -3.7334704239504894 -1.8683802184237712 1.3215264104360018
2937 -2.1527216519982555 3.804505682183159 1.3598072415973326
3225 -1.4760343261451152 0.476368388342324 -1.4076226466064592
3513 -0.12051715983568331 4.599935639674007 2.6109937953815265
3801 1.8759037082086467 2.8380117926706774 -1.6409090609174337
3763 3.649199381982759 1.4061921873585128 -2.073788535763927
2936 -1.1304715008919202 -1.6719892544895105 -1.3642994517764577
2650 0.41313267340646476 0.6832456298630177 1.8126553937980596
2973 0.9807879059646774 1.440482156921272 5.350143551964602
2938 0.8835942000079379 0.44869088588628225 -0.0714443841556408
3261 -0.02720444317109494 1.0867011251608802 1.4162806139441788
3226 1.3302455568553047 2.115574985915263 6.063430923615908
3549 -1.723906461985679 0.8772272712149056 0.8855529175140019
3514 2.1836776907033637 4.350696859194951 1.8544851170734462
3837 -0.19407060447761446 -1.3786586395950584 2.5660777136162873
3871 0.9523356265007363 -3.527020246879706 0.31885058358784996
3802 -0.813069273778293 2.5326742452212034 5.960460797106551
3799 -2.1246461118154847 -2.3714379037182813 -1.6960243370066976
2686 1.4107619761550794 -0.6658957332807138 -0.9017852005043354
2974 5.624313141787136 -0.1449851506714638 -3.144607567859582
3260 -2.7859955266860927 4.5651677162223505 1.378501157328526
3262 1.5057433330770251 -1.7010975078353523 -0.14592966767617524
3550 -2.376959138166469 0.934183625395333 3.4557581531761037
3838 0.08736038775820658 0.1372504721052732 0.7730673374905894
2683 -4.372704300622264 3.7634518777310957 -3.253599981730869
3009 1.0348476706395826 -1.2710994539180185 -4.57247328678697
2971 -5.493173107726237 3.5733046381026123 -3.4408588326706324
3297 -1.7839782268868412 0.23588390962146336 4.2599614184572125
3259 3.242271685908508 4.3499894345888075 2.918479819250272
3585 -3.280726231657967 1.7204853234186663 -2.2081990512119547
3873 -6.283011845669019 1.5649713153655946 1.9373331254178998
3586 1.6923703954656715 3.481240275321582 0.26394686671414885
2722 5.502772095850464 1.2867059036445945 0.3550841823352923
3045 -1.474114393736209 0.4059799604016716 0.313657674040543
3010 0.8784947881751609 -1.7543384921766314 -0.1505079663569791
3333 -2.9169757523794875 -1.2097999711711143 1.9635678301804458
3298 -3.887217617671286 1.228634972636105 2.319419502746968
3621 -1.5374923687846296 -1.1332350457595053 -0.41323455808913495
129 -3.5076505556050224 -4.987310302782685 -1.89169761914588
92 -2.940894235544096 0.6653643361377859 1.6350118794661255
89 4.3419646841305255 2.7707973275304605 2.1762079834417802
53 0.3138920356323465 0.008179215692705341 -0.051191916172198586
128 -3.0311930028272736 -0.5104146269827486 2.2363983165731427
2618 2.54208344742776 -0.12401232981934349 -2.2895590329031537
2904 1.9761580594014554 -0.32922495260226103 0.24726917457916145
2906 0.5865955310195227 3.370042486509212 -0.641432313027343
3192 2.381928044324242 -2.3362701817267375 -2.5995563843605765
3194 0.541853540411163 1.3579141172905518 -0.510473264565961
3480 2.318134804499837 0.06426943880861931 1.6078920310530094
3482 0.22528285743932608 -1.6919014242333343 -2.384151853229315
3768 3.88937641046471 -1.2929327844049514 -2.278735872388902
3770 1.0525992257853678 0.05016782873600897 0.5597547204912832
3879 1.2125504816255652 2.2525644648347676 -0.09605374813515034
2615 -0.5719880811484209 -0.24684157042848917 1.8140736958945747
2941 -1.5444659139753114 -1.5506677500660009 -2.314858072905519
2903 2.1192585984158736 -1.156481370472495 -3.039753304552042
3229 -3.199601455679894 -2.6015384739529077 -2.3311924961226467
3191 2.502471025280817 1.0965470286815695 1.5400701010936688
3517 -2.193617216029403 -0.1274214853142026 -1.728609075270137
3479 -0.22250283720346842 1.8179983827925679 5.826013176218932
3805 2.919641112022475 -4.384799719804725 1.3253619995434163
3767 -0.3893062919584324 0.25484939862216893 -3.536130839894317
2940 -0.543204347248662 1.395244320253321 2.6202024660118264
2654 -4.3292211396936136 -2.1217785827360682 3.899803617782152
2651 -0.1628566488028635 -0.03754303686675479 2.7462412269287437
2977 0.7801838907928622 -2.8799180982248744 0.6901800501564492
2939 0.8522790175981836 1.9406129636691207 -2.4898177435578392
2942 0.8606641074679262 -1.8997961483811212 -1.2442200169174193
3228 -1.9370624047439606 -0.550957848675279 1.0793973408195392
3265 -5.416693965870287 -1.7249987833855391 -0.38081287662148056
3230 1.894409981934549 -5.182579733953462 -0.3104807575022294
3227 -0.3095800106021193 -2.621993539994496 -5.430127533158963
3516 1.5477668475725876 2.3357723646097104 0.49672152497192856
3553 1.4910712357077733 1.948927904373454 0.686375740491762
3518 -0.36195854635759445 1.5588126141279108 0.48814251875498205
3515 -0.6226784736966697 -0.9968373275155259 2.160669158209655
3804 5.680136851974588 0.6779507380911045 3.4153908016343015
3841 -0.7484738761524803 -2.4954443927262635 -2.415664672397299
3806 -0.2740235345494706 -1.0767467478137929 -0.237469908780229
3803 -4.7622362253743 2.650874864324726 -5.742832694916309
2690 2.179711608580766 -1.3680523504918103 -4.237665478509004
2976 -3.9078529137669875 2.0912230706467176 -1.7336556101655112
2978 -2.101306007317974 -3.4155580528248444 0.3604366696216894
3264 0.6515904187241293 2.928412206304264 1.5852179964333544
3266 -4.530983739828676 -4.297690859921731 -1.5196786196732148
3552 2.3048366470680466 -0.7864704239511559 -1.1556892399130778
3554 -2.959040072454004 -2.3934947496928483 -2.7963806306208037
3840 -3.5645950237617905 -1.712756299190964 -1.9921587083842578
3842 -0.9173950360109788 -1.2110946140722418 2.318871547643899
2687 -1.4160991998198778 -0.4231105194859235 -3.612290083947125
3013 -0.8709079915526147 -8.91972528342274 4.549640003528025
3012 0.5785294218221707 -0.1765673714464469 -0.5758475783588558
2975 -0.12974360921261419 -0.037616399015140474 -3.3923059720274624
3301 -0.2878595179459741 2.58763982835766 -3.489103328641838
3263 2.3850215250121862 -2.4575698216751447 0.5494282487971671
3589 -2.7223465303396583 -3.23765917456895 1.3973352186299965
3551 0.4623176825419068 -0.3557434879583442 3.7824831393911293
3877 -0.907701622696575 -3.376035396855958 -0.15047298877167575
3839 4.294231012102135 3.6075427074768247 -4.156005375686177
2723 1.821969921615285 0.30189216572994526 0.7429570079065193
2726 0.862484270826397 -2.919018760601103 -4.8742909786626685
3049 -1.0475520761039094 1.125224097266075 1.6148923607248962
3014 -2.688988098725244 1.32264759317851 0.42044648204984497
3011 2.264978246086392 -1.2380251535556546 1.8881168881950945
3300 -0.7687620618013851 -2.837716779300333 0.26151940076032293
3337 2.762099864258857 1.03213932602203 2.0728444870891622
3299 1.7017983890339976 0.6551676780172785 -2.497792622101829
3302 -2.019074125197344 -6.297829701436929 0.43935354211674105
3588 3.0852065489550173 2.3686540435556327 1.7987397792769808
3625 -0.1417313062190305 -3.670571767456077 -2.7513619171287997
3587 0.17204736381971664 5.145912965886764 -1.2575377001506711
3590 0.8051252825160802 0.5981750740584045 0.10267361487538391
3876 -1.0869563713787118 2.826038909101925 -0.04298937163068838
3913 -1.1850918071686354 4.674350109601006 -5.8544496429239565
3875 0.7525672358341616 -1.1198651878355188 -0.9665420344691158
3878 -0.926915083458434 -1.1833303544803297 0.6695931989384748
3882 4.847836647561576 -3.056968513707025 -3.9610444334678014
2622 0.4657715355880951 1.847643627801725 3.073190940090682
2908 -1.34136620192752 3.145912374241056 1.7305372343135899
2910 -2.325205243537463 -2.105915474765388 1.0276302718449846
3196 -6.763043095083899 -2.5289297278845284 -1.8082776216280643
3198 5.092542026951388 -4.067400535013335 2.6083665919665973
3484 0.1941112122601854 0.19232167670918177 0.5434340578307304
3486 -0.2174196441928533 0.23229676143298858 -1.535345397919302
3772 6.161055359010436 3.581949614684874 -2.9445549938133038
3774 -2.6708937451489967 -2.801365399615058 -3.9490450755814113
2619 -5.396395322068558 -2.1645292856397 0.8729523305982413
2945 0.47322311790326294 2.5754462891798133 2.222020520976815
2907 -0.3023325286610913 -4.672376271671888 -2.1581468735796046
3233 -0.38130977111651043 2.004945719972041 -3.0068700579467937
3195 -0.3562456032511978 1.3551919774782415 0.8648313562641965
3521 1.3970495693649807 -0.27112846307607136 1.9427252964153974
3483 -2.9338619002146396 -1.4175190571896417 -0.6564630967693652
3809 -3.0803226389231186 0.004175303707069122 1.558493361191892
3771 -2.7138569631043628 2.412458166772994 -1.5801711851825548
132 0.6705900334685219 1.4310224023763216 0.8564211304266607
2944 -1.218679460121877 1.1672717661922984 0.7700944751593395
2658 2.3016663931895343 2.1925739041377006 -2.116491601912129
2655 4.517842889377148 -3.859077562892555 -3.73462304075592
2981 -2.586436214039372 0.6674549848403306 4.260067253291301
2946 4.904826902541981 -0.45907958796845305 5.1613202637214
3232 -2.74751615032646 -3.6408243772447832 0.6353760899721478
2943 -3.860381368314433 2.018454786114569 1.2152029947783745
3269 -2.7111947811462693 -1.940834868005881 -0.25497919693803806
3520 1.8627912607755635 0.23299656054233878 -2.5512004798396912
3234 3.0264286194618255 -1.5081060356993872 -2.142715110967079
3231 -1.1789661465342762 -0.6630287561276043 0.5757703311093995
3557 3.1132141303870053 2.2210245525007357 -0.3046352123491582
3522 -0.08648471456699203 -0.8815003187651534 2.2507673148032104
3519 -0.16364835206500833 3.705093344006971 -5.1861843039675195
3808 2.0834233307563066 2.0676788600548637 0.7775812367522044
3845 0.8184169849759674 -0.44120244574801987 -2.5110429632555853
3341 0.6516683582543206 -1.8172491256383605 0.0665393999632957
3594 3.4214612528560004 1.0033495166102198 -0.8994809756858144
3810 2.4582165045240356 1.7730067700477452 1.946795392235005
3807 0.9755951582099178 2.8936320164816123 1.422618384842439
2980 0.8670973179769589 -0.324157238192045 -0.13788011369008063
2694 1.159059579215712 -1.6483541390101102 2.678105466443557
2982 1.425688969930004 -4.625804600471738 1.0597814259486764
3268 -1.3835389227230048 5.436349921624136 1.4479097965319978
3270 0.4668202255284757 -0.636335882989988 3.2396962008950996
3556 -3.116882368288982 -4.914137107354129 0.6384260070970833
3558 2.0320851351584217 0.01618620218740617 -3.9021240810299913
3844 0.5040816386368696 2.52371736227551 5.7650259845082
3917 1.68330528119711 0.6468312884560597 -1.3311300475036139
3846 -0.140391544996458 -1.609642497356262 0.9738665779613228
2691 -4.491445582164938 4.069170226008637 -3.0447105229660325
3017 0.35150596144439455 1.611388478559642 -1.7381286298320726
2979 -0.9963411578903307 0.20927351126777477 0.7229366087017667
3305 1.283212612768126 0.4441935854911285 -0.7297419335991677
3267 0.7328228411961473 -3.3422980878650757 -1.30622864545756
3593 -2.5372851569213806 3.9852877999519607 -3.3890493963476622
3555 4.450241442715617 -0.7999654184969744 2.2870869338563096
3881 2.203101685872017 -0.2813560936628772 -2.1200293278179774
3843 4.1667245155548756 0.8364172240837104 0.4517318542722242
3016 0.4789919419451839 -0.08543368042019842 -3.6861475246956874
2730 -0.6004555292121971 -0.6801630316646938 1.0667170155971302
2727 -0.9243578797216724 -2.4493864790137456 -4.480146654176519
3053 -3.3976883668730697 2.4861541938072507 0.4438454149788621
3015 -2.3009807725102194 -2.715281222758449 -3.973300879162651
3018 1.3409468097561452 -0.5018719196382577 -4.095985925190113
3304 -3.366653150570919 0.37963330359910613 -3.264629287295892
3303 -2.8006922117344524 0.6969760599225365 -0.6718142525494493
3629 -3.537021715758079 -0.4370727791737538 -1.7045112725494316
3306 -4.47861894999781 -0.6201538811842728 2.7112398600437646
3592 2.966594321094862 -3.6513247707619816 -3.028784511389274
3880 1.6452735875134554 0.1422786434656622 -1.8856360216458508
3591 -2.074230786054763 0.6576284903949299 1.2537870369207422
100 -0.04381206362040373 3.4920161558662026 0.3419244338298867
97 3.5911287484231016 -1.0844747090229798 0.6730460925696724
24 4.009997963128502 -4.906676590039756 -1.2675360643695883
101 1.0178421263382025 2.31755941324291 1.464222014417384
137 -0.3417335248981206 -3.376676546777631 -1.7712690381834253
96 -0.13671787151714831 -0.5267267089208514 1.4399684374214246
133 0.4488855261606478 -2.860402544251853 1.5620942667036892
65 -5.553286078111567 -0.5822562032506752 2.7256676733642777
2626 -0.5857115344152422 -3.9089409436815767 -0.30546266301727243
2912 1.952861222218511 -6.634666768057862 -1.30261620460285
2914 0.1733045156367268 -0.3263786319101482 0.7958224821750444
3200 -0.1384256035916119 0.13791559543140935 -0.10539152477329687
3202 0.7530202653291672 3.8294317975750087 1.440948055660514
3488 1.7115501838355431 0.3652484488477209 -1.3453914722287361
3490 -0.9167503130909748 0.7499527794540276 0.4607124263725153
3776 -2.4976192169961107 1.7675518257641298 2.5283274088414873
3778 2.7537086193395623 -0.9728425893914638 1.2589250424730916
104 1.3360038137677204 -2.089683417151594 -0.9370968446520864
2623 -2.3282134649219213 -3.7954609920946774 -0.5783307763271222
2949 -0.03844713478947358 -2.9804510551546874 -2.660618696872964
2911 5.829894918361748 2.534202277449459 -2.3225338629181316
3237 -5.788658148328868 2.2409838138733016 -0.6556552753163536
3199 1.4397716240138192 2.221302038269293 -2.5486043560377594
3525 -3.297594258786295 -0.12859626150838505 -1.9405667317102264
3487 1.3732462778564243 -1.7860347323013925 1.3204995643073647
3813 1.418738186961407 2.261488901164939 -1.8870570125510728
3775 4.984808660068915 -0.9629603744921432 -0.824872349136936
2948 -1.1851922735034779 3.2345989900391605 2.3172344192098087
2662 -0.2542949587557066 2.05280123759822 2.176920926675759
2659 0.10418735752708229 0.32465085661514903 2.6093137865404867
2985 -0.617458660590616 -1.424396567331783 -2.1246915164026445
3236 3.348343290705101 -1.1304271259630556 0.983862320720177
2950 -2.3669879195381385 0.43623412367313497 -0.8163785093955269
2947 -0.24326917202213458 0.15929903112597132 -2.06444303459855
3273 0.7153093931268392 4.292607657262984 -0.1562814480526474
3238 -1.5351051191436864 2.5469116406063046 -3.6226955231749742
3235 4.308338482709531 4.259526683234211 0.5898538288503216
3524 -2.510227614765376 2.1769125772700635 -0.025909966391477003
3526 0.11250779360630943 0.8774772176963418 -1.0853703699995991
3523 5.71946309703767 1.3194554267777383 -1.189714213933913
3812 -2.098648981092977 -0.9717707678778299 2.19595524115744
3849 -4.843136405645373 1.196405745452941 -0.9351552756585336
3814 -0.3064888853762038 0.32212993732939216 -2.255472596778547
3811 2.675367977602893 4.030884146054006 -1.9056509791110983
3242 5.266082155193915 -0.07053145146627735 0.31686259227076263
2698 2.4086791649582016 2.5014347026704207 -0.08131888274468121
2984 -0.7203960585828388 0.4200518036985084 5.361995593098673
2986 -3.267318925579541 1.8754115840703545 2.697517360469601
3272 2.5236198017365674 2.2906838737325703 0.6039249414592991
3274 -1.8305256300867567 -1.7132314030169724 -2.071824728786708
3561 -0.4363298577541164 2.6660547925383824 0.9503236231493226
3560 4.255749266591863 1.2225712844098229 -0.8415328477019073
3562 2.8678938544649535 -0.3858268281781138 5.3437318782514955
3887 -0.43052186684682725 -2.0601301571726065 -0.8803708389160222
3848 1.0376685194244268 -3.23716435311472 0.09263765402797029
3850 -1.2535772691104297 -0.6736160652284281 3.3448154380740727
2695 -1.9104784114029976 -1.2771519326578833 -2.957420692170245
3021 -3.056024497226168 -0.7279512550495592 1.029402017623101
2983 3.106923838160754 -1.4724179449792407 2.8628964808971156
3309 -0.20355882896281088 -6.0149490816904665 2.2755301778740993
3271 -0.2660711487999871 -1.3931412949088744 -0.3711528305653045
3597 -2.0960153671045108 -2.4720509066223606 0.16475555274234716
3559 -0.22072303384929298 1.4275165707024493 -0.18782940515725444
3885 0.36565529631613786 0.17892187757967046 1.642621432894377
3847 3.7245059841843577 -0.21836681428709145 3.5529860835441966
3057 1.3761230280029184 -0.4114023565735735 1.3045017196690853
3020 1.446848216460322 -0.014121594318301742 -1.8706905710898323
2731 0.5723476137113815 1.0697253708042063 -1.6226147110217186
2734 -4.610970204192649 -1.4536164507331444 2.6381808677765477
3022 -2.3803470182497763 -4.878901793192802 -1.653489652961343
3308 -0.6170057479523415 -0.8540067096077882 2.3682629045574126
3019 0.317782889033745 -2.6328355870591507 -1.2216587367515344
3345 -6.921551236841055 -1.3561648660298975 3.4761313089075006
3633 1.5480710268852595 -4.907806735366076 -6.328901555582619
3596 -1.1685483903018152 -1.3590169579907343 2.390936833487468
3307 -3.690103788754908 0.04764847286036814 2.8593894729992297
3310 -0.5519330609918419 1.8705448668200668 3.855079509710875
3595 -0.674869019751275 1.0434121840667108 3.517842923491512
3598 -3.176334512053616 2.306991708311037 -0.9617581314071136
3884 -2.2928407371552244 -1.5707429220694529 1.8735665354921651
3921 0.9721466560391402 -1.8019035424574008 -2.581464232303516
3883 -1.267835539595307 2.7260345290401724 4.76313629182641
3886 4.7826324321959595 -0.8206582767751134 -0.5374757068032079
2916 -2.5257420450680907 0.8015473008167051 2.6311407129364244
3530 -1.0421632020093983 1.4385921234077108 -1.477479674989361
2954 3.701050020837634 3.1054657766074487 0.5374789989026815
3204 0.6626482219596735 -0.9263780281937647 2.2740106190288714
3492 -0.5175960907461757 1.0093261162829803 -4.297273370952664
3780 1.163241587606898 -3.8554394838028845 -0.5291304895847754
3851 1.191301875217834 0.4103501204628457 2.1437212667166277
2627 2.4159956834526017 -0.9940396725410173 2.1278557697827347
2915 -1.272133577713116 1.6561109827277896 -4.652022507245535
3203 -0.22865194798046132 -2.2513694628290017 1.0506385349150846
177 0.337121995895216 -2.0621352599408787 2.1036670297050013
3491 4.580263746033555 -1.2582366521479793 -5.54855340929813
3779 2.674837636129377 0.07462022097143689 -2.0157081611530927
2952 -1.2923807129500908 -0.5829011757505265 -1.39120274145538
2663 4.110259986477741 2.8585054055329344 -3.0087357894808466
2990 0.8797379949235303 2.1530816512974376 -1.5754400466661727
3313 -1.8190044036588897 -0.4658990979142881 -0.8819598524123888
3240 -0.8930646493704617 -0.5798814090741857 -1.4563192284498012
2951 2.8603683400181144 -0.46505268634983066 -0.0014253001712937682
3239 1.334021579670897 1.2331680809157586 -3.1401110199081117
3528 -3.189234210341329 2.4592684942681604 1.2065743970741685
3023 -1.1824105662638817 -3.1894639264049403 -1.42114955001473
3527 -2.6943053113291744 -3.7400527158805135 0.2099575097109979
3816 3.439512739001065 -1.940586004504401 0.5125558297701214
3312 -1.7331817000033953 -2.3109012765772143 0.6645922832576906
3311 -2.9282405962203097 2.2714085777562745 1.2737737271684886
3815 4.118992776534695 -1.224015681511091 -4.004585338614763
2988 2.218619229090222 -0.3604720947200199 -3.218526611728701
3599 2.4337919703502995 4.417698770971497 -0.9998218047437455
3276 2.108739116698448 0.5045924416966455 -0.858671012740128
144 -2.4702886067985177 4.93235172811791 -1.4162175373329213
3564 -1.6557685422911028 3.3881462949930663 -1.526268849091562
2735 1.0465119451218345 -1.413539820260644 1.4155089916553079
3852 1.016523540385213 -2.1603457773009587 -1.1039157240680526
2699 0.3178590439376879 2.569284909296203 0.0464382570758096
2987 2.334898948700151 0.6812736502693355 4.087704675170694
3600 0.5664616337250824 -1.1684818979156508 -0.7615305364225085
3275 -0.9715734651726488 -0.16443653048749202 3.683845056336704
3888 2.134065079624241 0.8546882996466272 -2.525430892543377
3563 -8.907346594580547 -1.3263925353562471 4.211326713503667
3024 1.8093150983368813 1.8886588250448173 -0.8409925160481269
3853 0.08833896797349836 -2.6327491337695155 3.0235633184014183
140 1.6040531003853644 0.3721619725481997 -3.3290248006397625
72 -2.8003914390352107 -1.0496470621235874 2.7673852492442155
3170 -0.7237966000755867 2.9918268793611293 0.9449045645995042
3458 1.1104230029722462 2.737707130381532 -0.37238794329328917
3206 -2.8626029574822307 -1.1035042730328324 -0.2863950418678846
68 1.4181643381445135 0.04409439531862714 -0.14103936847095405
3277 -1.2774763315189033 -4.127619972814754 0.654431220924902
2953 -1.4375467506462023 0.21746714687401691 2.8822944427457267
73 -1.942014340292899 -2.1819541252135983 3.4543042066547978
2666 0.6086450636475377 -2.7997444468406885 0.3989543855050664
32 -1.090241720962398 1.9477605850023885 -0.20070221556079434
3529 -3.0753981051338286 -3.8668772837225123 1.3437245814809782
3601 1.8085320637491196 0.06726474121731645 -4.710049527081227
2918 -0.7452606736840286 -2.326037979923207 -4.400305441183326
3278 0.8344122898439047 -6.522994524576461 -2.8735722802751997
3889 -2.007212717037123 -3.49963940986058 -3.1721996013721396
2630 0.23917092790897573 1.3662720520963443 -2.267228284846349
3028 4.100730084378657 5.414076685087188 -1.8015285245745518
188 -2.0330850869902495 3.4535732864319635 3.219707075000469
3316 0.3075288040133834 2.0399159245525733 1.02638228974731
148 -1.5115736569625418 1.390880669163987 1.4818743825966159
3604 -3.610606596506813 0.15333989092579614 -0.495505607907777
3421 1.6264161207840149 0.2835147268809178 -1.641901849669148
3892 4.464390267355327 -1.9816488942776849 3.7242852220053817
185 0.30297496376607846 -3.770721816079692 -1.1374479244660494
2739 1.1464865803760724 1.604529082508363 1.4582026683160605
3064 1.5751558367450174 -4.6161010393792195 -3.162087955898669
3173 1.739958951196647 -3.074932100910064 2.6149396126817295
3027 1.1666574202712723 2.1327830685995774 -1.3394574219420143
3315 2.239221734204397 -6.4571829980014135 -1.0897984816175916
3603 2.750021090543359 -1.2986494214961422 -3.4313047641083503
3891 -0.5335524509752342 0.4696403479071445 2.6922511595973435
3709 -2.082219468853133 2.012458358426879 -1.7530547686144116
2775 2.5627182910343516 -0.45701213772850563 1.7373440511178844
3063 -0.8937116753164448 -0.19820688828395402 -1.1118971517809526
3352 4.769797887655143 -2.38910439089713 -2.2937649296607696
4003 -2.2052027073044527 1.8690161244064571 0.5665192828991648
4004 -5.296419313386339 3.1923952125508244 -1.7978169967805964
3351 0.05542467267798467 -1.4588700342381458 1.0575582305220623
3640 -0.5582548571741208 1.5926103150348576 4.430738549651027
4002 1.4100526799690967 -0.0011942875526825035 0.14588788014507534
3928 -2.118341256370099 -5.076048485895351 -0.31625107846113015
3639 2.3727928325650685 0.986857200239418 -2.5680826983392886
184 0.7738665641305051 -4.41587097867966 3.3589192388575384
257 -0.05100489183318276 1.7711423495765792 2.789557639829556
3927 -2.63717152743544 -3.399722386249002 -1.065000012716548
3428 2.289301465809251 0.9058679378368368 -4.3385982612692375
3138 0.6171678204251789 -1.8736902624882699 -1.0764140614579472
3100 -2.488738721012415 2.204995999874903 -2.2208034544583293
3388 -3.5349985827465913 -1.3898575898671766 3.427309727067001
3676 -0.09602229897495644 1.647289385730497 -4.4330749276272075
3097 -1.620572400573721 1.687572725249402 2.236496480469304
3964 1.1082282898270146 -3.7000434956933885 0.9015456843323405
3715 -2.3569102106351036 0.7447384155758603 1.4212235860404185
221 -0.12339576004944104 -0.8482537784974333 9.269823488311989
2811 -1.8630007587916921 2.469336166837647 -1.9628602526376644
3099 1.4051492547497877 -1.3440395061305543 -1.7485116878460683
3387 -3.390297345400405 -2.6191764717130956 -5.47391438290837
3675 4.946585821568472 -2.032288743366187 -1.8463463502676705
3714 -2.3502109531984816 2.8238275537755566 -1.3888060514484295
3963 -4.235952670376825 -0.4200022884381039 1.9397534990058287
3749 -2.7218338860599527 1.4016991887733397 1.6933054465107304
3136 0.20914329411855112 -1.7824358707888865 -2.381534717786083
2847 -1.7162013941854088 -0.2829260894332713 -1.074341035701499
3424 -0.9833581840897293 3.2034131995854893 3.0776042207305627
3135 -3.68232747491917 -0.6753818130689003 1.4598205193865146
3712 1.9870133772759184 -0.2726800981156381 -2.6211563139118095
3423 -6.1370802144446825 -2.4366387413668065 -1.5930461506092617
4000 -0.198843120481939 1.4048450847675475 -2.7216519668152777
3711 1.1864969965663303 1.8999266710970264 -0.9734222848994152
3426 -3.9141381417106245 1.0018679271281694 -1.0322656571032338
3140 0.9131216259862168 -3.5584828374415887 -2.2533964475708457
3999 -0.1610241942061246 -1.5830516155260121 -0.3477760982136993
3716 1.255543558662716 -0.7609889838660646 0.31773300228651435
2810 -1.2776081876118308 -0.6254668256756164 -0.6099253260953214
2742 -1.7969961670821546 -2.114878516594509 1.8196887845469685
3032 -1.0216032381753717 -1.7900543153464317 1.7601370605189288
3030 -2.774486749642144 0.9222756189543065 1.0624522827569884
3320 1.88235075115796 -3.5862971545569624 -2.379799092956283
3318 0.1586703510689921 3.194275530275999 0.885703896728624
3608 -2.901738868656248 3.105452604835247 3.7916004093433333
3606 0.084812243583996 0.9628344691057168 2.282389019174415
3896 -3.2872254435191017 0.16228320768244403 0.882214141070834
3427 1.3831329683757834 4.068286030667183 2.645350600162919
3894 2.641441492180368 2.196179667880433 3.573518866161682
2743 -8.899386602796065 -1.7264408986285584 5.047529167101969
3065 4.844864753245789 3.2910415845428136 2.2075580572673617
3031 0.7972365996151369 -2.1975994407610204 0.2101592919098686
3353 0.6907876116808972 2.175974962805983 3.1842227835611996
3319 0.19416767669215876 -1.4121292120440678 4.930436019503225
3641 -3.0308570491646494 1.725567278094498 -2.8269533188132026
3607 3.8006417700858153 4.827970038212576 -1.3588704938731682
3929 -3.590261812244692 -1.2817997168534188 0.9891437242861949
3461 -4.62512045245435 3.033780023849185 -0.5576977717656724
3895 2.8390211033556647 -2.3476921976994958 0.5937494375363376
3068 1.3457199493468628 -1.0144304496261134 -1.1233779346297137
2778 2.0477066287578136 2.8996011834133433 1.4103099417274412
2779 -0.3424025228932502 1.3613177401801655 -2.2097143318471697
3101 -4.437599504203485 0.07413620626182321 -0.7647367376681427
3356 -1.6670276572031042 0.38855412447864524 2.4547295778142764
3066 -6.662629587501963 1.995696363613831 -1.191981823839261
3067 2.6604051960300974 1.089578354066968 0.30961686785460674
3389 -2.9778550348295805 -2.0460578407107795 2.0026477929598983
3644 -0.4953403048782632 -2.6914956765872464 -1.5865366622334847
3354 -2.8290690527133884 -0.6929711404288682 1.6798372211342198
3355 -1.1737647970996676 -2.2024104649635015 3.0080913176276938
3677 3.129203246206304 -0.443129823972886 0.6364033185061564
3932 2.0209479056254382 -2.314251671231243 -1.6435767340856342
3642 0.3343258820708264 2.288386216130688 -2.831990375869041
3643 -2.648950200542695 -2.853632044970149 -0.023372797186175343
3965 -3.7918622570994462 2.904244884186389 -0.2711776846763077
3930 0.13721216090024296 -5.3293399556913785 0.7587940982412329
3931 1.5436131785567004 -0.9681631880768533 0.41929243205654076
181 0.6995604970863609 -2.7121129345651425 -4.834010491051177
224 -2.05341461037732 0.19236052328128644 0.941571960908507
2814 -4.018141156606022 -0.8518895976948887 -1.3131162910633905
3104 0.03840601138379362 -1.2350917101390373 0.07425680767129776
3102 -3.0813226977614376 1.6578887117214747 1.7319245620020003
3392 2.374866804624453 -1.4908339403966973 1.6276464042610124
3390 -0.7697139242658795 -1.2550621344978516 2.134868522282314
3680 -0.7578683374024866 3.0635804714607895 -0.013501400927569582
3678 -0.5350923615351024 3.24101451266148 2.802807793015032
3968 -0.21445590511830198 7.13288956873021 1.010917978046875
3139 0.9974638734358038 -0.4576244722041861 -0.4270964023939485
3966 3.1911674523316065 -0.1470921305163777 3.687176374920261
2815 3.86288650114874 1.330058575853043 0.3241575044932747
3137 1.6507640254130145 1.0002502209974866 1.4712778024774533
3425 1.3673075646807507 2.0463697098270885 0.562111236245619
3103 -1.3872430961669524 -1.0263363500805052 0.6242386912740105
3391 1.0211911646573768 2.0493554490455406 -2.871743576093684
3713 1.6546402391117905 1.7766354767259296 -0.2519338004022765
4001 0.9189552331545185 1.2624969219856093 0.7872695636820659
3679 -1.378936761955971 3.3153324767932535 -2.350145928826478
3967 2.4549852098584015 -0.9240388171139368 -3.139332392027147
2885 0.21651333008808726 -1.3396503457713154 2.4994452316674916
2850 3.5940422966137757 -5.569316755563852 -1.7134139982836298
2851 -2.0163586843813435 -1.315834945547322 -2.6995113044370433
3350 0.054548293691112054 -2.979182133408418 1.2929404467933823
2881 -0.47298738801316803 -3.0835914273704 -0.9672795287104644
220 2.4329069983071663 6.39316966826738 -1.779714059889505
3962 -0.21997129569867122 0.7836705405964814 -4.876274540861562
3997 3.1570385617804 1.2584799073397546 -2.622466463835798
256 -0.39868817285420965 0.4110904975991479 -0.15171511865374676
3457 0.9531267870505419 1.6248144820405424 -0.01629092210867988
3710 0.3615967926573255 0.4057329035672192 1.2649713268507814
3385 0.6348366489878818 0.3444949946769659 2.521389509726896
3602 -5.157532315177225 -2.813371851301699 1.7260591816590454
3422 1.7268075033999646 -0.29513346224713144 0.3262165759981722
3098 -0.8979713126499844 3.5546524991889576 3.8585843969072604
3062 -1.7163418255543614 -0.9995500130470301 1.6150591413035618
3349 0.2635135776868232 -0.29765066629669246 2.5668189272766524
2746 1.6457717531812948 -0.4364341947787761 2.8500892038554504
3036 1.263716071917549 -1.4718431243658956 -2.845696282622764
3034 2.4816820696468715 -3.1111750447309867 -0.49586469012227186
3324 2.1575852123527692 0.6166328875415743 -0.5904756257525227
3322 1.9888509422356806 0.7566612365447506 2.6766253094647734
3612 1.6257549048685949 -2.7350565513234946 -0.4662297551505701
3610 -0.1268356708102086 -1.3232912886548813 2.188585258272009
3900 2.807099240714935 2.5160165998241526 1.5650919640787815
3898 -3.6993808387219715 3.4339308656536693 -2.596819871082309
2747 1.191651418835544 1.272593951099584 -1.4789025575454455
3069 -1.1801935486967272 -0.6222217569838148 -1.8127527498433074
3035 -1.0314390815798258 1.668225399310247 -0.2433921858046634
3357 -0.2853107825527847 2.17313113309071 0.12335900271114898
3323 6.1409921941943875 -1.4298065666238036 -3.6438938129495764
3645 1.7661728113602673 -4.791558940805243 -3.5459434356145962
3611 -0.1698721703107682 -0.5898463048747103 -1.8967426766397273
3933 3.0643458744341583 -1.9246575574916305 -0.3057381541761477
3899 0.34652733457039864 0.6592240001977282 -2.7907672006294364
2893 0.3192145858434207 -0.23493526434320816 -0.3602449431145052
3072 0.6069615779353221 4.133665755355484 1.1448823720650012
2782 -0.24225334188090075 -1.444317668627412 1.2154030284554114
2783 2.461923638484571 -4.279440097970813 0.48853718604270546
3105 -0.6712595700338226 -2.4256631494003376 -1.8469349605332535
3070 1.6742274187409278 -0.5801133170120661 1.9560567382479481
3071 -1.79889184296946 0.5830558880522642 -3.1125787268897556
3360 -0.06520546370578693 -0.06090668491651008 -1.6602969556228728
3393 -2.31192311673766 -3.1699243594449897 1.1738677448236319
3358 0.5019814205547378 -1.47511064995124 2.182912375876399
3359 -1.538107542931745 -2.7683483405449665 -2.4592559698924896
3648 6.360873427607181 0.9188645746879639 1.7910919412728892
3681 1.2708567829171957 1.530729634822663 -0.7369983075901831
3646 2.009441777491304 1.2052583981139766 0.623701299059551
3647 3.378144081069039 -1.5353877157336004 -0.9731165497115543
3936 3.5693053201702325 -0.4289856722273534 0.9828291411945219
3969 -2.5908534056746038 3.9640755880025393 6.69418013390766
232 -0.07186232364146489 0.4666994104936819 -1.197083212643572
3934 -0.23507086616140505 4.637595422493173 -2.429330794214737
3935 2.8975077067578887 4.807913741340759 -3.746299341985154
3434 1.3775504146582032 -1.1493086815789029 -1.168361181499605
2818 4.479181095397659 -3.6697953346988643 -1.4833632793396005
3108 -2.8041108988183145 -0.27849091377888446 -0.5449383804870103
3106 -0.8240028014950449 3.7586053934196424 -0.2792395513802956
3396 -1.825965408253452 2.7433335005806065 0.30925358044894896
3394 -1.5188782016089117 0.1813124332035481 -1.8595305347157796
3684 -0.0898699703521733 -0.027913497209528296 2.508602802622624
3682 0.8115419516973595 1.9399260391402502 0.36024893415982434
3972 -0.9793246667752713 2.569239098546234 -1.4160010042309406
3970 -0.6813215582249401 -1.640781028880265 -0.5894746601317367
4010 2.2483879828981266 -0.2646162321547937 -1.1766607879994366
2819 1.5654384313937293 -0.41364871021706445 -1.65283494769854
3141 4.44973983556859 0.7219281544902043 1.7974453683523632
3107 0.30192104220366556 3.5920266029480903 -1.4384555941371897
3429 1.555449651223625 0.05715313322281696 -3.2486112322568452
3395 -2.3127412911048064 2.447723558171555 -0.9454048220346447
3717 -1.193203024897931 -0.3687481966099992 0.26213830954634776
3683 0.4605721550509514 2.2843722371414974 -2.0700167854949267
4005 -2.7654163292124716 -3.0619038113586163 6.0134439585560395
3971 -2.461155531665529 3.970895112667009 1.8392555098004584
4012 1.9871892432564655 -0.9705958005240007 0.9582374520648793
3144 0.6291036675954713 -2.4974162245385676 -1.175255343352092
2854 -1.620824851601273 2.2997968632115184 1.3430671057805574
2855 -1.9657491309616977 2.744747230345282 -0.1268216381901475
3177 3.5758298630484897 -0.8651026615869521 -3.1217447652297268
3143 -0.580175386422954 0.8896658014109862 -3.219307866212936
3432 -5.662184703885635 4.538153659629362 2.6278808866934846
3142 1.9173922069109617 -3.5924325577360983 -1.1499824060263917
3430 1.64507464377984 -0.5376097727424787 1.2038239433886495
3431 -0.044779191403160154 -0.48909598223395434 0.06680587191189691
3720 -0.09179369247724002 2.020233427576029 0.9820750980754335
3465 -3.9722612497250718 0.5959752673358332 -2.7644503845452735
3753 2.699622844140633 -0.5950164474084185 2.0250738205835366
3718 -2.036155801691058 0.5207007453999222 -0.4024637467051932
3719 1.0613864643239783 0.7507732049507294 -1.1348430794860946
4008 -2.410942189874222 -0.5733134499553395 -0.5018670666136765
2889 0.1458525137739859 1.4814495862720387 -0.4107825394886138
4006 -1.2870470651389951 1.3771964339873843 3.901287283573546
4007 3.1869580284962358 4.726172712064263 -1.268380452048091
3723 -1.733723144162264 0.7958172663419978 -0.5531792350272923
2750 5.062259506730613 -0.738007355668164 -1.3998412607737192
3040 2.2049838781387403 -2.6149221781803047 0.3180976941712422
3038 1.8483102855021103 2.6797641287270477 2.817314388241421
3328 2.174154858536527 1.3581533675563353 -0.9759041084088849
3326 3.4306226219577662 0.19557935860525497 0.79866574882012
3616 -0.08713733711441843 2.925629313130997 1.9161962746993095
3614 -0.8579738206766926 0.06882798621596636 3.382753527127439
3904 1.7731640218644813 0.7364681304309314 1.36285311053174
3902 0.39235283224736145 -1.785677397892559 0.33652156890536356
2751 -1.726856150792292 0.4639768361349523 -2.1078275768163532
3073 1.2498396625982615 -1.0798845745404257 -0.786826229515426
3039 -3.273693782494388 -2.306883937623507 -0.9290301811979705
3361 2.5666378923961943 -0.9066813771487496 -0.35096429087532843
3327 2.738138792768271 1.4284313462722205 2.075612724099426
3649 1.1956018375193445 3.1188589458571907 -3.003982371196748
3615 0.3836496360367436 -2.7017058087349235 -0.18661129611951233
3937 4.6985055863277 -2.5847588842150904 0.8771925144842797
3903 -1.5010212552598454 1.4454672212667814 2.118920893157738
3757 0.4827193927318472 0.10573410881754433 -4.128693298833487
3076 5.666374297079529 1.3722343651381268 0.432762136098239
2786 2.8830122413581507 2.9451916108722083 -0.41300347318664676
2787 1.1504340686518255 -1.2289515072762003 -2.7575608427564453
3109 -6.156213041438038 -6.195891706155622 -0.7188768549253732
3364 2.694072004545177 -2.4227773920279048 0.163054462415943
3074 2.4942793270894748 2.1831136991886133 -1.2228285131118286
3075 -4.936665478489384 -6.223310288279896 3.821113858168531
3397 -4.917990465469582 -0.30170591985263795 -1.6807407956775826
3362 -0.5861977079613383 0.5201488303706501 4.6599932357299245
3363 1.4367266419656353 4.184446453788279 -0.6670996833599403
3652 -2.4434067550200713 -0.6765821616715041 0.8379962459661457
3685 -0.3757933413655083 0.9666467760653417 5.11099126057383
3940 0.28170438526473335 2.6038830231216243 1.5930737689273569
3650 1.3589851477986166 -2.4888822697118123 2.58019828034101
3651 -2.366134459723404 0.9964714835751812 -1.3660500763730385
3973 1.5628495659617352 3.2339256668116683 1.946003333088912
3722 1.182217136694986 -1.3322093342911863 0.7596878878572689
3938 1.1311396205993047 -3.0040146553121305 -2.78772406864169
3939 3.141660235928015 -0.32294887597144545 -2.134470209683593
3435 -4.322577879384071 0.3772896486711682 0.4398272141124427
2822 -0.6692699700252565 -0.18588981050994144 1.2905894473537332
3112 -2.572175468583256 0.3555353716784814 2.9699450822814732
3110 3.6764157648061557 -1.7141347910370741 0.9745174077740822
3400 2.5446658366552852 2.15187261104749 6.8770282360989246
3398 1.7226238187628928 1.204881943039043 -1.0175413257566503
3688 -4.545256233262973 0.28230363530078734 1.066214877343943
3686 0.22392832015981726 -0.9647783025658457 2.1152977242897366
3976 1.673898428016811 -0.9088688889933803 1.6097172046075772
3974 -2.375510436187349 -2.5367296846483236 3.2788505265908143
2823 -1.3057846590002924 -1.4311676348268578 -2.168447436309131
3145 0.9678798714801197 -0.6351488174582572 0.0920917477268527
3111 0.03663460347254218 -0.619643760759866 1.8421367847431538
3433 -0.3798422161783784 3.100169350283535 3.6292619858008086
3399 -1.1006056718156114 2.938094013685939 -2.4460421721393306
3721 -3.630154548516513 1.1307742895207245 1.2232559582295268
3687 -4.1980277905589904 -0.7741974624709425 2.1669257413810894
4009 1.2140397206806541 1.4543353310327733 0.5153836642967394
3975 2.4057812353759607 3.2217092184067786 -2.4676265502778385
4011 0.8873491670041969 -0.3249302126447166 -2.0277213846268682
3148 -0.7377375280418162 -0.21438903275289312 -0.17617448532302832
2858 0.5676945743553977 -2.2866083767314347 0.9860378884535276
2859 -2.075991124480511 1.7140626295811177 1.9043313072194736
3181 0.1134263969900141 0.6668197937908138 0.36061060892798413
3147 2.4504127209278024 0.2402794671267106 -2.908206121182685
3146 -2.267439611882929 -1.2867296364582514 -1.5137065612128942
3436 -4.205568588722826 -2.5556752835155896 2.5656482800530815
3724 1.6760418543351425 0.3839313071163444 3.4438950776023627
3469 -0.025929186146571737 -3.812844639375796 -3.8832309041055906
13 0.9585398525802974 -2.528668133621555 2.882860628329214
156 5.725980631501065 -2.442236070286153 -3.091739970405865
196 -2.1994147983194035 -1.6833444614177782 -2.87652894790051
265 -0.515556965438518 -5.317646598034935 -1.5610515753821284
189 -0.9384017388949808 -0.2160347298665892 0.40523400394516856
193 -3.3546485019112544 4.595141178081219 -0.16996027424869836
264 -0.4827305022554515 6.425930606532542 0.8295422280385638
268 -2.204436705584393 3.0657229404013604 -2.417583104991259
228 0.5002581863310025 -2.9956431487614075 3.767881334730539
2754 -0.9560535952293464 1.4971762674338416 -1.7934044762017687
3044 0.9489960215437092 2.169814523335105 -3.6215452096991427
3042 1.1085137793994895 -0.8277100398581365 -3.111774561960803
3332 1.6346535061511267 0.18080261481172782 3.227996960189699
3330 2.818057116690546 1.15380924954194 -3.99591929177008
3620 -3.126975996866849 1.4878932090083967 -1.4368171090654376
3618 -0.21634926763807635 3.1492224609484563 0.9523632481131171
3908 0.10545395895085324 0.42772109758872323 0.11202396819753872
3906 3.20927091231787 -0.4397351108343548 -0.5516514947644675
3077 -1.7837097894072167 -2.531479963964629 -0.7891633136769564
3365 -3.703320133859056 -0.23394496180677515 1.2163821728615265
3043 -2.6676527939851296 -0.06336770525184934 -4.210619854082155
3653 0.2689642378595996 1.030732398741573 0.8542616910523516
3941 -2.624606448501791 0.3411490556631763 -3.780372896271867
233 2.1512562478289476 2.732416703920915 -1.7434280747414954
2790 1.7755193803350953 0.5407283473950358 -1.8902515653465732
3113 1.01621136926433 3.4222994325097598 1.1812046952244382
3078 0.11824096168193994 6.480341522476915 -4.0935977413537685
3401 1.5123397882794776 2.0979309198762897 1.6921968787039179
3366 -0.6824354503778871 -0.8911823054872391 1.0045770932376428
3689 1.2479427635384703 -0.13970684590054713 2.675744250110076
3656 -0.9998775344404112 0.18201487555095627 -4.702717254376909
3654 2.8184822110335954 4.123180566234019 -3.401562289443054
3655 4.272173258454907 1.4068008424843566 0.17502121908802207
3977 2.2470888977070453 1.7323374323930272 -0.7814812835323816
3942 -0.6920604995594427 0.7134692165324762 4.123155667901692
4015 -1.2361337188264965 1.8446775860895916 2.1660447094930912
2826 3.567156512370577 -3.4042075440002666 1.4830653657010369
3114 0.473563181064213 -1.5148067535036276 0.40591927260855987
3402 3.7641298832167767 0.8329557969521719 5.082984158686349
3690 -1.4924478551070717 -1.5194640347318726 2.295698062940532
3980 3.947614869425641 1.4695191417961018 0.4808124866535927
3978 3.1940918110972034 -0.34729304061188804 -2.1150107351334535
3149 -5.92333154184569 -2.9236034576536216 2.5337433684005837
3437 0.4093782759560401 -0.6996669730574737 1.4557889873506271
3725 -5.75545393338205 2.809579505739991 1.3423612948945112
4013 0.6659862344139873 -1.2207792420822705 -0.792910071726869
164 5.291913447402106 1.9707543065704776 -0.8980020352952692
2862 3.613595454047234 -1.1129365096137351 -2.2333761515087667
2897 -5.54668495849352 0.6983829749389789 1.6257192038073083
3150 -3.42440566970194 1.6615643761969685 -1.1263239503592726
3185 -0.3779338806251405 -2.1434607662800462 0.15939199267888243
3438 -4.09184897301944 3.2385357806284585 2.5467932042142714
3726 -1.2867509819517486 2.275699969890988 1.1860851210864358
3727 -0.7624974505597026 2.535196180331065 -2.1938313425140974
3761 -2.3619437686996902 -0.1688860144706097 -1.1025104969945807
4016 -1.140448709105689 1.2300673492079384 -1.5399703903904916
4018 -2.3827554529873716 2.057557152396713 -2.9845422003355346
4014 2.2723515245749626 4.134394810830349 -1.461918813625499
2758 0.9975732355178683 2.777000468950398 -7.464419055250436
3046 -1.188522141922025 2.7476736117953613 3.2627003423311782
3334 0.18584234556240023 3.5055291972543463 -0.41839520329660285
3622 -1.068994804022045 -1.3097830726516007 0.01847648171032714
3910 -1.118639501178292 -0.15598388032127028 -1.4775512345973063
2755 2.5371414162267856 0.0029165226401875527 0.24343792571359577
3081 -2.1044039757613024 -1.0505652144389732 -1.436845918154523
3369 -2.1106891962832517 0.09715023963298787 -1.182667696456738
3331 0.14666567221567695 -0.6586116068198837 1.5709371634416935
3657 4.412491260534118 0.40958287033476815 -1.9037000416680727
3619 0.7826530417099247 2.906197644118206 0.5016534162353469
3945 2.693301477371105 -3.177423601257387 -1.525299137011272
3907 2.855194685510331 -3.4365847861337775 1.0311053639050556
3080 1.1705143365547757 -1.8956776032166947 -2.5483787902492945
2791 -1.249021716565265 -0.5330744086810498 0.37212908882791074
2794 3.0136318128433115 -1.1491965057998392 -1.0957975386900098
3117 1.9757215137998498 -3.1909703717068507 -1.2320710065519405
3368 3.025527489478289 3.564359755646727 -0.17217693189298502
3079 1.047171934201949 -1.238149800968217 -1.6744333634914335
3082 2.440377804233594 1.990144701406517 -2.180157308860233
3405 0.33872065017072533 -2.177367895255039 3.231065860534121
3367 1.044798346698369 4.004394909300953 4.118804433466886
3370 -3.1000197163365 0.3898781774688902 1.3769457024872895
3693 4.02468741976177 0.795689754791967 0.1740580928977708
3944 -0.9255529774273875 2.3207994092760864 -0.6616703266060535
3658 1.128560684887399 2.8727244048082037 3.759044316126048
3765 -0.32672822188572215 1.4045271354502071 2.01700374057181
3943 6.562673636268469 -2.810197877359755 3.165900882066055
3946 1.9443417611489993 -1.2858715429244205 2.852735605878174
3116 2.3130539291683223 -1.8055792238611459 -2.3379436124735196
2830 -1.7973092772362655 -2.9450109839843335 1.4020185974073005
3118 -7.027877018006279 3.0089544857968487 -0.9587849675644479
3404 -1.1525491492338142 3.0876536797650482 -1.3101894192359693
3692 3.132630562984719 -3.8859592204357623 -5.291520270738085
3406 -0.49020521074327256 2.394262751680579 -2.4466858624150714
3694 -0.8272297957568979 1.959455509564174 0.7323508832489487
3981 3.4432405064250173 0.40007443996101977 -0.5705847908598328
3473 1.0012804723384887 -0.7886512064378569 -1.7820636103577372
3982 0.7130897745214833 2.4357746773820987 2.046928403054745
2827 -1.1208934816191138 -1.2250965479576617 0.4522953288178948
3153 4.162824987148189 0.8928410933676338 4.5274626294529385
3115 -1.0157284666562367 -0.9283879357761142 2.540768072298747
3441 -3.681607288148646 4.611075793379543 5.71565868134258
3403 -3.2165621501603687 4.114254714041946 1.9398242412457298
3729 2.19473044131354 1.5365696523162198 0.8545092892450857
3691 0.39954788017170645 -2.7286252466712972 1.1092489432102461
4017 2.9688790686306032 0.9120943356450544 0.7532462736592026
3730 0.6399411443578957 0.8914056276255501 -1.912824440184202
3979 -0.7165114824192501 0.5823158982466962 -0.22641191391809956
2901 1.210845175894766 4.143813117583453 -0.640754008089862
3152 0.7992316680486103 1.8854999931054623 -1.9070017855103047
2863 -0.9364165253964685 -3.210219034017702 -3.7836364580890054
2866 2.3041809898386365 -0.7945086518290038 0.5967329853881965
3151 -6.024185092303262 1.1951657998624057 -3.094827663661921
3154 -1.489352434783524 0.14069791382517022 2.4030270921848373
3440 1.0018857874063514 2.694496042045304 3.855641528761239
3189 0.03245183587731287 1.5483706197207041 0.43217023768743473
3439 -2.901088968011747 1.3616184460983924 2.864581164846602
3442 1.7116080065025627 -1.0899697423521912 3.970961477498293
3728 2.2649264946816166 -0.14282267116091568 -0.5468261786011088
3477 -2.6573885880946326 0.259459046207236 2.446970334846648
2762 -4.157952568363482 -1.8815852464872385 0.7198760607890743
3048 2.4312890222770918 1.5979397369583255 -3.990025769805071
3050 1.1238996736914948 -1.7845167501746604 0.3952092551089983
3336 8.642786037329621 3.1513560490617145 -1.1598303913558234
3338 2.539291196862152 0.6751646190044375 2.0658993605181415
3624 -0.9962862194918743 -1.2596560412440936 4.723461107382672
3626 -1.2881024112654063 0.27685921492764254 -0.48937042117349866
3912 0.2703947291573959 2.114132989751982 -3.665162317119471
3914 -1.7221054944979433 1.7279337899497291 -5.141916375993938
2759 4.6172783997538565 -5.421888252134094 1.494559761026177
3085 0.27439297717398375 -0.06297923282666819 -0.6196680050458078
3047 2.1317822165587175 -1.708032857311523 1.0409909440988903
3373 0.25924419728002007 -0.03578562508956896 -2.408280727639091
3335 3.743284294842316 2.021951066384936 1.306298640464119
3661 -2.1323609095912626 3.9865723602457495 1.9142756219233819
3623 -2.0234525434324486 -1.4239255419477723 1.8552455028296873
3949 -2.197174973836299 -1.4673416931118868 -2.486074129967383
3911 -1.8225652294615753 0.03480092423358714 2.585812493078522
3084 -0.3458894991176339 0.374630671483577 3.029816847233474
2798 -0.4380732232735294 -0.8346510264407184 1.094153545641823
2795 -0.6331706467515698 4.321291200933341 0.23702126601258997
3121 -0.5638150882455397 -1.666588023792806 -3.6822996364432083
3086 1.2947407910210122 -0.30982364431678583 1.7766160861948894
3083 1.1314372869446416 1.1740518057934768 -0.8553983260697393
3372 -2.902325075264165 4.871726676887676 -1.582561012050434
3409 1.335495394760568 1.897333680234304 -4.313790283109129
3374 2.1209109889476956 -2.561591474704086 -1.2835500621569236
3371 2.5463035768854043 2.1643658614883243 1.0058623885240792
3660 0.5540612793909591 4.564618442344758 0.31228850358286386
3697 -1.0207947037193503 2.966360468204094 0.7080233133905925
3662 4.278473226213802 1.8942380265770544 2.257165624004811
3659 -1.1002579156042587 -2.3043631683311196 -3.0336235439829027
3948 0.9338432298517105 -1.1214120113462211 -1.1974763481994604
3985 2.7162051788520096 2.514211497717319 2.487707635819686
3950 -2.5131776078215506 2.5695648279435424 3.3580183566891226
3947 1.4966453233846724 -0.9010608723540489 -0.5501775873741166
4023 1.3216239418925424 1.178884645584479 -1.3728625473102485
4024 2.4759695448730463 -1.0463698299447417 4.593659710681519
2834 -2.314321869325708 -0.6863185696190255 3.4100052969554575
3120 0.6430730187650278 -1.5194815777598778 -2.642979255337825
3122 0.5672338921311619 4.449961681254996 -1.538749174981483
3408 1.401688869726613 0.6149007568876771 -0.1496344578805221
3410 -0.3314110922055024 -1.9867463242673464 -3.958369327926522
3696 0.9421484297997911 0.01462917352921765 -0.19073075756017768
3698 -4.433101410830675 -1.2199734621612441 2.337529855864022
3984 -0.13576135944949458 -2.736695120731266 -3.197503986621642
3986 0.12177046103961538 -0.15498257250610994 0.30619811038332395
2831 -3.798583094701259 0.009129337586886358 -1.8105269831300395
3157 -0.3493750327510594 -1.1905815068506997 -0.22048477041525155
3119 -2.971293944049895 1.8379305455819093 1.2597440951388572
3445 -5.8158275241581405 -2.922603021457984 1.5296231895908186
3407 5.830926881891745 -0.23236973427277163 1.0865112323926516
3733 5.4673750870169995 0.8979660125216087 2.68129120570843
3695 0.9980770641375641 1.1754478256100604 -5.070056689164431
4021 -0.23370592729659398 1.4616487575947148 1.2695801248973364
3983 -1.6412892914907689 2.63916466231606 0.4902843366328289
3738 -1.2064132870782713 -2.236737402425434 -2.4976820526907035
3156 -1.6918637388896334 -1.3409904902344532 -1.1266318039857062
2867 -0.8716124301503018 -0.7208427704213376 -3.8998869817749244
2870 -2.6819413975889574 -2.1405560930417638 4.671866339755712
2905 -0.5889086603110627 -1.654342516170909 4.262444076469532
3158 -0.4124370885081476 -3.0000230478370282 -0.8104644235257168
3155 -1.8617670792925745 -0.9744592853287649 -3.0711996250191653
3444 -7.7299455816650475 -2.3846608326893377 0.03975279464294381
3193 0.19085517172515862 1.4711432125444244 -3.9813944082540758
3443 -0.06413726725236844 1.4106400501352985 -1.9846420774889098
3446 1.667633064751942 2.844442273414682 -2.1648095784527794
3732 0.9227897140269028 1.6187065814022297 1.6619106300997704
3481 0.6581170379337269 -4.728638728271892 4.235488642282874
3769 0.8162654560309103 1.5228382861540708 1.9484982643481321
3731 -0.11180640299010804 -0.013901331592064102 4.177529488214077
3734 -0.32270039958758945 5.1210086694448576 -1.592175821488081
4020 1.0169687713267064 -4.870389404865888 1.7232938644778004
4019 -0.9993226441537715 2.704987783476931 0.14307469934846512
4022 -1.1914756519410044 -3.334716145499543 0.13575268991192796
3735 -0.8271706051935487 -2.9150091559657954 0.006395372646000522
2766 1.8385518716074472 3.7787341460247803 -1.4355612989541204
3052 1.9130841386208954 0.25148510609511887 -2.980580290272728
3054 2.8431465112101035 1.2001268335761672 -2.9015775140635607
3340 1.7954424494160999 2.382369812826712 -1.2628599300264025
241 9.58547535576317 -3.3998232394050043 -0.6915257658315175
3342 0.9138119854522646 -1.2149324325105242 -1.9958855748285391
3628 0.44133031225683406 1.1589973361354635 -0.0703634257235614
3630 5.151185741159225 -0.7552249045607664 2.6984346992152894
3916 2.003433920177505 -3.2170335897543354 -2.2205387595968027
3918 -0.44115292015195967 2.1067777976942486 -2.3196545235454256
2763 -2.6834989916223986 1.5407785515976395 -1.2732396713818421
3089 2.045734322577906 0.09186606621859289 0.44173731999962745
3051 3.575123029884698 1.8235059271800753 0.28751543701773735
3377 -1.7867161387153796 -5.378806957648543 1.73741174308037
3339 -3.416040934626872 2.967513316424647 -1.8716844422584373
3665 3.739409662162049 -1.6137229897025909 -0.5433016485542407
3627 2.703145630955185 -0.19254597066772045 -2.3194880288050523
3953 1.2541302874477802 -1.693127236237533 0.6125430765905038
3915 -3.3564313841736855 0.6164074330699083 -0.44638002738508653
240 5.9473792639402685 2.2773124614048763 0.42455711627281184
3088 2.5672560328648824 2.006870852189655 1.2248553244561489
2802 -0.8724840314813795 1.0054962678770902 -1.1233188139528916
2799 3.000754136259348 3.9742616851048664 1.4792833366036968
3125 1.4169239837048981 -2.0350826694861053 -2.0091130522200373
3090 0.90904900222113 1.4561459818366385 0.6544511707037216
3087 2.532114930629412 -4.896652605340061 1.286027320226939
3376 -0.6533685414056767 -0.0087025324111781 -1.3684006426870858
3413 -2.253370287278358 -1.3757373612866022 -4.285308702858763
3378 1.0600020509495391 -0.7085383016244192 4.479599296077905
3375 1.6757475547897285 -2.135541983871479 1.9509802745437854
3664 4.929468443211975 4.507994719475058 -4.706986030453507
3701 -0.99124624957943 1.1456820823295546 1.2572266597113642
3952 1.4913855612846871 -3.232327327385888 -0.7929418235208054
3666 -0.2752889241112114 0.06305255196068339 2.5071137836029633
3663 -4.460204723611028 -0.30264266236505527 3.894596671303838
3989 1.4822585565262647 2.869925953008855 0.5916962816931421
168 2.0829255447906365 -0.4143194112983072 2.2946306323348757
3954 1.6015968512174659 -3.019298429476191 2.039804387454191
3951 -2.253361509167906 -1.7248481786014123 1.938702125034174
2838 0.8742042592570399 -2.01434604743715 -0.39801070523570287
3124 4.8905215533747475 0.025061528213340366 -3.132458134249663
3126 -1.968810945858885 -6.008686897410918 4.001051666196392
3412 1.0829361114335185 1.1664854113466068 2.7631472870262304
3414 -3.4818428051993693 -0.8701077058806858 -0.7436289088192477
3700 4.517994905819059 3.8630637440698434 -0.3216486275873373
3702 0.6650363519155569 -0.21581316312690915 -0.23517821870818262
3988 -4.84584797224839 -2.2127511185559503 1.434910958291796
3990 1.7859709173430582 -0.9154322818537854 -0.6573720918175229
2835 1.4735401389071958 2.6012629866025723 -2.637364875458531
3161 2.8794717903775138 -2.9002611497944653 1.3811556841994768
3123 -2.7997879546038726 1.1527392585345075 1.313830623056061
3449 5.727146948369101 0.07335623610584877 0.7298407117944911
3411 -1.651689804066536 -1.2574795224632478 -3.5471153566457443
3737 1.4352744596453135 4.685350813042415 -0.22960253459979363
3699 -3.385254071227674 0.9448470578163304 -0.6678818698908813
4025 4.519214666656147 -1.5343549908351708 0.1714951238503377
4026 3.3565288735341023 0.5292338436748683 1.0104247951543885
3987 -2.7388437602100084 -3.6985538775314146 0.5860521995019415
2909 -1.1619735886940732 -0.14826873060728443 1.4072073151641233
3160 -2.503220828613323 -0.3798259012960977 -1.9966559373359476
2874 -4.021363900531921 1.8293559895180884 -1.30600438355782
2871 2.2518527728446642 4.346730051081813 -1.5682338248508876
3162 -1.4733165958420575 2.343521003677524 -1.8721893024896064
3448 2.083486083473951 4.288272822980145 -1.6533725076539443
3197 -2.316596710008103 -1.3159376610216156 2.068439058266993
3159 -3.635172554734668 3.5944690582890217 0.013714315017327948
3447 -4.023634378060217 1.1473205002531153 0.2263129920504889
3736 -5.33753153357633 2.055572811940056 -0.21938465674619953
3450 0.7835133892390999 0.7045237790663118 -2.157861095791789
3485 -1.3640071913497183 1.121838496364985 0.8551147989013582
3773 -0.41361172374015315 0.32582627288512644 -0.3118821189938773
280 0.5227489780123646 -0.030915221695142138 -0.6355008079820929
208 -4.734381960665305 -0.09619145754598214 -3.660793632067486
172 0.497470080885767 4.206147764987427 4.869702486418489
205 -2.141506356269418 -0.3108615692393012 -2.14058049035158
2770 1.1171226787860358 -3.499211215191086 -1.3184485668394286
3056 -1.7009184248452405 3.5585090418538883 -2.292855105675743
3058 -2.1025385406883927 0.21258075374584737 -3.51741464505605
3344 -2.2635210155669756 0.2518624368023242 -3.9785833520554843
3346 4.263260301347614 2.6982606891651537 -1.5364707608612627
3632 2.589720111240294 2.6087893839466854 -0.5221539603034847
3634 3.3378888670713596 1.9674871345069522 -1.670301201735983
3920 -0.6206761167937149 -3.1793354768407096 0.1944564154911981
3922 -0.9935017188891564 1.6141301651660647 0.7020000378905883
2767 0.5156957484394561 0.044286882028311395 -0.5838178210305667
3093 -0.6537906377106895 -1.0166245321353522 4.02578182220414
3055 -4.004719407493061 -1.1036199977704522 2.919861637903308
3381 -3.3178728817225958 -5.137287898043253 0.9442662086136565
3343 1.854302324015267 0.27164379712603115 2.2129297469476867
3669 1.5860005294661195 -1.5578888860621607 -1.6903945049107265
3631 1.803792235127997 -2.3126860173097947 2.875558845025769
3957 -1.8633290320377758 4.177284498320629 -0.6476630916682296
3919 -3.5461076249461616 -0.34301186245257825 -0.9636741953892854
3092 2.790148083741655 0.004207941020163459 -2.29766725315398
2806 -3.2858176271205775 -1.3666866282676153 -0.21993277692027705
2803 0.5665303494459162 -0.890258805536049 -0.9660751128210467
3129 1.733494846834159 -3.7232961648065985 0.10989919143426734
3091 1.6595656693208642 0.6933147972133984 -3.2131806602433755
3380 3.3313830959426616 -3.049147465988355 0.9078540197010125
3094 -3.5635646226426636 0.1445161175718951 0.47249933341587924
3417 -2.8506056072247796 3.061206789340831 -2.9880224641161686
3668 -0.09752832631932884 -5.047721930460912 2.2242378550573516
3382 0.4089369255841844 3.527377056346348 -2.355204906091719
3379 -0.3442569821766354 0.966820541627306 -3.17554758211466
3705 -0.597632121251216 -2.4836104429832537 5.06085489033835
3956 -1.066246696207865 0.47803419715150314 3.870527515177897
3670 2.098947857414942 2.10658933501028 1.8181714541796452
3667 1.4377672784037105 -3.8037225114482793 1.1548625096413312
3993 3.055724115773871 -1.4081593203076368 -1.4217404551357093
3958 -2.37660548312634 0.17562074280325357 -1.120715236707636
3955 2.6141548639439343 -2.7685254929406393 -1.7027937711092982
3673 -0.609104317762388 -0.053914047231284554 0.14121205031301748
180 0.0612856193984323 2.287044176435689 0.5665080277061312
2842 2.2092518166640573 -0.9586976604162722 -0.5731555818599507
3128 3.2462947328642944 1.124198357468697 2.842208241068227
3130 -1.5508474459153478 -3.0536362245844173 3.3958763745032914
3416 6.898517247196351 -0.473613814184154 1.7349531852549682
3418 4.655243144187681 0.6131864172216507 -0.7240091046630267
3704 -0.7914614401548722 3.260259799135145 -0.16690921794219815
3706 6.780968161788926 -3.863782878582672 -2.1312966004569396
3992 2.467477155305021 1.903445991294567 -0.09540363728485142
3489 4.215035887379638 1.3140204899605434 -2.1105368810788114
3994 -1.3693486976046911 4.142143258264021 1.1614855405982663
2839 -0.7487995673832825 -2.50663703798244 4.9012169187479495
3165 -0.08113451867922253 0.6224241733561305 -3.559900214143726
3127 -3.0741167926260715 -0.9907619158905888 -2.691727968615772
3453 -0.42498397453367215 1.1841100801349385 2.4654152407007532
3415 -3.232239399701432 -3.859812981267934 0.13995164759823256
3741 0.06318226398507615 -0.23430294606951865 2.07904897817795
3703 -6.4496386779264405 -2.192954867875061 -3.6339986765633547
4029 -2.5765393690796423 1.3194295018291278 -0.2233031793604515
3991 -0.00911342001126148 2.291406156017849 -1.5857613753712327
3777 5.047066114103791 -3.490252513572018 -0.2761624914930767
3164 1.190964398395974 0.35261089776806626 -0.5654419794293293
2875 -0.5801200567046788 0.670859294041464 2.0044749842959946
2878 -0.5702869928279484 0.6878900537094161 -2.5779359690042116
2913 -1.434413624091048 -3.213250871502631 -0.6549607864210114
3163 -1.967310586269242 -1.0810515359714445 -0.8328661750235562
3452 3.037051938223126 -2.266067448402422 2.297592830231337
3166 -1.3181890990556044 6.973789341169475 -3.465903311506369
3201 5.760084088273679 3.6811511786311453 0.02424840188534582
3451 -3.3174399680992717 -0.04512989963801657 -4.279372874259028
3454 -4.916992427951204 -2.362475592772701 0.8374350309538287
3740 -1.0248474483075887 0.7176323426560174 -1.1600416011918293
3890 0.4422480605476275 -1.6773125998052685 0.5911448550127616
4028 -0.190230270380279 3.5961804559217128 2.410584241440256
3739 5.402445467713036 -0.4510885710063008 3.798186317768782
3742 2.8183640187800982 2.011444965699377 1.6610951351019705
3061 2.2871992748667336 1.347321046338108 2.174424942088241
4027 -0.4770394896249166 0.09495974395892755 -4.8930593001188365
4030 -2.1595895442550295 0.780137966584141 3.090606798535364
176 -2.0624293456057368 -1.6357002805686767 -3.060506406174643
216 -0.7787664910340075 2.140391693571814 -0.16415770521837775
3060 -4.503326272007933 -2.2234248111198225 -4.088366413874917
3348 0.5158748806205835 0.7104099010507541 -3.4192388986128557
3636 0.8641388500686004 -2.368755089487496 1.0549977459606463
253 0.662148861782048 -1.151114609663832 -1.109200654761301
3924 2.0355413757725387 -2.795745604657974 1.8216312158337744
3167 1.800613341079955 2.629035997080848 -3.557326632911396
3961 0.044597139973395 2.168777343934372 -3.4113791371026694
2771 2.330816442785077 -3.1769875539867796 -2.4817770130933927
3059 2.9666872958057087 -2.71707698758521 2.956324367899658
4032 3.5056808031668156 0.6152489919734214 2.635259222653219
3347 4.835934921590083 -4.3017311443032265 0.8162637251721335
3168 1.442337638200783 1.9187884745972839 -1.7501558468081577
3998 -0.4990750519640845 1.6382883378796256 -0.1133870839244224
3635 -1.0025165195017085 2.2418310324358686 0.2900439080947205
3923 1.2530665822628775 2.798219904596886 -0.2029905508748575
3096 1.3832472914978107 1.781241732524836 -0.17246636920847164
2807 -1.3070368925510103 0.1740860676860057 1.7780659890384929
2846 -5.00286577885228 -2.795124670290326 -0.8992589448370873
3743 -2.7657884077203536 -0.30842028504516905 3.340249491816757
3384 -0.1049649799706341 0.2485285547866242 0.5164826212607001
3095 -1.5478378298753335 -1.191183500859792 -0.6305773171450587
3383 1.6782817370231329 -0.20168772773548818 1.2364175162593518
3672 2.4869605406990725 -1.6668956802592652 0.378315573574833
3026 1.304011616556359 1.021870084140133 3.4446283869956624
3960 0.3515196753963189 1.6024032828047294 0.9486806591218953
3671 2.633413993047139 -1.024452067761671 4.05833335744768
4031 -4.7541570430968365 1.6666873261692874 -2.992078817937275
3959 0.7982595981143665 -1.0573510582502448 -0.26652313920614706
3132 -2.323860595701658 -0.39251307534368113 -0.46029374514180776
2879 2.5616152865008446 -2.876968707943351 -7.549680612436285
3744 1.8564013650589788 0.7075961839479531 1.2032694949245812
3420 1.0453552403473867 -0.34672463917079027 -0.8535119976807466
3708 3.748259189687339 0.1757316011581021 -0.5197214062196538
3996 -2.7417007195167926 1.5070268812342333 1.621912265158323
3707 1.579533185759369 5.65607233946892 -1.5226980336245932
3455 1.2159954413317673 2.1407377072288583 0.2930368887127329
2843 -1.7045510547623572 -0.11579308432848338 -3.890154382737296
3456 5.809000577039585 3.091993622030362 -2.7651690035816587
3131 -4.366789585279216 1.054876696718314 -0.28047598585406713
3995 1.194077566978928 -1.7054096408046002 -0.8149897007072823
3419 0.6970845466855401 -5.233250758128392 -1.5551638872477573
3637 -2.8672007899380887 0.20283596933978118 0.9551327707530652
252 -2.1283107127852965 -1.5773944659569288 -0.2765152094846665
3925 0.5995095694134612 -3.8214217903216148 -1.6664234882727138
248 -0.9054516734255109 -1.6794084123433717 3.275654975844475
2774 1.2548476516267477 -3.0040258286503074 -1.9290177503284642
3674 0.11245258892224984 1.1117239686788025 1.6711648186439676
3638 -0.041940655082603355 0.7938604769262189 0.5201956094213506
3314 -0.9892799240877916 2.390096623882583 -1.098524174018742
249 -0.5108001849595407 -2.9803937095101865 -2.44714638152488
3926 -2.986053030503796 -1.641319269591315 1.4225524218181282
3133 -6.598326989943252 2.4425569788439336 -1.7049983011581273
3169 2.40038652535024 -0.4659360705488198 -0.9454080569371808
217 -3.9309524267437963 0.6995148509843276 -2.652281421874933
3134 0.6866074642102499 4.448775708351573 -5.3778244615569895
3745 0.13019133197052923 3.636797557631352 -2.345139407620407
2738 3.274354701275533 3.476595376466391 -5.049827938060099
3386 2.4350808223472917 3.577016774427 1.7463057176862284
