LAMMPS data file via write_data, version 22 Jul 2025, timestep = 375000, units = metal

4032 atoms
2 atom types

-3.102186750527061 44.15018675052754 xlo xhi
2.190773182600509 38.43621081740163 ylo yhi
0.7080352779186221 41.447964722077536 zlo zhi

Masses

1 47.88
2 26.982

Atoms # atomic

1189 1 10.413964701269814 6.37564367188762 0.8611985683781184 0 0 0
1013 2 6.931374316841021 19.837903982214748 5.258229767886322 0 0 0
292 1 0.27331291003404123 4.176380768696826 3.1611342840655454 0 0 0
725 1 3.6580558417134594 19.895155271902865 5.140530622660752 0 0 0
580 2 3.788788627330422 3.9207219037008096 2.9057159424521912 0 0 0
325 1 0.24108384541803973 6.396321495268759 0.9696552357531081 0 0 0
868 1 7.001545596490541 4.077645847709451 2.9113447397740644 0 0 0
690 1 5.251334448761947 17.687108291960804 5.211079374476616 0 0 0
1156 1 10.340139416616097 4.141667095332413 3.0749664496595344 0 0 0
691 1 5.330682642160497 19.823778178816713 7.523119421167556 0 0 0
3 1 -1.4193965005593348 6.285168271634802 2.9795288906984987 0 0 0
291 1 2.155263210153547 6.234657024665519 3.090620651406662 0 0 0
404 1 0.2571356260484938 17.567264490007595 7.350751025127359 0 0 0
579 1 5.298371072156623 6.315298069645845 3.0638729448497597 0 0 0
113 1 -3.041526912122442 15.402008750579114 5.076687490007894 0 0 0
867 2 8.599707805543003 6.437067576125133 3.0096333903625507 0 0 0
692 1 3.5615738173411375 17.695226300574554 7.520476119354351 0 0 0
1155 1 12.218063029429585 6.280685212604033 3.02237458460289 0 0 0
437 1 0.29541532815182325 20.07230279897929 5.2110882097224405 0 0 0
39 1 -1.3700906675754179 10.600079699697822 3.028227608004475 0 0 0
979 1 8.662763608901653 19.954756870059466 7.479187553873694 0 0 0
328 1 0.38056170430793035 8.564448784004128 3.0178498186137688 0 0 0
327 1 2.082305978430202 10.908987052176034 2.976029450293305 0 0 0
4 1 -3.002790504727819 3.97688516945082 3.0314977035302357 0 0 0
616 2 3.7165497552776032 8.576303405782738 2.949148876707111 0 0 0
615 1 5.385932788226862 10.951097996405956 3.049082024944931 0 0 0
1190 1 12.196958621507095 8.659991165318663 0.7642691514535201 0 0 0
76 1 -2.791756204983842 13.13033761833385 3.066780023321337 0 0 0
904 1 6.9624816050236475 8.624407577843044 2.9959081623755064 0 0 0
903 1 8.710582807299394 10.916183481001985 3.155869979711857 0 0 0
2 1 -1.317788809996214 4.071064820228918 0.7148545839878834 0 0 0
1192 1 10.460242547654826 8.680661458294537 3.117899110726035 0 0 0
1191 1 11.981618096711827 11.039060082010703 3.128302128574806 0 0 0
902 1 8.721638349008893 8.589031479162156 0.9228126599421321 0 0 0
1266 1 12.00292723321278 17.585227129998053 5.001355177746933 0 0 0
402 1 1.8816705480021452 17.664455725154358 5.319938273770807 0 0 0
364 2 0.20425820673838313 12.96512495074654 2.808391551681551 0 0 0
978 1 8.797327631627683 17.679040201790322 5.227581617641052 0 0 0
652 1 3.764509934348284 13.063339463848719 2.9164680919716957 0 0 0
940 1 7.012721068949636 13.254049933258178 2.8752836194031555 0 0 0
1301 1 10.421398672394757 19.958167622464057 5.2047607217594045 0 0 0
1228 2 10.279447692985839 13.182033409319938 3.074368918575099 0 0 0
75 1 -1.3920420386751176 15.413129583310347 2.9043530553690453 0 0 0
363 1 1.95063284519926 15.409450028613564 2.9023465740450947 0 0 0
651 1 5.391339521646962 15.385286451146941 2.9266512522272796 0 0 0
980 1 7.040760499025076 17.70530017110311 7.412807436953739 0 0 0
939 1 8.692668429499923 15.567587030682004 3.0255492103256096 0 0 0
1227 1 11.852916324308488 15.57476144305396 3.0027973348796224 0 0 0
111 1 -1.3993765295706744 19.990997186536692 3.0148305031867104 0 0 0
400 1 0.2813775788165249 17.651782432805515 2.895307330921701 0 0 0
399 1 1.839191576312181 20.01585602926525 3.1337444300255237 0 0 0
403 2 1.811104394321315 19.85646477712559 7.536255733057712 0 0 0
688 2 3.5998488715803023 17.64846163353601 2.9624293769127084 0 0 0
687 1 5.340148678622018 19.74654016158892 2.860298709069598 0 0 0
976 1 6.924814824129717 17.725432935574098 3.0670226521832538 0 0 0
975 1 8.646062363688705 19.99303264843011 3.0622001702750112 0 0 0
1264 1 10.296079537240022 17.828702197277835 2.7762180922465065 0 0 0
1263 1 12.344479756462256 19.889304960856272 2.9614198699122904 0 0 0
6 1 -1.4404573683097999 4.209579873359635 5.273471485459164 0 0 0
296 1 0.22601345862122457 4.0052544795629785 7.626176068719256 0 0 0
294 1 2.001947278011295 3.9860842943765094 5.309589270853397 0 0 0
584 1 3.6571100065909063 4.131643322371002 7.631425181401989 0 0 0
582 1 5.354641043903301 4.104692395506968 5.142987355504886 0 0 0
872 1 6.898454942729414 4.133587261975832 7.518343703513717 0 0 0
870 1 8.668734686332188 4.071696299196665 5.222584190850441 0 0 0
1158 1 12.105412069842439 4.222419170417743 5.219108274354322 0 0 0
1160 1 10.337183448132622 3.9576207117962587 7.603421717254626 0 0 0
7 1 -1.5165443724731043 6.337465712685352 7.381028893638508 0 0 0
329 1 0.3911563085051122 6.39388803796707 5.302562039143007 0 0 0
295 2 1.705012522589389 6.318519827338535 7.602496061146526 0 0 0
617 1 3.500625681002106 6.2887209809380185 5.469490049344962 0 0 0
583 1 5.4093969674230316 6.3699129658116895 7.516459870145643 0 0 0
905 1 7.0618806874543285 6.415876059089437 5.227154711318555 0 0 0
871 1 8.635675455342135 6.29579459589807 7.5939137508291195 0 0 0
1159 1 12.031969095192133 6.344991625949794 7.399914099332392 0 0 0
1193 1 10.329055475216867 6.414235418298297 5.268059678580198 0 0 0
42 1 -1.3706455987238657 8.682485576274633 5.205982268579427 0 0 0
43 1 -1.309797540929867 10.97520004150359 7.581542609727885 0 0 0
332 1 0.3584620056143297 8.79990749602191 7.418023377625808 0 0 0
365 1 0.37701228575291923 11.037747821794325 5.273579813235783 0 0 0
330 1 2.147801243334315 8.746349967850197 5.256515535432083 0 0 0
331 1 2.0339735446417317 10.927266831442363 7.580225419705043 0 0 0
620 2 3.460003116760244 8.301140438460468 7.648333311392208 0 0 0
653 2 3.7690845004595794 11.087842884191781 5.311555002281297 0 0 0
618 1 5.123585877782457 8.60378018251435 5.3309360946737305 0 0 0
619 1 5.053272390464022 10.700298188296662 7.651856162021276 0 0 0
908 1 7.011134512797629 8.550264355929242 7.5239623285494766 0 0 0
941 1 6.818221401086209 10.916860681385185 5.37867831831535 0 0 0
906 1 8.578114119871211 8.683924556997964 5.211328902652519 0 0 0
907 1 8.654632958505394 10.817447006068951 7.556381674063184 0 0 0
1196 1 10.337654696758928 8.467835651105258 7.560003383988664 0 0 0
1194 1 12.092150240847781 8.723221420794381 5.225465148622887 0 0 0
1195 1 11.938720298764219 10.742491909242094 7.515390461635276 0 0 0
1229 1 10.211787683617764 10.92713561978411 5.264127865081741 0 0 0
78 1 -1.4583959134656115 13.267341765574379 5.435978447767084 0 0 0
368 1 0.3579440958594331 13.153695402700345 7.534404640621296 0 0 0
366 1 1.9082555373949375 13.207990260818258 5.065601101097977 0 0 0
656 1 3.651220610634263 13.190221728891023 7.347122610375124 0 0 0
654 1 5.456053563129398 13.178008198454789 5.221315638708275 0 0 0
944 1 7.031437984346288 13.081831890552325 7.610790357354612 0 0 0
942 1 8.574869799329766 13.158830622822425 5.338530257305336 0 0 0
1232 1 10.346612748706267 13.16790332899358 7.533995870262839 0 0 0
1230 1 12.189541799365568 13.022886377950334 5.2857864802544805 0 0 0
1268 1 10.351845721428376 17.6348430632559 7.431243719253189 0 0 0
79 1 -1.3025167386486278 15.364613925760912 7.719485708150098 0 0 0
401 1 0.15154869551111183 15.488574011203479 5.142577764758106 0 0 0
367 1 1.9790006228872241 15.322514405140478 7.493930689914212 0 0 0
655 1 5.3996095364627585 15.355032121718752 7.599055781046901 0 0 0
689 1 3.72971824395442 15.428282551870758 5.211860537474259 0 0 0
977 2 6.93809755898261 15.584309259191441 5.181183875537843 0 0 0
943 1 8.698195247824428 15.489744596811008 7.452579782554295 0 0 0
1265 1 10.28333443670798 15.270430857238628 5.209754212612305 0 0 0
1231 1 11.998344046221105 15.355132524881858 7.456624755733292 0 0 0
8 1 -3.0648807340781836 4.089794088605551 7.534316993882341 0 0 0
1267 1 12.007477461082665 19.84214997969835 7.765154378840259 0 0 0
115 1 -1.3082341270779028 19.912992721515426 7.5397218803438255 0 0 0
114 1 -1.4579448412061111 17.793213389711596 5.175445667731334 0 0 0
613 1 3.7588227295825027 6.248607042170356 0.7097436932639342 0 0 0
77 1 -2.948370840645204 10.997181614941058 5.275251160239788 0 0 0
116 1 -3.04534798556721 17.544062213403016 7.4882684518694305 0 0 0
361 1 0.42225215125192106 10.812075203703424 0.8056286522193032 0 0 0
1226 1 11.905553626783373 13.246023915018489 0.8475453850286151 0 0 0
1225 1 10.525623462478592 10.834959717114971 0.8871089108447339 0 0 0
938 1 8.805189922184196 13.18365425712076 0.7127935625036492 0 0 0
1154 1 11.971063802210834 4.1594511701106995 0.774045760279816 0 0 0
901 1 7.1119208694208105 6.418924233276403 0.7430507796692296 0 0 0
38 2 -1.2979727457925134 8.575921111453791 0.8354615128594292 0 0 0
433 1 0.20546500710638238 19.85834524833959 0.7584399662578897 0 0 0
686 1 5.305954524960612 17.670638072602586 0.7671548932700539 0 0 0
937 1 7.059178216022135 10.977809212571097 0.8333090148949632 0 0 0
1009 2 6.93746944349691 20.032591734113982 0.7495151379265678 0 0 0
290 1 1.8437169665409034 4.092311498255034 0.8059729620799126 0 0 0
866 1 8.751614178835855 4.009747250051314 0.7624793877063318 0 0 0
578 1 5.519418044559071 4.041614475732189 0.726867314442853 0 0 0
37 1 -3.0529725139815125 6.252797337990482 0.8157892107455283 0 0 0
685 1 3.586554998805919 15.398159450538339 0.7108328570188149 0 0 0
10 1 -1.512943175255151 3.946645118757842 9.895453052495387 0 0 0
300 1 0.30383128649542 4.048536643219807 11.941148450294879 0 0 0
298 1 1.899525319864289 4.05765324587249 9.78775084765529 0 0 0
588 1 3.4353825530966486 4.179520021389721 12.087284887967957 0 0 0
586 2 5.418490882046907 4.085714827415532 9.969172216285488 0 0 0
876 1 7.205993140507893 4.051042680078184 12.202282276997252 0 0 0
874 1 8.81866077465671 3.9241537171277363 9.844466915369118 0 0 0
1162 1 12.138564962454867 3.9922597808421805 9.850890605139382 0 0 0
1164 1 10.338287656089813 3.9704252559062887 12.191183557119256 0 0 0
11 2 -1.5203033856181456 6.187432491580944 12.067964822033392 0 0 0
333 1 0.07126316995839233 6.230098694375266 9.772466021260914 0 0 0
299 1 1.962219383762688 6.463708976562889 11.90459308997319 0 0 0
621 1 3.817880866120101 6.415793265031741 9.743102804271071 0 0 0
587 1 5.260203274739643 6.276994286069887 12.135445293534282 0 0 0
909 1 7.029720177554651 6.221419484992958 9.878100035324715 0 0 0
875 1 8.892414124017003 6.3056134079925625 12.13415097664887 0 0 0
1163 1 12.033646234577358 6.041004594662251 12.054284556916867 0 0 0
1197 1 10.472598547426246 6.301756653866126 9.854048532173909 0 0 0
46 1 -1.40663154459146 8.647612175848234 9.66518434632189 0 0 0
47 1 -1.4630506505204526 10.958928754352707 12.031301192679878 0 0 0
85 1 -2.951424556040215 10.94415756060259 14.373452229110868 0 0 0
369 2 0.32252148346174936 10.922495325470475 9.929464404590693 0 0 0
336 1 0.003214044295938301 8.47258468933439 11.961676455301822 0 0 0
334 1 1.8239878709142405 8.61879377052964 9.867800518587716 0 0 0
335 1 1.7902248505213882 10.856154503126804 12.244802903939293 0 0 0
624 2 3.5442840984020605 8.679348307511564 11.968600496147278 0 0 0
657 1 3.58548730190793 10.800195436624525 10.003962994865605 0 0 0
622 1 5.4868150665014 8.613092251484947 9.819974168161712 0 0 0
623 1 5.535932818283211 10.730146864814406 12.088445784198433 0 0 0
912 2 7.0420267060937345 8.462069398240324 12.214460796236056 0 0 0
945 1 7.026388390242598 10.985068965053784 9.751779829174778 0 0 0
911 1 8.629415781918912 10.721495346366487 12.101881613674152 0 0 0
910 1 8.673266753536552 8.49787144129439 9.90944868885417 0 0 0
1200 1 10.378369903285636 8.584584461915707 11.886126565385052 0 0 0
1198 2 12.179872097732542 8.509341079389552 9.700273475914253 0 0 0
1199 1 12.10632439222679 10.795147775983747 11.722743178129198 0 0 0
1233 1 10.176966470727745 10.633689540671554 9.776362531770804 0 0 0
82 1 -1.457089387063451 13.002958331193424 9.827575412443622 0 0 0
372 1 0.2615507228605294 13.256806808408252 12.042278813312155 0 0 0
370 1 2.0713975736941 13.064167504562134 9.727668198603686 0 0 0
660 2 3.695848737824464 12.934407902085422 11.954836144258959 0 0 0
658 1 5.251046419050343 13.128402175826622 9.707869262987325 0 0 0
948 1 7.046536751144801 13.15050081634424 11.970322843420623 0 0 0
946 1 8.800309943908767 13.176069450869043 9.873592825014775 0 0 0
1234 2 11.94815383365568 12.985789522597184 9.791744594248724 0 0 0
1236 1 10.46937871450435 13.04862490619537 12.231460059739861 0 0 0
83 1 -1.4163325563382023 15.341248498976542 12.174042510022522 0 0 0
1275 1 12.09886366965231 19.83718483755518 16.622806345958544 0 0 0
405 1 0.26294689745144195 15.312694691194963 9.883075321446203 0 0 0
371 1 2.033072425655044 15.321602674463366 12.190925539525054 0 0 0
693 1 3.57359719974627 15.364257594439575 9.731629591811387 0 0 0
659 1 5.1511978626350725 15.289650283931707 12.012453162764169 0 0 0
981 1 7.042321325505565 15.33136524683927 9.772109946476332 0 0 0
947 2 8.758945678803466 15.383947145111046 11.939858411368819 0 0 0
1235 1 12.005501554805416 15.39710810658104 12.098768777511086 0 0 0
1269 1 10.361685458694486 15.347634217373473 9.680601160807091 0 0 0
117 1 -2.8575034835670596 15.541021303828206 9.849066733694876 0 0 0
119 1 -1.5129926794560162 19.863878946793005 11.869267515513513 0 0 0
118 2 -1.1712074575043059 17.70569782944034 9.763038765201525 0 0 0
408 1 0.3704151946482037 17.759109870647116 12.06603804572076 0 0 0
441 1 0.3981436553656166 20.05341405084485 9.922974784748039 0 0 0
406 1 1.7483353198593208 17.673421807629747 9.760887874570477 0 0 0
407 2 2.1211332563267393 20.034452743737297 12.08967905290552 0 0 0
696 1 3.774810245773961 17.742534868105743 11.970750237117615 0 0 0
694 1 5.362715570257377 17.671393723490205 9.772956098614204 0 0 0
695 1 5.580447180528543 19.972399807800397 11.926360815670865 0 0 0
729 1 3.6261624912113803 19.940719360765417 9.74790738821094 0 0 0
984 1 7.032213076605139 17.529320587572656 11.950556385711996 0 0 0
983 1 8.639631303695237 19.984947415871765 11.892234643519965 0 0 0
982 1 8.634675707393722 17.668512838186423 9.778958644995397 0 0 0
1017 1 7.134927725647186 20.139993035926636 9.685021771091389 0 0 0
1272 1 10.298636846573702 17.604013500182596 12.099058142747422 0 0 0
1305 1 10.331360528527657 19.84298531948038 9.876390163560636 0 0 0
1270 2 11.988513111327833 17.683714791997602 9.79077079227649 0 0 0
1271 1 12.10273877877291 19.90178761011797 11.981188071106555 0 0 0
14 1 -1.452407166768214 4.002045078441291 14.271104457300781 0 0 0
1276 1 10.393572121612042 17.700770748933152 16.609054930598717 0 0 0
304 1 0.32699191975984254 4.084906866674479 16.521999729380155 0 0 0
302 1 1.8316851949251869 4.016459956165931 14.247620087138547 0 0 0
592 2 3.4756346440531494 3.9279948865080954 16.53002126889718 0 0 0
590 1 5.213399296387813 3.961443246707452 14.264680894755305 0 0 0
880 1 6.817841054439061 4.1163588334456245 16.530147230477603 0 0 0
878 2 8.762944270153245 4.048675217582072 14.398552674932121 0 0 0
1166 1 12.182699427408032 3.9203138037955623 14.383664832211462 0 0 0
1168 1 10.61213556432094 4.020184128167378 16.61561544492907 0 0 0
15 1 -1.5622369050346239 6.311502842583058 16.424145098937558 0 0 0
337 1 0.25970701274102614 6.290171521051719 14.178545430778254 0 0 0
303 1 1.9250143446415966 6.390706397635124 16.462697686770348 0 0 0
625 1 3.5899119136088395 6.267216142544796 14.196515492650171 0 0 0
591 1 5.110037836325738 6.331281294564686 16.538410086415233 0 0 0
913 1 7.063939538693154 6.359854738840473 14.324361152249631 0 0 0
879 1 8.753554965692969 6.190000524490488 16.556022054333596 0 0 0
1167 1 12.243788285107959 6.283298272887385 16.619813655173633 0 0 0
1201 1 10.43677301571244 6.3080491280854485 14.433238832209016 0 0 0
50 1 -1.3599216018572005 8.488074204628234 14.159973026183216 0 0 0
51 1 -1.4764349149186569 11.091885951862249 16.663887031431084 0 0 0
1309 1 10.431450298492654 19.933203872340627 14.249973316558929 0 0 0
340 2 0.2295244077669496 8.6785908306146 16.42537429208015 0 0 0
373 1 0.19369518166018418 10.756847713179798 14.503616051573658 0 0 0
338 1 1.891777834259861 8.445675190054764 14.144733756563584 0 0 0
339 1 1.8520330260312563 10.976790088315582 16.730088378276253 0 0 0
628 1 3.4813473298093185 8.549629565956574 16.48114441066098 0 0 0
661 1 3.527219689980224 10.662853699016352 14.260695348289582 0 0 0
626 1 5.273586364855015 8.586953227554321 14.293930286501062 0 0 0
627 1 5.2124604349146395 10.80813570219252 16.494713581779337 0 0 0
916 1 7.011432788717414 8.58872344589304 16.580438098087185 0 0 0
914 1 8.943282518061324 8.576941999104296 14.305376598704978 0 0 0
915 1 8.890952875414122 10.93348532274085 16.48774564850413 0 0 0
949 1 7.198399707225448 10.748873093991595 14.31109460463259 0 0 0
1204 2 10.475000448568274 8.572087535525103 16.70461170581651 0 0 0
1202 1 12.087921462502818 8.67385471378142 14.284354127696318 0 0 0
1203 1 11.978834713389665 11.046828212359378 16.68307917603148 0 0 0
1237 1 10.672402907716002 10.976763981665144 14.24347433316355 0 0 0
86 1 -1.3423819991472268 13.085724399931575 14.40151008761656 0 0 0
376 1 0.36262088199655906 13.267856081558588 16.788930845859493 0 0 0
374 1 2.0172151555449482 12.971647647133073 14.291118889063599 0 0 0
664 1 3.549125753955279 13.122179543044846 16.443058884675857 0 0 0
662 1 5.434407982101723 13.085733023977815 14.254102785304498 0 0 0
952 1 7.116452599858066 12.930419391819838 16.546775257111264 0 0 0
950 1 8.611756622386661 13.097990160481174 14.343779903269692 0 0 0
1238 2 12.198732683394532 13.284774644088401 14.46948655519621 0 0 0
1240 1 10.293694457454217 13.343626962282254 16.516445292725187 0 0 0
87 1 -1.353220453754694 15.379214664380351 16.44486044771196 0 0 0
409 1 0.43878905915969835 15.288034103072984 14.388399761842988 0 0 0
375 1 2.093069888499046 15.473091870127833 16.71297147630925 0 0 0
697 1 3.671034867330413 15.377723180816009 14.334501315031359 0 0 0
663 1 5.362904217668687 15.38210169000139 16.503806813302823 0 0 0
985 1 7.143754877577361 15.315330029419183 13.99465072801313 0 0 0
951 1 8.557225225601812 15.535251552343512 16.570012064479442 0 0 0
1239 1 12.131621890644322 15.436824577963332 16.582095757014166 0 0 0
1273 1 10.294066568190283 15.439893444160802 14.359302217712036 0 0 0
123 1 -1.3537672643778387 19.881649336126003 16.487367401736744 0 0 0
122 1 -1.3483967635917387 17.62498247600519 14.346803583629256 0 0 0
445 1 0.2287695581662943 20.00340750009311 14.16375429277862 0 0 0
157 1 -2.9488312870577427 19.836926790507484 14.319508026897283 0 0 0
411 1 2.0585689903009574 19.928557169436314 16.330096111945082 0 0 0
412 1 0.42324521763000744 17.66626465836577 16.532504154508146 0 0 0
410 1 1.9962124725811576 17.68066764836105 14.26799756890556 0 0 0
733 1 3.9135769497524584 19.820919941258154 14.228332848840079 0 0 0
699 1 5.314556745192421 20.062464644846436 16.578688659362495 0 0 0
698 1 5.572491986425774 17.55891253309649 14.34406635254159 0 0 0
700 1 3.618709334515293 17.799573638388807 16.49639636871752 0 0 0
987 1 8.863549820907807 20.173011771834986 16.57747643535719 0 0 0
986 1 8.725013013553184 17.6359189502151 14.307337537615052 0 0 0
1021 1 7.125769693252845 19.969207692177683 14.457383331709607 0 0 0
988 2 6.988013138386064 17.929520097970943 16.674705447302728 0 0 0
1274 1 12.097820698378477 17.630679531090337 14.23731623770817 0 0 0
45 1 -3.0928612607154053 6.355826546990455 9.734374749393526 0 0 0
124 1 -3.053426749665502 17.709292751408366 16.53947697182646 0 0 0
18 2 -1.5143936641704927 4.000619150806396 18.688491537145477 0 0 0
306 1 2.059176675722876 4.093555846922839 18.807254885095524 0 0 0
594 1 5.12845205796933 4.181070316722439 18.89823123033304 0 0 0
596 1 3.6313911409302766 3.9839279913934043 21.135247105062046 0 0 0
882 2 8.680220755525795 3.9425429896670128 18.725243625512988 0 0 0
1170 1 12.264820653898726 4.001958700598732 18.912121944031203 0 0 0
341 1 0.042717748697097324 6.240579182279923 18.80067061808328 0 0 0
629 2 3.5779022952017043 6.526549109373589 18.799302810218553 0 0 0
595 1 5.460252859208719 6.226909241751325 21.075350832254486 0 0 0
917 1 6.966817992583298 6.277590257333383 18.869878636201484 0 0 0
883 1 8.69353529700074 6.334007308901913 21.040953397752787 0 0 0
1205 1 10.425273492462145 6.225867591703969 18.769815343937147 0 0 0
54 1 -1.3042050942906542 8.650074952679935 18.77432588768476 0 0 0
55 1 -1.4527524101793219 11.001838274783514 21.07328443759602 0 0 0
377 1 0.2176455182794057 11.126453117859937 18.88641250626886 0 0 0
342 1 1.7240244020496935 8.587089796381896 18.734112504292543 0 0 0
344 1 0.005244969461005944 8.689477755445562 21.111742185529014 0 0 0
343 1 1.7363561602155904 10.899625795586312 21.117243397048984 0 0 0
665 1 3.5108445928292356 10.75182887069498 18.95543997694084 0 0 0
630 1 5.5101565884087975 8.654433241108585 18.745799697950414 0 0 0
631 1 5.45342454608083 10.882519823413025 20.96526414154865 0 0 0
632 1 3.462115119956484 8.51971797028538 21.035342196262665 0 0 0
918 1 8.700126993746359 8.560134596398802 18.88392496740305 0 0 0
953 2 7.19377514514307 11.010752115357969 18.667785761372855 0 0 0
1206 1 12.289188142206289 8.61556351090869 18.814030724596453 0 0 0
1241 1 10.380665107004969 10.931862703303008 18.870898951110565 0 0 0
1207 1 12.006852149735476 10.896724355650504 21.056432317062463 0 0 0
90 1 -1.6292208180437002 13.256602717923332 18.901973647326987 0 0 0
378 1 1.9934763087445435 13.32953418322995 18.90100710917684 0 0 0
666 1 5.2413342669809335 12.923141003730942 18.680259511804422 0 0 0
668 1 3.6478787752286768 13.103995195642748 20.992830595249 0 0 0
954 1 8.831099031188597 13.136724507905065 18.749581459032928 0 0 0
956 1 7.0319647650686115 13.106788424943723 20.97863851571619 0 0 0
1242 2 11.969597356288567 13.184989135054755 18.659177736196234 0 0 0
1244 1 10.267394954701253 13.158538052099814 21.164103826858778 0 0 0
1317 1 10.414724934365337 19.830383589359037 23.353206433777586 0 0 0
413 1 0.09937821064299746 15.385991691965655 18.860557195039227 0 0 0
379 1 2.0960604476824227 15.411041029656362 21.08542364684869 0 0 0
701 1 3.8010034386035776 15.402720210737785 18.778156699091255 0 0 0
667 2 5.412760131124099 15.355209518983953 21.09388820355611 0 0 0
989 1 6.9990187514031525 15.397546712548976 18.79057818088919 0 0 0
955 1 8.577850869442292 15.54200987488108 21.048584650506207 0 0 0
1277 1 10.385711626755603 15.453285002066607 18.939213748375845 0 0 0
126 1 -1.217910383042492 17.740989720021147 18.821612342558023 0 0 0
127 1 -1.2774773734827167 19.850750900601465 20.95265788307507 0 0 0
449 1 0.380195325029018 20.129429322066063 18.51860186221159 0 0 0
414 2 1.897713576453945 17.80363218535455 18.839318634153443 0 0 0
416 1 0.35650797626835695 17.579815580799725 21.145603464591083 0 0 0
702 1 5.312292191958813 17.74932764164093 18.77607237742243 0 0 0
737 1 3.5409864920914162 20.026517037002275 18.70403850235503 0 0 0
990 1 8.667985001308262 17.721710675808843 18.833093062155765 0 0 0
1025 1 7.0185960087522705 19.894742504028756 18.758087016440758 0 0 0
991 1 8.777773199597483 19.96356657739018 21.0277515688022 0 0 0
992 1 7.0483156938206015 17.71795017375414 21.10725563718231 0 0 0
1313 1 10.259369299768709 19.88341892638614 18.798019272690272 0 0 0
1278 2 12.054871881650467 17.785183289257155 18.883183251329086 0 0 0
1280 1 10.371307285410952 17.719319343373137 21.133517912342253 0 0 0
1279 1 12.068516897348376 19.92312706797742 21.01934296127507 0 0 0
22 1 -1.4209243609934081 4.059972676179675 23.106984234343578 0 0 0
308 1 0.24219185933668896 4.0051436641967895 20.96712824824199 0 0 0
310 1 1.9839484936601681 3.9625411726788204 23.229781530435478 0 0 0
598 1 5.346461985236141 3.9772724420748578 23.277349120443983 0 0 0
884 1 7.003621617399126 4.007281186471701 21.07355881048372 0 0 0
886 1 8.751371074346439 4.1745157018531485 23.27008634781839 0 0 0
1172 1 10.439296312410319 4.171536499440984 20.90268021654844 0 0 0
1174 1 11.993295063879643 4.028622279583004 23.44008255881133 0 0 0
19 1 -1.465059267391141 6.365501715660108 21.15361347699851 0 0 0
307 1 1.9158777817313895 6.238696398408313 21.03012804267337 0 0 0
345 1 0.1936404480701901 6.269623867473734 23.256364701173258 0 0 0
633 1 3.5625674948072814 6.295215301779618 23.451175801848603 0 0 0
921 1 7.109767844288616 6.414773372072939 23.392670063692332 0 0 0
1171 1 12.072468998799472 6.272254557405431 21.025326586280322 0 0 0
1209 1 10.283035140488721 6.333143168904226 23.257934609468474 0 0 0
58 1 -1.660845131764278 8.626697790328471 23.281542254512612 0 0 0
1282 1 12.211147681808708 17.639496268087974 23.307395618248805 0 0 0
381 1 0.17022281287106855 10.705629766003842 23.346524767980263 0 0 0
346 1 1.9868380609257748 8.560015295616694 23.55159045118582 0 0 0
669 1 3.6084688049538314 10.881954320437824 23.323417029862448 0 0 0
634 1 5.249089441321965 8.389047982626336 23.34564241064218 0 0 0
919 1 8.672772357930484 10.88937747065759 21.082681979265992 0 0 0
920 2 7.015170529679221 8.584283259617177 21.12683520216904 0 0 0
922 1 8.721217104572691 8.634148271229545 23.373227489112764 0 0 0
957 1 6.8942230674235 10.743170806269795 23.295751771822147 0 0 0
1208 1 10.499133128411207 8.507201285466783 21.185566035252506 0 0 0
1210 1 12.09570695105922 8.421076990897637 23.510990275699903 0 0 0
1245 1 10.33789796701733 10.857473631933315 23.331641462995524 0 0 0
94 1 -1.3395284224803825 13.186177914312086 23.265910201277798 0 0 0
380 2 0.16716092190974985 13.394674715984666 21.079252848143888 0 0 0
382 1 1.8436498883818815 13.14768603316466 23.246138527744137 0 0 0
670 1 5.413272742648672 13.024550850361935 23.346930792853627 0 0 0
958 1 8.572581473634079 13.190832985131756 23.30443314060174 0 0 0
1246 1 12.165201714983985 13.327703177803643 23.367859080870304 0 0 0
91 1 -1.6277412677406686 15.34630194576434 21.112739606468946 0 0 0
417 2 0.34516780707660555 15.525715344449534 23.155753193770156 0 0 0
705 1 3.6851548912120538 15.148042200288755 23.282922426329716 0 0 0
993 1 6.859359579529102 15.32798860604231 23.337471174755095 0 0 0
1243 1 12.011909730835756 15.575723267888781 21.10239505030692 0 0 0
1281 1 10.306944139049001 15.55629411616313 23.30122552827501 0 0 0
130 1 -1.670288583664483 17.44141788943554 23.250396858629163 0 0 0
418 1 2.137091327774274 17.577715742788065 23.33366382250097 0 0 0
415 1 1.7928375823762601 19.9316076207466 21.058148117528784 0 0 0
453 1 0.2583482970881157 19.781355791836216 23.30934044432425 0 0 0
703 1 5.382134703014115 19.854867566916205 21.139536817100918 0 0 0
704 1 3.6123731254622897 17.757413425100488 20.974879127218358 0 0 0
741 1 3.633930745889191 19.93058488847694 23.228315004348516 0 0 0
706 1 5.23242275479654 17.577007326415973 23.381548783259685 0 0 0
1029 2 7.02582039379222 20.0736365939287 23.3423624265809 0 0 0
994 1 8.48494804580349 17.751253978436864 23.333873621437505 0 0 0
20 1 -3.0911218912143474 4.082321854781724 21.00232411658227 0 0 0
26 2 -1.4836011550707833 4.046247781688696 27.76907887015924 0 0 0
312 1 0.2512024366255434 4.099724898156833 25.491581568439237 0 0 0
314 1 1.9695127881813819 4.082214541456053 27.871060608800676 0 0 0
600 1 3.760270045825456 4.054804429748007 25.583605951662186 0 0 0
602 1 5.29119475107937 4.1112549062915305 27.735871360669915 0 0 0
888 2 7.176261959789716 4.011179907568684 25.60337078840816 0 0 0
890 1 8.757494732040149 4.051329397052066 27.897856593890236 0 0 0
1176 1 10.183364606958747 4.005572873980252 25.53318306199649 0 0 0
1178 1 11.812924468267548 4.182715357369677 27.856147986137454 0 0 0
23 1 -1.5022193231980097 6.463199560923609 25.647997198542626 0 0 0
28 1 -3.072159927190812 4.105759867212395 30.101459731530554 0 0 0
349 1 0.21724291044243005 6.2386409003003 27.900750364821338 0 0 0
311 1 1.9096440765186364 6.39020821850146 25.72450991593194 0 0 0
637 2 3.6963185607031455 6.390152389515819 27.819899985316724 0 0 0
599 1 5.558277208645574 6.224196365287646 25.530456075578996 0 0 0
925 1 7.094152056634913 6.385996621925242 27.931454464812145 0 0 0
887 1 8.807483315562763 6.349206947490483 25.687016261632717 0 0 0
1175 2 11.966840348342641 6.307379500496392 25.521501268482776 0 0 0
1213 1 10.53067789585591 6.474559057915197 27.927213036607878 0 0 0
62 2 -1.454561847710952 8.561419303475128 27.905329270908197 0 0 0
59 1 -1.5451052857611571 10.877659573648438 25.48309413701091 0 0 0
169 1 -3.052866485840276 19.980350892082466 27.814885082165627 0 0 0
1037 1 6.776180640445659 19.905976069262124 32.33929607620041 0 0 0
348 1 0.0952721855206442 8.639796972874471 25.568706646209247 0 0 0
385 1 0.22148858201648558 10.834991291291164 27.814347435998073 0 0 0
350 1 1.9680323413407215 8.554361905065557 27.979355896485593 0 0 0
347 1 1.891009602951018 10.697112730447532 25.69645427591981 0 0 0
636 1 3.7518188389904537 8.501384964603275 25.714518675386678 0 0 0
673 2 3.804728782448923 10.742913492892418 27.96523084071868 0 0 0
638 1 5.459056520268096 8.581939971598914 27.82303810475404 0 0 0
635 1 5.348534834015904 10.825896225417662 25.602222554716228 0 0 0
924 1 6.985584737523219 8.514818982310327 25.532927596094215 0 0 0
923 1 8.687563590466704 10.81656860148202 25.640643704419094 0 0 0
926 1 8.86205520008454 8.726275303295425 27.9567022984341 0 0 0
961 1 7.07924017399081 10.904615877237546 27.917388035704903 0 0 0
1212 1 10.45074597427069 8.549616978201279 25.667788592709435 0 0 0
1214 1 11.998922583993487 8.706441921230484 28.033980747011398 0 0 0
1211 1 12.144175663691154 10.786954177741244 25.59622194222714 0 0 0
1249 1 10.413279592344848 11.005050762274196 27.915399872767065 0 0 0
98 1 -1.6098395929127667 13.059537339649491 27.810633748054094 0 0 0
384 1 0.3938431589146454 13.151557070996432 25.740060557763215 0 0 0
386 1 2.050433339138906 13.007102376638825 27.958496040344173 0 0 0
672 1 3.640242155745733 12.881302170354866 25.62044315116845 0 0 0
674 1 5.3431419995076315 13.256974779519984 27.88880108973136 0 0 0
960 1 6.931127851837555 13.103224431360303 25.604842337150316 0 0 0
962 1 8.753591794185843 13.187906897654553 27.87771725693587 0 0 0
1248 1 10.40380298572053 13.152827043385404 25.403722265912695 0 0 0
1250 1 12.084616083071994 13.306008405803796 27.83341648003349 0 0 0
95 1 -1.4651020172288058 15.355202382039863 25.444443444963767 0 0 0
421 1 0.06762504631907618 15.38017943139188 27.831544420524793 0 0 0
383 1 2.0808058529086693 15.467602264218876 25.57211193447447 0 0 0
709 1 3.563295762035556 15.34035426239972 28.01816435121727 0 0 0
671 1 5.196390850721848 15.41489050590989 25.644458251244654 0 0 0
997 1 6.997933078942582 15.506454111378424 27.881847318600677 0 0 0
959 1 8.669919296617895 15.367790995512271 25.523118952975107 0 0 0
1247 1 12.14163496097542 15.591749485599857 25.47891307108469 0 0 0
1285 1 10.505450405988228 15.637529224240408 27.728404124893494 0 0 0
131 1 -1.3241689397351204 19.9415844977591 25.634337917196316 0 0 0
134 1 -1.4265034716747633 17.706788247096895 27.76509976914675 0 0 0
1290 1 12.344318193335225 17.75482809830678 32.32603545689179 0 0 0
420 1 0.29112967661548916 17.569422813243442 25.563884579419796 0 0 0
419 1 1.8409987871009457 20.000016254822967 25.588979171376042 0 0 0
422 1 1.9229510927358553 17.526425556822122 27.88190921861037 0 0 0
457 1 0.2359215961041099 19.990418325347118 27.93113749360545 0 0 0
745 1 3.6596529464197496 19.94788395811464 27.877284599538854 0 0 0
708 1 3.5864263443960387 17.82403864260163 25.683578988523294 0 0 0
707 1 5.3677841261224515 19.824443698578257 25.6789275705839 0 0 0
710 1 5.300721108681621 17.721200873894883 27.866571122958707 0 0 0
996 1 7.050687850133734 17.68645329157539 25.530333722130138 0 0 0
1033 1 7.060403386361386 20.083514074723 28.004697164447894 0 0 0
998 1 8.857204408056333 17.845849753948336 27.702298544979815 0 0 0
995 1 8.730779276441314 19.918467506687296 25.565919982963987 0 0 0
1321 2 10.395807714308983 20.12183193087698 27.831283636336977 0 0 0
1284 2 10.392512006648127 17.659659035869666 25.404284977636802 0 0 0
1283 1 12.161672288794403 19.894716082037064 25.635564385670097 0 0 0
1286 1 12.168692844038528 17.81777784381518 27.752753659823505 0 0 0
173 1 -3.066605892245402 19.987598768662856 32.35164345535931 0 0 0
30 1 -1.492973539197402 4.06269320597835 32.397778869789164 0 0 0
316 1 0.14181501478684888 3.9927417686798483 30.13949578608864 0 0 0
318 1 1.8002282590347103 4.102059352234669 32.49629092071561 0 0 0
604 1 3.601102108393395 4.0737986600318035 30.203522435517666 0 0 0
606 2 5.422079046056778 4.145334935818771 32.31982577577601 0 0 0
892 1 7.045531454441134 4.31392578155358 30.15281170995201 0 0 0
894 1 8.690733366906008 4.087089773587588 32.51684759727479 0 0 0
1180 1 10.44847750357976 4.064929282319098 30.325378109713636 0 0 0
1182 1 12.163756389265048 4.056414455745176 32.485497149774 0 0 0
27 1 -1.502439779249671 6.363033867068865 29.983055499878184 0 0 0
353 1 0.27064539062049375 6.3767470666814265 32.39024563798179 0 0 0
315 1 1.9694164752285954 6.34210578628432 30.047912739796953 0 0 0
641 1 3.6105664490776053 6.265349402890603 32.35602156993117 0 0 0
603 1 5.425929765919017 6.288892813727451 30.204780201892955 0 0 0
929 1 7.109551224652174 6.497775841277721 32.45693841614149 0 0 0
891 1 8.831293028663431 6.483059556029591 30.156980362371876 0 0 0
1179 1 12.154668838761557 6.466848548265795 30.298987227358598 0 0 0
1217 1 10.332803278215694 6.472461335340491 32.51883576978064 0 0 0
66 1 -1.2464909893494418 8.608936757609808 32.36454790497079 0 0 0
63 1 -1.5292124759828858 10.602223131872668 29.999554542536263 0 0 0
1288 1 10.422811318432702 17.83215550337747 30.00364158996093 0 0 0
389 1 0.301437965891048 10.741256465382067 32.22679326124179 0 0 0
352 1 0.2678242724833493 8.535055691425551 30.157000914850336 0 0 0
354 1 2.0492767900838254 8.71001120210412 32.354978791437645 0 0 0
351 1 2.125014410714116 10.807460299862347 30.120304748885626 0 0 0
640 1 3.7681478589419357 8.638515753452607 30.10325699130808 0 0 0
677 1 3.916006975585978 10.951425310531977 32.47624723250716 0 0 0
642 1 5.123493700781031 8.407296640451754 32.39685062321372 0 0 0
639 1 5.457001391904958 10.804254019906551 30.242234489113187 0 0 0
928 1 7.024683259468791 8.70889760023205 30.2280196278827 0 0 0
930 1 8.851713489068741 8.803317866612321 32.492382300008614 0 0 0
927 1 8.887731984780155 10.824211870174832 30.264373230930648 0 0 0
965 1 6.995405869600825 10.704914521161726 32.48005372069554 0 0 0
1216 2 10.498475482656067 8.747527193771962 30.28403165574534 0 0 0
1218 1 12.046140799008795 8.623591669230521 32.482539976428626 0 0 0
1215 1 12.098314818579105 11.003359218142924 30.17834906703491 0 0 0
1253 1 10.59587873072353 10.878445860350055 32.498394066962575 0 0 0
102 1 -1.46709809884994 12.99555817056312 32.389356611585214 0 0 0
388 1 0.014367727662289997 13.009518278573749 29.899970629746523 0 0 0
390 1 1.8990094675279203 12.982712820620822 32.346783400584314 0 0 0
676 1 3.8665651069202416 13.172504665016373 30.18332652636686 0 0 0
678 1 5.424673194602045 13.183828777039013 32.45589545840553 0 0 0
964 1 7.165517087749352 13.079124028201182 30.213662018757567 0 0 0
966 1 8.760709873769578 13.243910680027302 32.52296131601345 0 0 0
1252 1 10.280394185429257 13.221256242492736 30.148663478535195 0 0 0
1254 1 12.157658427103572 13.128165403676041 32.43825394275605 0 0 0
99 1 -1.509033187307888 15.36341405559928 30.212826337942154 0 0 0
1287 1 12.212957868392165 19.973748235755824 29.92649352443457 0 0 0
425 1 0.26280372627391957 15.347679912788978 32.33476717257413 0 0 0
387 1 1.7938060332949681 15.225216896261436 30.14651258192672 0 0 0
713 1 3.6646761703807527 15.321331786804627 32.33344450048617 0 0 0
675 2 5.483495726895502 15.441417775396493 30.21452571549172 0 0 0
1001 1 7.319914016112115 15.56252763349332 32.315732356418366 0 0 0
963 1 8.83105486844207 15.531304418462588 30.005408334371136 0 0 0
1251 1 12.203718152649772 15.492867533995497 30.07248844685333 0 0 0
1289 1 10.34135237862801 15.654588939112713 32.4424879611868 0 0 0
135 1 -1.3961149309598195 19.991587959563972 30.153809647484593 0 0 0
138 1 -1.368020519899325 17.64261566138031 32.46096567753421 0 0 0
1325 1 10.635286535831213 19.909938119300048 32.253673585760296 0 0 0
424 1 0.17093852104069773 17.512681567140298 30.0650080754399 0 0 0
426 1 2.0072803661225085 17.58086274156259 32.25905158115438 0 0 0
461 2 0.2797593820155506 19.92839315677553 32.344070789486736 0 0 0
423 1 2.0621495202396436 19.77363995908396 30.1317770483239 0 0 0
711 1 5.283079063459509 19.977144098135756 30.180525309269942 0 0 0
749 1 3.622626697507496 19.84876022644628 32.42392265335414 0 0 0
714 1 5.398031661207762 17.54571774945368 32.18312831116421 0 0 0
712 1 3.6295938269939865 17.597699610929098 30.04187014421509 0 0 0
1002 2 8.596110027196465 18.00011404763181 32.32667378039082 0 0 0
999 1 8.724023106849865 19.91393210654783 30.164451448631663 0 0 0
1000 1 6.91311338965618 17.760187507875756 29.919571074185924 0 0 0
136 1 -2.9682519961923384 17.533532427736866 30.06769757244811 0 0 0
101 2 -2.998506627796168 10.607623141589611 32.361387768698364 0 0 0
133 2 -3.0661236318534053 15.457198991699983 27.699378213288668 0 0 0
34 1 -1.4001872358200098 3.8375779762461164 36.90650154185002 0 0 0
320 1 0.33453389741413275 4.041914249510158 34.76969407536947 0 0 0
322 1 2.1573020223173933 4.2075131428548005 37.03264553621203 0 0 0
608 1 3.7489469104447335 4.1728219626882534 34.65742000203531 0 0 0
610 1 5.357118968792269 4.202885541471767 36.99401735634281 0 0 0
896 1 6.981297578654331 4.102733795351407 34.63890975347759 0 0 0
898 1 8.741702015330695 4.210559268435892 36.83591457905973 0 0 0
1184 1 10.455853782429314 4.158555667875701 34.60350055488598 0 0 0
1186 1 12.015371544648385 4.1038766911961675 36.89467101645495 0 0 0
31 1 -1.3731010297906818 6.359029156731521 34.60762096735232 0 0 0
357 1 0.2547850548064101 6.407295714313324 37.02850253988761 0 0 0
319 1 2.061670271589468 6.224459224846269 34.79353175131416 0 0 0
645 2 3.851721818244147 6.401752834117209 37.04203493696183 0 0 0
607 1 5.520284535043157 6.379714074801109 34.597704880821325 0 0 0
933 1 7.069734630664142 6.419498995545405 36.994945024129024 0 0 0
895 1 8.695114898244439 6.455296439069665 34.71325899351386 0 0 0
1183 1 12.161299638046204 6.4465559713014216 34.599905995214016 0 0 0
1221 1 10.3461008125476 6.465575569232164 37.00877636756381 0 0 0
177 1 -3.0148558260521945 19.892923549452252 36.87328915407974 0 0 0
70 1 -1.5883331914057268 8.593349546291172 36.96278207847084 0 0 0
67 1 -1.3418851917306163 10.823257047733932 34.6679417733332 0 0 0
72 1 -2.9652857976639093 8.678098588217225 39.4164752521111 0 0 0
393 2 0.3903690142202838 10.631738955485886 36.861803779164575 0 0 0
356 1 0.34552027904022875 8.54003234002058 34.85606092296372 0 0 0
358 1 2.1754642874012577 8.544113496043984 36.942711872575686 0 0 0
355 1 2.1672507933887872 10.899040871872012 34.57684422628985 0 0 0
644 1 3.702945819664533 8.547770408395447 34.76114235048662 0 0 0
681 1 3.6612819157477516 10.907935711031566 36.958909619483975 0 0 0
646 1 5.419086622033877 8.637803117421612 37.095922339114665 0 0 0
643 1 5.285261385764045 10.893200357348258 34.68190886676037 0 0 0
932 2 7.114714639645536 8.726016055301564 34.61656564735199 0 0 0
934 1 8.76393418232151 8.679959289576427 36.9158400771223 0 0 0
931 2 8.801681432070815 10.865788395979507 34.6754368473226 0 0 0
969 1 7.204202364047168 10.90509854151075 36.85126377810033 0 0 0
1220 1 10.460073808202594 8.733704212701525 34.75016062593447 0 0 0
1222 1 12.095881808025126 8.695497765486918 37.07806264015353 0 0 0
1219 1 12.162669722980795 11.005984283367518 34.86146216533946 0 0 0
1257 1 10.328490093280392 10.932034304010218 36.95023951383611 0 0 0
106 1 -1.230408830944223 13.123631745336258 36.9912390414609 0 0 0
392 1 0.2345326513675956 12.838306204141391 34.59187366701788 0 0 0
394 1 1.8708282109089063 12.938738387701795 36.971713832808135 0 0 0
680 2 3.7652377945366653 13.186226760286324 34.62610433467617 0 0 0
682 1 5.386202456039717 13.097790219833938 36.941158237252324 0 0 0
968 1 6.989808718862005 13.05930102272475 34.643987850248294 0 0 0
970 1 8.690057435245476 13.228624905480531 36.868196382001045 0 0 0
1256 1 10.321296728455481 13.173676017893927 34.62619746546976 0 0 0
1258 2 12.050091400425147 13.108852447013811 36.96955288291424 0 0 0
103 1 -1.1440100360103904 15.327340520012665 34.783025413987644 0 0 0
104 1 -3.009246288460169 13.15115838605093 34.785551082304536 0 0 0
429 1 0.45051862206996107 15.386843298332938 36.9238675052641 0 0 0
391 1 1.868030992009118 15.184813438322113 34.5072763989009 0 0 0
717 1 3.593683418424909 15.34077231388897 36.67387612697594 0 0 0
679 1 5.475462341545551 15.339891819438819 34.67061821950516 0 0 0
1005 1 7.102097970392698 15.464667364225003 36.76589213175696 0 0 0
967 2 8.696078402385849 15.510673418860828 34.65661098498302 0 0 0
1255 1 12.06932348625876 15.395205040930833 34.70340151313191 0 0 0
1293 1 10.402872171634982 15.436683431015565 36.90493446830095 0 0 0
139 1 -1.405030212016987 19.784663946610568 34.49241294070701 0 0 0
142 2 -1.5420859057047143 17.370535513564285 36.86678541028324 0 0 0
465 1 0.15446061284815782 19.809703740161968 36.775809040114424 0 0 0
428 1 0.3301765219631947 17.566673971880753 34.67507465815474 0 0 0
427 1 1.9943158576043332 19.90692284400582 34.68742016529221 0 0 0
430 1 2.1115590453372053 17.715279593674943 36.8298583314746 0 0 0
716 2 3.6568223318667816 17.447422597012185 34.410477882034854 0 0 0
715 1 5.0586471510243545 19.88884180612927 34.58091352331924 0 0 0
718 1 5.1760067362731785 17.565309499221804 36.6348284041141 0 0 0
753 2 3.6517698855154666 20.062770111439033 36.89813213298075 0 0 0
1004 1 6.782170630468617 17.676369835851446 34.40048991179239 0 0 0
1003 1 8.690751530526217 19.972136295366084 34.35954843119296 0 0 0
1006 1 8.60707337267237 17.717033952589595 36.79337005631683 0 0 0
1041 1 6.775315304693503 19.870660729595425 36.90823652488298 0 0 0
1292 1 10.423088688882746 17.64275555662668 34.573986890417345 0 0 0
1329 1 10.258274740433249 19.951624635753898 36.943111278216264 0 0 0
1291 1 12.02351247833472 19.982118104766 34.67206692227613 0 0 0
1294 1 11.884965605125371 17.728957265537858 36.926797358359124 0 0 0
324 1 0.4079657799281913 3.977869418981663 39.21592943913255 0 0 0
612 2 3.732217780184421 4.080129469768144 39.39098354830348 0 0 0
900 1 7.233615207604972 4.02219503559245 39.09858727408651 0 0 0
1188 1 10.376656189259858 4.027106824517916 39.1083597407343 0 0 0
35 1 -1.4204551173052704 6.312625867862853 39.25410160421748 0 0 0
323 1 2.006978442901834 6.2784091404657065 39.18797444528363 0 0 0
611 1 5.506298981328104 6.4100232329681015 39.27651657845625 0 0 0
899 2 8.761331025900027 6.329663583595471 39.250971205296224 0 0 0
1187 1 12.143277133846167 6.321788860104944 39.354475910974344 0 0 0
71 1 -1.303173634225594 10.886179210290612 39.14804460264472 0 0 0
720 1 3.5995869599378403 17.62350615015474 39.16815371930436 0 0 0
144 1 -3.0001634944966566 17.66150893093114 39.05346566829118 0 0 0
360 1 0.3788504496047196 8.659040237994736 39.15368876909726 0 0 0
359 1 1.9993866856462792 10.799179989673487 39.27256532831758 0 0 0
719 1 5.2879982324108425 19.933531643018924 39.253963522522255 0 0 0
648 1 3.7021373733774277 8.464865654409696 39.13071850623052 0 0 0
647 1 5.494746967508357 10.798698259902626 39.17537720377169 0 0 0
1296 2 10.318113879598183 17.786856578188356 39.21560234704414 0 0 0
1297 1 10.379967440071253 19.802809376451364 41.41453806213232 0 0 -1
936 1 7.283984574927105 8.6733547116763 39.24239060578441 0 0 0
935 1 8.76412410298069 10.993735966025737 39.342848210282185 0 0 0
1224 1 10.424757373177584 8.576454967620396 39.437037245930625 0 0 0
1223 2 12.108736175569122 10.880554570462234 39.239309478508034 0 0 0
432 1 0.27001189020184047 17.477620072870337 39.01916975256947 0 0 0
396 1 0.3030545797838382 12.943912216336356 39.23095727554062 0 0 0
431 1 1.9851321366969992 19.919651006756023 39.103226635770454 0 0 0
684 2 3.6736936925782406 13.097228014241367 39.043909379842304 0 0 0
972 1 7.050730579298724 13.276119445537972 39.14654723333581 0 0 0
69 1 -2.9668746989759693 6.15898868256582 36.84907609928587 0 0 0
1260 1 10.399693921847797 13.14629151746662 39.19816494636869 0 0 0
107 1 -1.4703658979150764 15.30589595543723 39.20549220966008 0 0 0
140 1 -3.0866562882069006 17.388218714059285 34.61221366116878 0 0 0
649 1 3.8145213262097184 10.798478227085685 41.417717673705326 0 0 -1
395 1 1.9815741627585024 15.321030146627459 39.08709034919771 0 0 0
683 1 5.264134107066537 15.398381194297299 39.1283139765077 0 0 0
971 1 8.797228947181221 15.481132011118119 39.084151610246366 0 0 0
1007 1 8.497683699367553 19.93708559467556 39.1739247683783 0 0 0
1008 1 6.936992758241457 17.611266117142183 39.02245195312898 0 0 0
1259 1 11.932253680847033 15.40242574734401 39.249717693349226 0 0 0
143 1 -1.3489724479041072 19.918496043995617 39.20735837800116 0 0 0
1295 1 12.326704383874512 19.940883835475958 39.16753959952966 0 0 0
1261 1 10.284551115544737 15.511422086937422 41.43392180413568 0 0 -1
141 2 -3.032703385269307 15.288084280383137 36.86721656192802 0 0 0
397 1 0.2504333855441061 15.337616243061262 41.392099492843315 0 0 -1
326 1 2.0807238662916103 8.52815634182277 41.345216163366686 0 0 -1
650 1 5.351348634216658 13.258450264840043 41.412742286749136 0 0 -1
973 1 6.994204886401979 15.504642337932545 41.36021656920721 0 0 -1
36 1 -2.985281709651906 3.9697043753882575 39.11136939402556 0 0 0
109 1 -3.0941036843968845 15.282555603666097 41.3721620819628 0 0 -1
68 1 -3.0336974725637593 8.407080730090065 34.48605880380113 0 0 0
145 1 -3.044431610865192 19.786070035601515 41.400922020859355 0 0 -1
398 1 1.8623862922410779 17.517540280021787 41.26560866175416 0 0 -1
1262 1 12.204367178579059 17.7541297859088 41.43184827510805 0 0 -1
974 1 8.52460209061617 17.668515688417614 41.3963431709807 0 0 -1
74 1 -1.3970821119074928 13.09447314267881 41.34582633110783 0 0 -1
110 1 -1.4685353968821873 17.506479259727257 41.4334330761732 0 0 -1
614 1 5.279501282674161 8.437479226457501 41.34743659524949 0 0 -1
362 1 1.9740570786259348 13.07754863290689 41.365653424206286 0 0 -1
721 1 3.442175489703964 19.800650427975132 41.444455197063945 0 0 -1
1412 1 10.304238904127004 35.85177916184554 7.479506387987289 0 0 0
436 2 0.1606068172768227 22.30521198064341 2.929723021132639 0 0 0
724 1 3.5962138395242387 22.157436456885577 2.9618391690546293 0 0 0
1012 1 6.887350059955692 22.00390391763017 2.8496544100740198 0 0 0
5 2 -3.0663944620683874 38.19016496733756 5.282262274899869 0 -1 0
1300 1 10.26069254216285 22.18533577927597 3.0330680977742746 0 0 0
147 1 -1.5089831006652288 24.56245068253581 2.9875497215307942 0 0 0
435 1 2.0251783652857793 24.45330098988914 3.0302419985678384 0 0 0
723 1 5.214228839518919 24.344193816306888 3.1169345671719806 0 0 0
469 1 0.20358345691859858 24.393762135980715 0.8865013107266693 0 0 0
1011 1 8.50414418317744 24.258628959936935 2.9584345513061643 0 0 0
1299 1 12.03155433918117 24.402232436406383 2.9852187988628605 0 0 0
256 1 -3.0742740780969733 35.794059069420214 2.8204430307191695 0 0 0
260 1 -3.0422457839752255 35.757358019178774 7.539894310228975 0 0 0
183 1 -1.2074904214378213 28.95972564110838 3.1503355612077537 0 0 0
472 1 0.24660896844886881 26.68591276600169 3.008422901416963 0 0 0
471 1 1.9604027764113536 29.116350867384348 2.906031020576517 0 0 0
1123 1 8.500628097252909 38.1853082973915 7.481595578725283 0 0 0
760 2 3.6205508137376925 26.79510520538163 2.849619179430163 0 0 0
759 1 5.365409520403688 28.933657106218007 2.8835413524978417 0 0 0
1048 1 7.091234480936739 26.609571395122835 2.9851553110898714 0 0 0
1047 1 8.771549695155956 29.070687994010854 2.8001712761210777 0 0 0
1335 1 12.019367213910543 28.903494625270945 2.9486341075166504 0 0 0
1336 1 10.301657145491435 26.635513681916176 2.899292342490902 0 0 0
185 1 -3.0283994583882525 24.521030043069814 5.201506641356988 0 0 0
146 1 -1.4383235819598386 22.203177254240515 0.7665952762918361 0 0 0
1411 1 12.033366657368353 38.10629461931078 7.5759670802382555 0 0 0
508 1 0.2466545101944213 31.301266639135832 3.030939653701149 0 0 0
796 1 3.7463308871525824 31.412651474644527 3.031032566788837 0 0 0
1084 1 6.919370203423554 31.277747447858108 2.985246371658712 0 0 0
257 1 -3.0210307680368405 33.46329532927703 5.1619930309009945 0 0 0
1372 1 10.546225463406191 31.191580336932855 2.8568085858974035 0 0 0
220 1 -3.0806285130936337 31.037633670250216 2.964744603766775 0 0 0
219 1 -1.4469667742575434 33.343818759431684 2.932415666962622 0 0 0
507 1 2.0909774587501926 33.51726943904569 2.9079246693662926 0 0 0
795 2 5.340743910155938 33.56719823745595 2.9619606139642247 0 0 0
1083 1 8.808061129856005 33.4036148032852 3.0617565434125114 0 0 0
1122 1 8.679525167887993 35.843634717771614 5.233481915012872 0 0 0
1371 1 12.113880803145754 33.47841717589364 2.99145577100743 0 0 0
255 1 -1.2759969146884287 38.0411637850236 2.969932399293662 0 0 0
1157 1 10.37087063628238 38.153801389230765 5.353147671083753 0 -1 0
544 1 0.29544352777212435 35.765079828415 2.959263121088789 0 0 0
543 1 1.9817672633906604 38.13875767738853 3.061457921630156 0 0 0
832 1 3.7263677247773814 35.93738694272088 3.2292476583978127 0 0 0
831 1 5.46103367571917 37.956092110640036 2.972944797942475 0 0 0
869 1 6.938761694595154 38.00298467614988 5.1500990121045 0 -1 0
1120 1 7.213329230541083 35.7276802084153 3.016374549833695 0 0 0
1119 1 8.725430139235124 38.01645593923968 2.9505028565804885 0 0 0
581 1 3.82123177178704 38.04999976096564 5.371363694342961 0 -1 0
1124 1 7.208652709231464 35.789446502178514 7.509747730052034 0 0 0
470 1 1.9157864159935394 26.827597661961487 0.7719545018450547 0 0 0
1407 1 11.917032247595559 38.10976940564851 3.078315421492581 0 0 0
1408 1 10.335761228918392 35.72760106893183 2.7991062148805135 0 0 0
835 2 5.420598305886118 37.93756172577488 7.607878681524319 0 0 0
150 1 -1.3835060685058884 22.346941889427974 5.317131257412342 0 0 0
440 1 0.25395165836755407 22.23083280834904 7.530566875625358 0 0 0
438 1 1.9003412144833765 22.156137729764346 5.244442005717833 0 0 0
728 1 3.6393736301828272 22.186364344530446 7.648350477844255 0 0 0
726 1 5.256705079858994 22.154482150407034 5.329644964156952 0 0 0
1016 1 6.878741474717835 22.092517834825145 7.350835155345695 0 0 0
1014 1 8.559717229282136 22.149848335593568 5.197004395818875 0 0 0
1302 1 12.08289847859873 22.320228511782055 5.0791848301862395 0 0 0
1304 1 10.386949681936484 22.160694932768674 7.5062797652327555 0 0 0
224 1 -3.0063950610493575 31.280610410611665 7.462986936172793 0 0 0
151 1 -1.365229055637273 24.42638908080858 7.396057476335941 0 0 0
473 1 0.38001453285988873 24.41847785261615 5.271886015609325 0 0 0
439 1 2.0563546700968787 24.43564629654903 7.573007177037513 0 0 0
761 1 3.7328076250798783 24.31391950086567 5.470305033177221 0 0 0
727 1 5.349176091759022 24.404776096131293 7.658167532528526 0 0 0
1049 2 6.893950801066374 24.437346396810117 5.251476815996464 0 0 0
1015 1 8.536261429762968 24.34499258845185 7.45277091290022 0 0 0
1303 2 12.036807860622323 24.319055769400048 7.442972831173467 0 0 0
1337 1 10.190842993831062 24.404033148958828 5.238146020878633 0 0 0
186 1 -1.297164363953628 26.75786267015856 5.261293850662305 0 0 0
187 1 -1.261584632277123 29.038132064040738 7.4607766047596735 0 0 0
834 1 5.419307557334008 35.82462079447565 5.41679143273282 0 0 0
476 1 0.3775172396610178 26.77500837526617 7.543188563613134 0 0 0
474 1 2.076504224356975 26.724963556277757 5.149649920661199 0 0 0
475 2 2.081060794524865 28.97251461136949 7.399830067747476 0 0 0
509 1 0.4426732440304386 29.114397726596696 5.232962013017346 0 0 0
764 1 3.6090215068019718 26.692669565064445 7.51453666157235 0 0 0
762 1 5.1796729245866775 26.740837183900233 5.213639504696395 0 0 0
763 1 5.277704036291555 28.873669564885883 7.51403705014167 0 0 0
797 1 3.6312083144235507 29.039808602869638 5.069134618208608 0 0 0
1052 1 7.0695995920032875 26.801521982191783 7.480613264496897 0 0 0
1050 1 8.856191848781204 26.72906282284415 5.218820655380141 0 0 0
1051 1 8.800196083975559 29.166937137354736 7.510199777664483 0 0 0
1085 1 6.953894573958902 28.873760507133575 5.179565835545663 0 0 0
1339 1 12.069293410259903 29.003722169064318 7.54306926506258 0 0 0
1338 1 12.071494098614957 26.480289082136142 5.3123306236129455 0 0 0
1340 1 10.319718337766714 26.65697310046558 7.508310009334814 0 0 0
1373 1 10.3565155205426 28.94817249570181 5.2578903738046945 0 0 0
222 1 -1.4184960614796254 31.297065929901688 5.234568779005406 0 0 0
512 1 0.4866742062097602 31.270142098619537 7.416062721793988 0 0 0
510 1 2.012470145040354 31.32309475507504 5.120869382054985 0 0 0
800 1 3.661836877973816 31.331527654559896 7.4178082960256955 0 0 0
798 1 5.476720046511948 31.17672997578091 5.364809869747639 0 0 0
1088 1 6.944982898197628 31.38697233995071 7.578740321242993 0 0 0
1086 1 8.651211520818167 31.144520501379024 5.232010035512081 0 0 0
1374 1 12.091002156407132 31.256823107589877 5.339659281056755 0 0 0
1376 1 10.503901033153495 31.426228111879247 7.557792009113048 0 0 0
836 1 3.4599468145396384 35.77477255426683 7.500627933146595 0 0 0
223 1 -1.3288212182785355 33.610073177242164 7.521072132172138 0 0 0
545 2 0.32079846752950214 33.462957698187324 5.079677095337845 0 0 0
511 1 1.9467512101718891 33.44022350128439 7.380445899516537 0 0 0
833 1 3.864184558044619 33.44107576871407 5.282034647236016 0 0 0
799 2 5.37666626028836 33.716608376930154 7.510312551702084 0 0 0
1121 1 7.095815615438653 33.51826927939125 5.225594928778904 0 0 0
1087 1 8.732347920451891 33.55703317158001 7.45203808065367 0 0 0
1409 1 10.348956749630991 33.54051990656626 5.349964772991212 0 0 0
1375 1 12.032550729151884 33.52700676831365 7.441146986950855 0 0 0
1410 1 11.911217371913603 35.93313900069479 5.231218139984798 0 0 0
259 1 -1.546405917483678 38.07902937094742 7.62870907741154 0 0 0
258 1 -1.376057990891309 35.82251527619623 5.2093316718594505 0 0 0
546 1 1.9065377528675707 35.7095176585989 5.172027176459473 0 0 0
547 1 2.069235919681446 38.10260721509959 7.581375279412921 0 0 0
293 1 0.29018185052918044 38.207333896304405 5.37409876332867 0 -1 0
548 2 0.4192239067882686 35.897575666377485 7.485525410399834 0 0 0
1082 2 8.692233527619956 31.269983471104066 0.8413075972658678 0 0 0
830 1 5.207496933812429 35.748474058118454 0.8032374760824155 0 0 0
184 1 -2.9205151903574027 26.78772724541839 2.9848903010121086 0 0 0
434 1 2.033100476331731 22.314777515743902 0.7337894646667662 0 0 0
577 1 3.630655804531709 38.12025763130761 0.8380772570696905 0 -1 0
542 1 2.2005438954783734 35.694586604109574 0.8055909216678088 0 0 0
289 1 0.453210256859077 37.93497876304978 0.7477462629422553 0 -1 0
1406 1 12.145486289131735 35.885107706808945 0.8551654253309562 0 0 0
1 1 -2.9989299926417563 37.968236189392776 0.727319121136098 0 -1 0
757 1 3.7800371176485394 24.637605042510515 0.818281250067634 0 0 0
722 1 5.045803780745318 22.068078770090665 0.8027804179828686 0 0 0
1117 1 7.011715523167281 33.52355307589434 0.7491666095581931 0 0 0
758 1 5.524400040132653 26.65808261311285 0.7965637379210713 0 0 0
154 1 -1.568365596002734 22.12963194866007 9.776731156945127 0 0 0
1420 1 10.332426670863388 35.84010023828428 16.51622624709556 0 0 0
444 1 0.2673893161592438 22.188256984548858 12.055265943112033 0 0 0
442 2 2.132562345926273 22.302538317251845 9.965096400110136 0 0 0
732 1 3.863686410715467 22.132397604345005 12.041917035314544 0 0 0
730 1 5.439884571107877 22.329528164403733 9.776031085304108 0 0 0
1020 1 6.9876567375218475 22.286004816367182 11.97206805720323 0 0 0
1018 2 8.662093596107706 22.223293070813007 9.697920323521107 0 0 0
1306 1 11.926284941748289 22.152554577891557 9.852056773196589 0 0 0
1308 1 10.320256943811522 22.10863195388277 12.154566152535587 0 0 0
155 1 -1.4245194686227942 24.39528814857978 12.077113098593536 0 0 0
229 1 -2.8529175048046373 29.011762504269196 14.332329175464212 0 0 0
477 1 0.36954535371171726 24.317877595805278 9.754895015449664 0 0 0
443 1 1.9528698288471458 24.374169341525555 11.79762450642184 0 0 0
765 1 3.8356165641756603 24.546232144031702 9.806735509788838 0 0 0
731 2 5.292978391511275 24.533274193708593 12.12089397651083 0 0 0
1053 1 7.083268382878257 24.57002067007833 9.822904222238291 0 0 0
1019 1 8.922218643576798 24.519932878058842 12.20185368613072 0 0 0
1307 1 12.006196979495302 24.542304255437713 12.017661863367701 0 0 0
1341 1 10.280659535751544 24.40958277001605 9.714359640732871 0 0 0
190 1 -1.2917703308835666 26.672018537334846 9.714108513283014 0 0 0
191 1 -1.2319732056623502 29.04940562069087 12.03274246009216 0 0 0
192 1 -2.9221049072338836 26.74002772622472 11.928599851286274 0 0 0
480 1 0.3377061818158791 26.69310252496431 11.98213516242534 0 0 0
478 1 1.910851628119461 26.712954443953038 9.781407299402158 0 0 0
479 1 1.9280541222137173 28.986934974069445 12.000284706477721 0 0 0
513 1 0.37438804767641143 29.105923641532765 9.798841407499687 0 0 0
768 1 3.7229652329848313 26.85756631033583 11.953422119863822 0 0 0
766 1 5.412943800660116 26.87687693725526 9.694590883307468 0 0 0
767 1 5.427414060754808 29.16858168898876 12.000021920094664 0 0 0
801 1 3.487075235590194 28.998136705036924 9.74861486093928 0 0 0
1056 1 7.02699101218276 26.723728408997648 12.079407737982589 0 0 0
1054 1 8.802255535994014 26.79789950866739 9.9073092385405 0 0 0
1055 1 8.542465629759926 29.164167991654324 12.104678281307462 0 0 0
1089 1 7.034585838282723 29.147750312587505 9.666519081056322 0 0 0
1343 1 12.018445216750168 29.2234459116713 11.88844092634067 0 0 0
1342 1 12.041401379262492 26.677933388612125 9.71843031860184 0 0 0
1344 2 10.536265336253946 26.874477003076912 12.176951085907087 0 0 0
1377 1 10.275925042685033 29.061240666758763 9.938120390920842 0 0 0
226 1 -1.3285163725821543 31.314009323087916 9.627253979491078 0 0 0
1130 1 8.67694203265221 35.775456215920364 14.270258615633814 0 0 0
516 2 0.4328107822908325 31.334048876656098 11.923173237393195 0 0 0
514 1 2.031034117839573 31.318922183286407 9.752014049782444 0 0 0
804 1 3.6855876590423686 31.351302901469154 11.977559011979334 0 0 0
802 1 5.307878781512237 31.32175665718493 9.752057929919687 0 0 0
1092 1 6.900204319618517 31.44098635029978 12.148785737149721 0 0 0
1090 1 8.72796194362992 31.332673896581017 9.652920028690398 0 0 0
1380 1 10.336086566773922 31.327982024987158 12.016813590684949 0 0 0
1378 1 12.15524152729293 31.29707836617418 9.83854624394041 0 0 0
227 1 -1.4179997311930135 33.54243259894989 11.995468682982567 0 0 0
1132 1 7.063427762753076 35.76393099553503 16.446991952469958 0 0 0
549 1 0.5166695141700393 33.48951133093023 9.734564538143646 0 0 0
515 1 2.1399302972852445 33.71392683581823 12.109324059336771 0 0 0
837 1 3.6227344441363916 33.55756294617602 9.668105177755654 0 0 0
803 1 5.310860266682367 33.57640749915102 12.094806374491213 0 0 0
1125 1 6.977418821426403 33.49156569803517 9.860342476704771 0 0 0
1091 1 8.820578647862872 33.63737852137874 12.048208963066427 0 0 0
1413 1 10.466133482637398 33.50759921890105 9.875793284466852 0 0 0
1379 1 12.08481845523552 33.463508425111385 12.179935150058396 0 0 0
262 1 -1.214968363824797 35.87766015760169 9.782923003092966 0 0 0
263 1 -1.5474523421696842 38.02763488755969 11.960591628438761 0 0 0
1418 1 11.996597983272984 35.77409151458627 14.330177639128559 0 0 0
297 2 0.3305117575803189 38.1236845622989 9.787626262481858 0 -1 0
552 1 0.2824910610876312 35.82539622159387 12.136671854181555 0 0 0
550 1 1.959410542414021 35.85471995949615 9.789175285813702 0 0 0
551 1 2.0599264399608432 37.98895463847746 11.957338446115306 0 0 0
840 2 3.7183401989744262 35.89991471131893 11.929239647264879 0 0 0
838 1 5.515425908296626 35.757874839903465 9.788392308779986 0 0 0
839 1 5.4223559713957865 38.23860326768575 12.062131275329198 0 0 0
585 1 3.8713370564846357 38.00173758281136 9.874988780131188 0 -1 0
1128 1 7.069783073954447 35.77097790699683 12.00441816011228 0 0 0
1127 1 8.721248161470909 38.03276676336766 12.086221827681477 0 0 0
1126 1 8.735818909142253 35.740571897215176 9.793045484373135 0 0 0
873 1 7.048414148609048 37.980664581949135 9.822122811881576 0 -1 0
1416 1 10.508924394243701 35.73060861852789 11.992127249717635 0 0 0
1161 2 10.401831143503301 37.9955527763731 9.739773369966752 0 -1 0
1414 1 11.988397341917686 35.768855979988736 9.663502202291612 0 0 0
1415 1 12.096628499951684 38.13722432297338 12.098437315775023 0 0 0
158 1 -1.4261554611970892 22.276875993954352 14.30465589768375 0 0 0
1419 2 12.2915166006099 38.06596625582678 16.601028723942925 0 0 0
448 1 0.49379390177077465 22.218639752850564 16.472247487882434 0 0 0
446 2 2.058616046092713 22.006163242985828 14.151761712780427 0 0 0
736 1 3.511012324596336 22.269253496185378 16.53158275950713 0 0 0
734 1 5.387452529061253 22.234381475220374 14.23748458372828 0 0 0
1024 2 7.0703812899821195 22.228714773092218 16.449563489193963 0 0 0
1022 1 8.841478639860032 22.269916034755155 14.431070658486933 0 0 0
1310 2 12.101476293899168 22.261069837629893 14.286849750028667 0 0 0
1312 1 10.481539048952776 22.1999293917255 16.593291134641827 0 0 0
159 1 -1.3644472043997522 24.565729690968134 16.637726221422184 0 0 0
481 1 0.5367234365669478 24.22045248317565 14.326810463347005 0 0 0
447 1 1.921256968600551 24.581393764577406 16.7553405092597 0 0 0
769 1 3.501046845708245 24.384192298705553 14.28879729649341 0 0 0
735 1 5.2320634795900105 24.44247911273578 16.465747285748208 0 0 0
1057 1 7.0307465646065985 24.369902726692796 14.381448876854163 0 0 0
1023 1 8.748255672246847 24.529678240154666 16.595802823357992 0 0 0
1311 1 12.20279694766289 24.551644807219198 16.538360460825857 0 0 0
1345 1 10.602559324125911 24.568283299891828 14.311626267263298 0 0 0
194 2 -1.3092867348809278 26.694106253429293 14.262476946919529 0 0 0
195 1 -1.3406282562981238 29.09748558515152 16.609153921287962 0 0 0
196 1 -2.97822388634215 26.703113349602148 16.425336493620872 0 0 0
484 1 0.3469668587075523 26.808444333810222 16.503611466216192 0 0 0
482 1 1.912647864592563 26.790156728378953 14.193371119150626 0 0 0
483 1 1.938893690788579 28.991313927803194 16.562555460062757 0 0 0
517 1 0.2098890002001048 29.057923295314275 14.31965900127818 0 0 0
772 1 3.5020189655935305 26.74542530880791 16.514896033620055 0 0 0
770 1 5.270977907174478 26.567590583008123 14.313179198599226 0 0 0
771 1 5.305232287224891 28.973067391605728 16.533517738716277 0 0 0
805 1 3.6987161575053897 28.986218546094108 14.290534339097636 0 0 0
1060 1 6.987730447511906 26.78932527884512 16.545648286767435 0 0 0
1058 1 8.680304603175298 26.842357661948945 14.280683695862379 0 0 0
1059 1 8.76598498593817 28.920313656916626 16.666386934954787 0 0 0
1093 2 7.013294172633197 29.048207179011005 14.400658099623934 0 0 0
1347 1 12.15838407609539 29.05126280548099 16.584030768860487 0 0 0
1348 1 10.533691136485455 26.703118259210648 16.6332580495323 0 0 0
1346 1 12.25718305130655 26.71662024196299 14.513440149553734 0 0 0
1381 1 10.45945406911594 28.94524311681163 14.327661372853017 0 0 0
230 1 -1.3987869852972346 31.254740629778553 14.132696475157257 0 0 0
1131 2 8.65208753982524 38.1096375567683 16.6831562718992 0 0 0
520 1 0.15446983775770606 31.20247927683417 16.562721174552244 0 0 0
518 1 1.9364149729665985 31.224605531354648 14.253326281565512 0 0 0
808 1 3.5736902675655737 31.403887603917553 16.745990053184517 0 0 0
806 1 5.1648341313083925 31.239415477718772 14.431535386769728 0 0 0
1096 1 7.081289436897931 31.194665493537386 16.53709558886429 0 0 0
1094 1 8.769988456520913 31.193542181111216 14.352553649195874 0 0 0
1382 1 12.00311519551151 31.30705635345731 14.324480746923578 0 0 0
1384 1 10.376694659477355 31.311261766465748 16.63176761129138 0 0 0
231 1 -1.401674333534896 33.52363159525612 16.59634720000384 0 0 0
1165 1 10.330539381257383 37.971751919695606 14.426243557184335 0 -1 0
553 1 0.3543743759891833 33.51965721761903 14.340066265976935 0 0 0
519 1 1.9393118014952857 33.470838619946775 16.620252442282503 0 0 0
841 1 3.505565852089759 33.50034025484214 14.308929262050029 0 0 0
807 1 5.446094319458837 33.56621686838044 16.50932034039557 0 0 0
1129 2 7.0551995548003354 33.397326929359174 14.367380296369149 0 0 0
1095 1 8.632995423514126 33.57468005071674 16.609727108041547 0 0 0
1383 1 12.157498934240648 33.547550845466944 16.63466021998743 0 0 0
1417 1 10.34773486428181 33.65205273412448 14.412328367385557 0 0 0
877 1 7.11540350486746 38.09412214304705 14.291732406433601 0 -1 0
266 1 -1.5260368183908126 35.75942239883633 14.239916442581425 0 0 0
267 2 -1.4575531320372093 38.18798306399094 16.57272470355383 0 0 0
301 1 0.13356682600934588 37.990960660069504 14.241439554816907 0 -1 0
554 1 1.988577441550436 35.82532608427521 14.330686347657277 0 0 0
556 1 0.14460622826678282 35.75591280613257 16.571015695578435 0 0 0
555 1 1.780486686930812 38.063642724180184 16.581762163013074 0 0 0
589 1 3.5335797991015334 38.102159248158124 14.416683763158604 0 -1 0
842 1 5.273221087031509 35.72526907380387 14.382190456961672 0 0 0
843 1 5.350861475286093 38.101097631288326 16.490309644841144 0 0 0
844 1 3.527275309675604 35.744458293121426 16.592212039643535 0 0 0
261 1 -3.087350690851013 33.66168575082244 9.70139261131523 0 0 0
225 1 -2.884009241046002 29.02476043703018 9.747987471336092 0 0 0
228 1 -3.0841465426643073 31.31530745865879 12.00486934281899 0 0 0
189 1 -3.0319061168127783 24.53429587935975 9.779473530683514 0 0 0
265 1 -3.0609355870421773 33.515925526764605 14.264163791445428 0 0 0
160 1 -3.016426243258098 22.127447473583164 16.632205337460885 0 0 0
232 1 -2.896372862182111 31.30321176541656 16.564418231109492 0 0 0
162 1 -1.4807745042746812 22.046927258691053 18.807227431775694 0 0 0
450 2 1.8648791708686132 22.215120519196233 18.869956565389977 0 0 0
452 1 0.1619756796724552 22.087530687570947 21.08935892481735 0 0 0
738 1 5.339491840423975 22.37273420211131 18.715342694566324 0 0 0
740 1 3.719083506182985 22.219343959821124 21.00885790224238 0 0 0
1026 1 8.638432176339801 22.231643500105136 18.815770713975073 0 0 0
1314 1 12.262451758217729 22.184311399604155 18.964821876308704 0 0 0
1316 2 10.420910709955864 22.331960715846332 21.060248753157246 0 0 0
485 1 0.22845786850392757 24.367798117015063 18.98482224151227 0 0 0
451 1 2.027211416360888 24.274354392731237 21.097580280649122 0 0 0
773 1 3.708895960403496 24.452123219382592 18.839265090121938 0 0 0
1061 1 6.932279027648104 24.51134572494518 18.72579520037903 0 0 0
1349 1 10.409601413610192 24.41517356499748 18.819436513078713 0 0 0
198 1 -1.5031694857823596 26.68102975718756 18.728721187988242 0 0 0
199 1 -1.481912438589054 28.9167145845142 20.98596680487661 0 0 0
486 2 1.9596743646957777 26.52180271912335 18.74955186585801 0 0 0
521 1 0.28422485380820106 28.74806329898035 18.828462237246168 0 0 0
488 1 0.4444246368529239 26.500498252769244 21.08390024624036 0 0 0
774 1 5.268413631684782 26.650842618116368 18.727256029498747 0 0 0
809 1 3.480421895904661 28.95994069348017 18.70259302305692 0 0 0
1062 1 8.626744597826765 26.63629042173136 18.88175075661105 0 0 0
1097 1 7.060037536045272 28.890365973540423 18.663130425967662 0 0 0
1064 1 6.908293185040199 26.820610822228335 20.98832994204129 0 0 0
1350 1 12.159761632131229 26.68855158685244 18.866119912738448 0 0 0
1385 1 10.420121897025306 28.986250712439155 18.833641352982312 0 0 0
1352 1 10.356861585728684 26.821619531150724 21.112081202221415 0 0 0
234 1 -1.4521785528675897 31.13147692550648 19.13222515682524 0 0 0
522 1 1.7805371819203377 31.244091685128566 18.86148164892225 0 0 0
810 1 5.4426762983634625 31.29852593804635 18.664232556660586 0 0 0
1098 1 8.54489839881057 31.204682552501257 18.91357872548113 0 0 0
1100 1 6.88004266851938 31.169695699825283 21.20087639626544 0 0 0
1386 2 12.198383557477486 31.213745172130714 18.949961627945594 0 0 0
1388 1 10.411919298490089 31.283907866527382 21.098401749824987 0 0 0
21 1 -3.0328161115883567 38.08152230968227 23.440905743478506 0 -1 0
557 1 0.1307696227903663 33.51945029396224 18.804642894909257 0 0 0
845 2 3.716634927942629 33.41582597847807 18.754415767968954 0 0 0
811 1 5.355442906480521 33.4828617421297 21.149795737274346 0 0 0
1133 2 6.9021579162588225 33.60818141489666 18.83708894843691 0 0 0
1099 1 8.677589260556392 33.41633035817085 21.11672273691921 0 0 0
1421 1 10.43401513160663 33.39808501862588 18.912667827121478 0 0 0
270 1 -1.4811621696788255 35.731326043310965 18.867283631908897 0 0 0
271 1 -1.5560194552010882 38.002223047570645 21.080011119639806 0 0 0
201 1 -3.0324747327433363 24.3111029351286 23.36191282741602 0 0 0
305 1 0.23977671933404565 38.03245475333442 18.824885644241213 0 -1 0
558 1 1.9950851328340478 35.80414616635534 18.82757277360762 0 0 0
559 1 2.004523905858164 37.852936832576454 21.129125073832792 0 0 0
846 1 5.360358349484757 35.77080661871434 18.715000085396618 0 0 0
593 1 3.6453287200091515 38.19741407108643 18.882472076968803 0 -1 0
848 1 3.800881988346981 35.58944303081684 20.965864021292276 0 0 0
1134 1 8.68828101084057 35.8672250599424 18.745177977307424 0 0 0
881 1 6.758011613792133 38.12881490806304 18.849251861461017 0 -1 0
1422 1 12.149716489973859 35.98870598915813 18.607293573209716 0 0 0
1169 1 10.457163654150431 38.09868052067401 18.72816043819521 0 -1 0
166 1 -1.341437850418687 22.038934123582433 23.331000367598996 0 0 0
454 1 1.8998036040128308 22.169023215552357 23.28775403696487 0 0 0
742 1 5.235813648030607 22.274197004311194 23.33490779001243 0 0 0
1028 1 7.019358931085707 22.142896363370912 21.1802554047258 0 0 0
1030 1 8.816378781113459 22.177655544238817 23.466791160376886 0 0 0
1318 1 11.876363022218083 22.17970533111574 23.257480898972293 0 0 0
163 1 -1.4800431670274992 24.32198137065948 21.15493892405914 0 0 0
1424 1 10.325662337563426 35.72408610069856 21.116571243955914 0 0 0
489 1 0.30292751362552917 24.460625136382067 23.43933535556492 0 0 0
739 1 5.442887119197639 24.422548979978018 20.97949637947143 0 0 0
777 1 3.7562568011310904 24.54180035986088 23.290801218223166 0 0 0
1027 1 8.711684595391377 24.519720461628562 21.071338434746494 0 0 0
1065 1 6.985298052701808 24.43923197441369 23.265225438840325 0 0 0
1315 1 12.129246444200884 24.555878295367084 21.16958603315457 0 0 0
1353 1 10.392967134083335 24.527034397945748 23.317696376117564 0 0 0
202 1 -1.292033464707487 26.733821317886438 23.37184745827184 0 0 0
1423 1 11.966484790681886 38.11527633632355 21.162621762599116 0 0 0
1136 1 6.930204309980944 35.779171613140555 21.076423026324175 0 0 0
487 1 1.9005792759536493 28.83729139788558 20.962308012206094 0 0 0
490 1 1.9931048958468494 26.677236504411784 23.2849872292929 0 0 0
525 1 0.34592942107250746 28.91364088333339 23.302129479442087 0 0 0
775 1 5.2537314484675655 28.970300511639426 20.93984966943423 0 0 0
776 1 3.6510548992341634 26.57554720237293 20.96824190272006 0 0 0
778 1 5.336725926675518 26.63527432305506 23.29032353015907 0 0 0
813 2 3.693607553311671 29.031718540005063 23.376334085908603 0 0 0
1063 1 8.67865074465189 29.029451335748057 21.177107277942355 0 0 0
1066 1 8.641653606973563 26.891728018308537 23.419787455232058 0 0 0
1101 1 6.851419412692655 28.93721498272024 23.330521196920916 0 0 0
1351 1 12.18069168683199 29.012412022672194 21.112491453424823 0 0 0
1354 2 12.070499049246209 26.632490825289388 23.312432173192892 0 0 0
1389 1 10.592499584197112 28.881865987982763 23.413435706184213 0 0 0
238 1 -1.5897468958978114 31.28726975743478 23.213245955336696 0 0 0
1426 1 12.013934150928813 35.72514882708092 23.39031179210934 0 0 0
524 1 0.2714809366510078 31.27687502810497 21.161872263908176 0 0 0
526 1 2.014406658961746 31.197446257444163 23.323890239592554 0 0 0
812 1 3.613155939322366 31.248440167447395 20.909648668780903 0 0 0
814 1 5.237905268023193 31.38616353960148 23.3553352581516 0 0 0
1102 1 8.57026113056739 31.221727996968923 23.377629987165882 0 0 0
1390 1 12.208642591348765 31.160091517248254 23.225858705469786 0 0 0
235 2 -1.5279958943731289 33.383515304650004 21.090947053227236 0 0 0
523 1 1.9372395805930496 33.47018652870001 21.046408725584556 0 0 0
561 1 0.1352465136889105 33.680094106606305 23.448427410230252 0 0 0
849 1 3.525112114736688 33.562238108463475 23.29333505630411 0 0 0
1137 1 6.973486528632614 33.559326727838766 23.345534198559456 0 0 0
1387 1 12.037111927780835 33.47990583821536 21.07793286613836 0 0 0
1425 1 10.490049903048865 33.45096408283001 23.426029164207726 0 0 0
274 1 -1.5033293853466196 35.80510189761469 23.273649339490532 0 0 0
1173 1 10.347717621463337 37.955763536487794 23.45182576082557 0 -1 0
560 1 0.09322270036913194 35.778885760776426 21.031727157246365 0 0 0
309 2 0.27487178011243163 38.07681573131924 23.2182710725439 0 -1 0
562 1 1.902399884570841 35.74014380518911 23.33744134049327 0 0 0
597 1 3.5074487249903616 38.03418491782591 23.434374787452573 0 -1 0
847 2 5.26961998357832 37.98901766750981 21.133195206855316 0 0 0
850 1 5.188807072803803 35.856690583700306 23.34807485836938 0 0 0
885 1 7.035616131769318 37.93448558933137 23.210050478919854 0 -1 0
1135 1 8.782383380221722 38.166346580386865 20.923803535863463 0 0 0
1138 2 8.678771923516697 35.66844415752006 23.426708143513356 0 0 0
197 1 -2.906551630815138 24.418044787586183 18.910137432212608 0 0 0
237 1 -3.0390157717335247 28.89830525444049 23.408686955997673 0 0 0
170 1 -1.410256308043113 22.135268379352514 27.816928577162916 0 0 0
1146 1 8.867275816761328 35.784136711224335 32.491774711463755 0 0 0
456 2 0.18373604631035745 22.392756234480352 25.579726925883307 0 0 0
458 1 2.0173520995161813 22.12908005695122 27.879623552677508 0 0 0
744 1 3.6437512895483644 22.236138671608902 25.568202528526776 0 0 0
746 1 5.263700252410684 22.15643316711754 27.855671390879674 0 0 0
1032 1 7.002223240495493 22.124829960123837 25.628963074912917 0 0 0
1034 1 8.583619304541408 22.301864254858454 27.8716947106209 0 0 0
1320 1 10.387024145135712 22.07212462319401 25.690365824162274 0 0 0
1322 1 12.357524920935202 22.192147712307616 27.715120737798987 0 0 0
167 1 -1.454025573591684 24.468966165968368 25.56795118570832 0 0 0
245 2 -2.961200909236964 29.039089711070257 32.43107621020084 0 0 0
493 1 0.3525572896958362 24.456957512445072 27.902693547131992 0 0 0
455 1 2.0877888646205265 24.38824261384752 25.68376023717789 0 0 0
781 1 3.6409408464711057 24.30718135758236 27.986920771675752 0 0 0
743 2 5.387002544940458 24.540094829985897 25.61922586000607 0 0 0
1069 1 6.904671515641141 24.61584500420249 27.830033460348446 0 0 0
1031 1 8.71508011663074 24.44150126792084 25.66786919535522 0 0 0
1319 1 12.06941519310321 24.35849087938949 25.636030761748398 0 0 0
1357 1 10.460597529365646 24.43378349360776 27.808687079812742 0 0 0
206 1 -1.4918941268207693 26.627066634825088 27.788469647916443 0 0 0
203 1 -1.3113346032066888 28.788199233941256 25.746504963703007 0 0 0
1144 1 7.117666662625721 35.87783947775883 30.092973206756138 0 0 0
1432 1 10.425139708491226 35.86678556721534 30.1237879717903 0 0 0
492 2 0.3921439683970287 26.594793745939583 25.7125730601404 0 0 0
529 1 0.3913986466911301 28.909855509377152 27.83083627900029 0 0 0
494 1 2.029136234624199 26.69228829204719 27.95974281190587 0 0 0
491 1 1.9590366606256153 28.848529591607928 25.698199185141362 0 0 0
780 1 3.6216152959736774 26.73271954902318 25.40475025278692 0 0 0
782 1 5.148440139250518 26.65138356329476 27.82987641257297 0 0 0
779 1 5.3770018548532335 29.061884514374515 25.58534317440515 0 0 0
817 1 3.65970759454517 29.07306717529418 27.84049907494266 0 0 0
1068 1 7.031969874198548 26.745829955744043 25.542385770243566 0 0 0
1067 2 8.652146093566245 28.99590212377196 25.48410515657166 0 0 0
1070 1 8.784880738108022 26.719111706918003 27.76426858972208 0 0 0
1105 1 7.043761391011122 28.937456410956923 27.81344864047625 0 0 0
1356 1 10.440615197434246 26.71266727949663 25.672877970107205 0 0 0
1358 1 12.165972353801818 26.76498377736744 27.98385880720181 0 0 0
1355 1 12.196496398050028 29.068218936876704 25.641627611391506 0 0 0
1393 1 10.372645852053981 29.04481562480406 27.80558234368076 0 0 0
242 1 -1.4764000765704424 31.009259935011055 27.76811717893272 0 0 0
528 1 0.3825366884021215 31.231459193884557 25.54265649727284 0 0 0
530 2 2.009414521481069 31.207862111990277 27.883889211308567 0 0 0
816 1 3.519092274495143 31.226917896504577 25.527269939051696 0 0 0
818 1 5.3935726051645645 31.285528597910748 27.985648217452876 0 0 0
1104 1 7.052255892483872 31.3495388415949 25.55554742014456 0 0 0
1106 1 8.6335972491758 31.224980171088646 27.746169231502105 0 0 0
1394 1 12.164378218491915 31.08860757966769 27.801573438085367 0 0 0
1392 1 10.30973562423463 31.192194631101042 25.4615973809858 0 0 0
239 1 -1.639775952775537 33.44041344516083 25.568935239025116 0 0 0
277 1 -2.9560921659612958 33.492582443157744 28.087680473576352 0 0 0
565 1 0.14528511304032143 33.33540192346034 27.950457045946067 0 0 0
527 1 1.8341327029885632 33.48066355132559 25.658252962285886 0 0 0
853 1 3.64656577065401 33.603868111357826 27.877396380748873 0 0 0
815 1 5.181455217571534 33.4626678499211 25.576447346884176 0 0 0
1141 1 6.929717247657159 33.637647325200795 27.975051334192887 0 0 0
1103 1 8.501751263314043 33.574827023858575 25.658774088751844 0 0 0
1391 1 12.1444075404582 33.36324800451845 25.561051686869515 0 0 0
1429 1 10.441415454862069 33.47814802355768 27.74344776546777 0 0 0
278 1 -1.299992027062837 35.78225551655238 28.017453436464645 0 0 0
275 1 -1.4143397296545186 38.10479717984051 25.632680417031924 0 0 0
564 1 0.13241617623882806 35.75553201121455 25.544224159680613 0 0 0
313 1 0.3010325034760055 38.207760659430065 27.972225832551068 0 -1 0
563 1 1.741333083940153 38.08882675340644 25.61252203132172 0 0 0
566 1 1.8946683887133653 35.784598443302336 27.862440241521675 0 0 0
601 1 3.590179813665595 37.99420930182272 27.923744845414593 0 -1 0
852 2 3.5576641184334634 35.838852693407375 25.618983122876305 0 0 0
851 1 5.2728430481841055 37.93256613035439 25.633894993950054 0 0 0
854 1 5.329849521512763 35.95613826039087 27.824557480009585 0 0 0
1140 1 6.7892296879237595 35.74719136486578 25.52404219741425 0 0 0
1139 1 8.594053154286318 37.88472358784804 25.703684717584533 0 0 0
1142 2 8.697311470241583 35.87065754311412 27.808524619929525 0 0 0
889 1 6.951668877704115 38.16079692838308 28.000293743470834 0 -1 0
1430 1 11.989129288377436 35.74923683660071 27.88439747731238 0 0 0
1428 1 10.44481684722847 35.727737256772 25.623344232497242 0 0 0
1427 1 12.05912057708085 37.94436537779907 25.57711409846454 0 0 0
1177 1 10.456824973509699 37.98631728588603 27.983722965818856 0 -1 0
174 1 -1.4246136358475514 22.170625396176995 32.28919203927623 0 0 0
1181 1 10.487118937900298 38.109682749055494 32.5372870957386 0 -1 0
460 1 0.395837024719353 22.086341316411637 30.108921091913263 0 0 0
462 1 1.9837064977685688 22.231359164165312 32.29194902287317 0 0 0
748 1 3.6631515276217486 22.09727895232676 30.115519268518643 0 0 0
750 1 5.264760320497823 22.21223077792026 32.47008624661775 0 0 0
1036 1 6.900956258363621 22.24942559551196 30.18569790305826 0 0 0
1038 2 8.823421189331093 21.99476492216924 32.27744835297757 0 0 0
1324 1 10.523453223328225 22.08569104466548 29.93531982539149 0 0 0
1326 1 11.93260406317511 22.22072406767045 32.42012754890382 0 0 0
171 1 -1.2923593466240941 24.471620711307807 29.9690047497787 0 0 0
1434 2 12.107880168210498 35.767483107927994 32.46858860100488 0 0 0
497 1 0.233768489464933 24.366309281801318 32.35410117144484 0 0 0
459 1 1.9593710815282033 24.452822289497266 30.23919187806106 0 0 0
785 1 3.5994648622568914 24.478608381784777 32.500674587337215 0 0 0
747 1 5.363951441086041 24.540695905187434 30.17619479853489 0 0 0
1073 1 7.298009684540794 24.247768318616206 32.152490698010205 0 0 0
1035 1 8.8192452807107 24.38452163756801 29.97977678907583 0 0 0
1323 1 11.928327766347016 24.498039088263745 30.18377273982074 0 0 0
1361 1 10.300261492015322 24.54998569773053 32.44784343466167 0 0 0
210 1 -1.4633096114711794 26.684056958431565 32.41051785388264 0 0 0
207 1 -1.4696529143367887 28.779026042592402 29.861125208789915 0 0 0
1431 1 12.114204417104535 37.987420714845015 30.279500225732086 0 0 0
533 1 0.07744238755189414 29.013963122692875 32.315870943475915 0 0 0
496 2 0.28767511477210617 26.782366878212336 29.950278443684983 0 0 0
498 1 1.791956555736983 26.69979963405234 32.29336980780529 0 0 0
495 1 2.0670633731474335 29.017814353673575 30.261254753235093 0 0 0
784 1 3.762902476194157 26.834731791646497 30.229686999167427 0 0 0
786 2 5.492751504488279 26.59971172045778 32.43904910859136 0 0 0
783 1 5.454366381852054 28.99717023902476 29.98138282212172 0 0 0
821 1 3.8537947651593245 28.967570325514387 32.35446175678737 0 0 0
1072 1 6.934598578427456 26.711757522424737 29.930580568385267 0 0 0
1074 1 8.51276932521075 26.782751387265762 32.313698906715885 0 0 0
1071 1 8.646859005760279 29.029138995618222 30.03133977134159 0 0 0
1109 1 7.022984926914441 29.087952778424537 32.38638022803102 0 0 0
1359 2 11.931673166676905 29.058847880460466 30.115815654174906 0 0 0
1360 1 10.357288982168368 26.761165200250584 30.199532312171748 0 0 0
1362 1 12.058805076203635 26.734808338421974 32.52323564888181 0 0 0
1397 2 10.441936355944824 28.944547558657177 32.2558422888146 0 0 0
246 1 -1.2736327126248232 31.454891981042394 32.42275974282373 0 0 0
893 1 6.96624227008277 38.0217133096355 32.45133994770441 0 -1 0
532 1 0.05896320394814225 31.210978654611242 30.07201455118025 0 0 0
534 2 1.9397247789949188 31.17340888291343 32.22577090600181 0 0 0
820 1 3.9048267095912785 31.285169008126314 30.155365532918637 0 0 0
822 1 5.49815352545358 31.38717812613958 32.534368275415844 0 0 0
1108 1 7.1323762749075 31.298672542831866 30.12594167775684 0 0 0
1110 1 8.85621646065993 31.16837323436877 32.488976027424386 0 0 0
1396 1 10.309202414280742 31.34837232949998 29.928705843926544 0 0 0
1398 1 11.831162286386402 31.33560709297963 32.2906356559984 0 0 0
243 2 -1.2824010384396283 33.59801929135239 30.434885015741173 0 0 0
569 1 0.5650974305108218 33.52997236571042 32.52901511897042 0 0 0
531 1 2.0771970474115915 33.36278744747895 30.129235778633397 0 0 0
857 1 3.7054442900359548 33.58586109336758 32.468030853922485 0 0 0
819 1 5.312603089924448 33.73344301140342 30.103713761054916 0 0 0
1145 1 6.991067983549746 33.68829612348554 32.255644866530815 0 0 0
1107 1 8.766954366901956 33.581184764216616 30.021512614527175 0 0 0
1433 1 10.466633400378218 33.538380798001214 32.400901048143886 0 0 0
1395 1 12.071594449529375 33.64665344482386 30.06620301929375 0 0 0
29 1 -3.081982268072949 38.03548196181311 32.4398305327596 0 -1 0
282 1 -1.3640990481694406 35.69960462778137 32.37142622201033 0 0 0
279 1 -1.513764079018302 37.92014348851709 30.180515742131277 0 0 0
568 1 0.45913363087053893 35.576724987601 30.28321330758012 0 0 0
317 1 0.19729390665862256 38.19426518315612 32.43839244848755 0 -1 0
570 1 2.164164227864237 35.98268531994697 32.59232538488709 0 0 0
567 1 2.0539278888355343 38.11082467836447 30.224864519634774 0 0 0
856 2 3.551942871665181 35.71469799348456 30.08377795217131 0 0 0
605 1 3.639187811429863 38.18570016364731 32.41450327906789 0 -1 0
858 2 5.193460368012477 35.85301599957844 32.14480287902663 0 0 0
855 1 5.275147630545064 38.132282635367304 30.198731440494004 0 0 0
1143 1 8.67064833324707 38.0835365464001 30.238051968807916 0 0 0
168 1 -3.05362808614106 21.999763394359263 25.52516045317322 0 0 0
244 1 -2.9196324782710334 31.33465882737908 30.1232725713787 0 0 0
209 1 -2.9584013519298265 24.3466738003186 32.23876962339192 0 0 0
178 1 -1.4202730853021954 22.20892460198934 36.69903173898079 0 0 0
464 1 0.17801299570179285 22.07264098184551 34.579104624151896 0 0 0
466 1 1.7105959079447834 22.05823935179215 36.945015547635975 0 0 0
752 1 3.6551508275329945 22.21813385578715 34.66319865922716 0 0 0
754 1 5.353342241279332 22.289158874484784 36.71636254720819 0 0 0
1040 1 7.1636869167917165 22.145597332592935 34.56269325845331 0 0 0
1042 1 8.577156417329315 22.08231936005588 36.889289082262295 0 0 0
1328 1 10.31179719929295 22.239225698065567 34.68820786163057 0 0 0
1330 1 12.303006585052806 22.294449546124508 36.97514982905703 0 0 0
175 2 -1.5307849185077966 24.336613960150395 34.68139390097197 0 0 0
1369 1 10.379095373598526 28.937489064525373 41.321970660692486 0 0 -1
501 1 0.060036785791226954 24.486564047657343 36.9612885757024 0 0 0
463 1 1.822461718595743 24.51477580191808 34.653391842779 0 0 0
789 1 3.487173152059771 24.436787128343795 37.014595939751345 0 0 0
751 1 5.622387726339374 24.46359058783631 34.63526129766392 0 0 0
1077 2 7.157737995842421 24.510628906432466 36.96079393928687 0 0 0
1039 1 8.690242554737422 24.577105638674677 34.74539509070196 0 0 0
1327 1 12.125235131311193 24.549662774804887 34.67458943295277 0 0 0
1365 1 10.452133628778796 24.36943721199364 36.93081791738467 0 0 0
214 2 -1.3370783529550605 26.814491911765895 37.004753358420984 0 0 0
211 1 -1.468815830341355 28.933114446776642 34.64009841226783 0 0 0
212 1 -2.9729910973709512 26.65030753359794 34.6610798046008 0 0 0
794 1 5.4740613725145515 31.23343432646551 41.384842478000834 0 0 -1
500 1 0.13866894524417717 26.619567725247467 34.67029175598117 0 0 0
537 1 0.2892252263083517 29.03744757825484 36.89867882692914 0 0 0
502 1 2.071581053741322 26.637771051250297 36.89278503266969 0 0 0
499 1 1.7539923298825468 28.858890416961156 34.5413987751344 0 0 0
788 1 3.662732588330194 26.63004476572574 34.634671479327494 0 0 0
790 1 5.130050103281578 26.766928003843805 36.9339926288785 0 0 0
787 1 5.299526436124813 28.913245432577124 34.70314864736588 0 0 0
825 1 3.5996064256947684 29.115895407366416 36.81384246343363 0 0 0
1076 1 7.0522052758520175 26.70251421109971 34.75371477262688 0 0 0
1078 1 8.872953256182544 26.580298592037735 36.85022419819805 0 0 0
1075 1 8.896871042523111 28.833992245587673 34.57787820886229 0 0 0
1113 2 7.11635606178913 28.81816876508559 36.80939135755851 0 0 0
1364 2 10.390581279703252 26.659548565626938 34.697856645597795 0 0 0
1366 1 12.05177498030914 26.80922632872754 36.77122154985034 0 0 0
1363 1 12.01070996929547 29.04683897588768 34.63746509572324 0 0 0
1401 1 10.410678212644767 29.005306274275707 36.86534203369759 0 0 0
250 1 -1.3677731712330756 31.227625138580937 36.926596499626385 0 0 0
536 1 0.2862620790254149 31.20494461219544 34.72831766462758 0 0 0
538 1 1.9572695298689973 31.32676290224753 36.88778840044594 0 0 0
824 1 3.6529848718312734 31.214785106952185 34.596496863125296 0 0 0
826 1 5.423461466203882 31.18466030743455 36.94735455244535 0 0 0
1112 1 7.180323348640968 31.044150982424473 34.747997894944206 0 0 0
1114 1 8.813890654421277 31.40620752501921 36.894542878965126 0 0 0
1400 1 10.412092567149047 31.300960384253464 34.76852273135944 0 0 0
1402 2 12.036340749045177 31.45927812741449 37.03878737995865 0 0 0
247 1 -1.3966677747381568 33.53069190349469 34.780515829082844 0 0 0
252 1 -3.045421061943286 31.271671150272276 39.11322614815499 0 0 0
573 2 0.23678950535767163 33.50545381215084 36.94558917038421 0 0 0
535 1 2.094777586094222 33.48202079428603 34.69026418664495 0 0 0
861 1 3.7862172978670983 33.45006702673969 36.878381191639406 0 0 0
823 2 5.38220875298167 33.320298332278156 34.539095787782756 0 0 0
1149 1 6.949169160124033 33.521521801919796 36.838913141368735 0 0 0
1111 1 8.624026740492832 33.5870048807813 34.53570269995569 0 0 0
1437 1 10.469760080225191 33.75702497286612 36.745852773070794 0 0 0
1399 1 12.149946548024936 33.705832094499044 34.694682082692864 0 0 0
283 2 -1.4087711262041331 38.007598701624715 34.735764880976774 0 0 0
286 1 -1.3660528909673555 35.863421480279726 36.957914255963075 0 0 0
288 2 -3.0440894778927237 35.883563457327675 39.18831877144348 0 0 0
572 1 0.2653221245047477 35.80844918173989 34.665078043414354 0 0 0
321 1 0.4279166999605537 38.08313304174601 36.82053820800829 0 -1 0
571 1 2.100579802062716 38.131008563338234 34.67842561169044 0 0 0
574 1 2.1776847909633035 35.717252034184064 36.92578836705884 0 0 0
609 1 3.747411421718755 38.04302164675237 37.018573494212305 0 -1 0
860 1 3.7846175390155286 35.84254465594613 34.66527773005346 0 0 0
859 1 5.316039999808844 38.13214794147493 34.63079253523968 0 0 0
862 2 5.25899185746397 35.85108715345346 37.03124765903027 0 0 0
897 1 6.97244861497372 38.133470037845406 36.87773260978986 0 -1 0
1148 1 6.783830144524597 35.78723985819892 34.596544795420314 0 0 0
1150 1 8.597963535779082 35.904202873857884 36.89858203083834 0 0 0
1147 1 8.541463474324601 37.99529439919746 34.76394860903629 0 0 0
1436 2 10.422533115775556 35.903188837096444 34.76306769982544 0 0 0
1435 1 12.179474984893004 38.074121750712045 34.663473824338354 0 0 0
1438 1 12.177837844008582 35.88740163026947 36.86380583691923 0 0 0
1185 2 10.40839083215477 38.01339018097845 36.95542006152073 0 -1 0
285 1 -2.9901362162349185 33.59733179998088 36.8833585457286 0 0 0
1439 1 12.177823272046208 38.214936471037596 39.193098441982116 0 0 0
468 1 0.2068861322159532 22.238128890680624 39.25202372535584 0 0 0
182 1 -1.424182177213154 26.60931866000603 41.42696483285009 0 0 -1
756 1 3.560265053312421 22.351166521630443 39.28462659129772 0 0 0
1081 1 7.153011416784608 28.99459049074014 41.37111628905646 0 0 -1
1044 1 6.909998941723362 22.298142395309473 39.22742096750858 0 0 0
1332 2 10.510683172499409 22.06546167432815 38.96382580920087 0 0 0
1334 1 12.006378046668985 26.717186029184816 41.3790645203689 0 0 -1
179 1 -1.356796882008256 24.577966415864378 39.27390661970804 0 0 0
467 1 1.9916605760987927 24.541238981544446 39.26456985123423 0 0 0
1045 2 6.903443358627667 24.377218212956613 41.39721186024323 0 0 -1
755 1 5.271302798528794 24.50096385621107 39.10130464532661 0 0 0
1043 1 8.799056138649199 24.363651239217646 39.14699631557386 0 0 0
1115 2 8.686900700182363 33.46946032075738 39.135294503533544 0 0 0
1331 1 12.193092379038994 24.33457496587092 39.26782840011866 0 0 0
215 1 -1.4831080114346997 28.97542582603698 39.039678770770465 0 0 0
1152 1 6.9602373559777355 35.65845059330305 39.2427276479429 0 0 0
1440 1 10.334932299090687 35.843377989432796 39.087380070919664 0 0 0
504 1 0.4266505125832385 26.796269816936103 39.04329513476327 0 0 0
503 1 1.908597474430104 29.1086945671782 39.16850427094718 0 0 0
213 1 -3.0404873413817604 24.592005250419074 36.94599248755084 0 0 0
792 1 3.695412580399736 26.81085218569883 39.26960411850865 0 0 0
791 1 5.478175946355369 28.885560089406283 39.092145981340735 0 0 0
1151 1 8.63879394747726 37.99953854153543 39.24759339156613 0 0 0
287 1 -1.247396296128315 37.98637609303099 39.1644287775152 0 0 0
506 1 1.8922439621787608 31.32281279560153 41.4232412056284 0 0 -1
1080 1 7.035541358542577 26.585246618782534 39.07459214645955 0 0 0
1079 1 8.691147990882866 28.80932941397824 39.03024882912504 0 0 0
864 1 3.7043506876645913 35.84860568383199 39.2844754060671 0 0 0
1368 2 10.458434534200514 26.624870157031282 39.1321932049284 0 0 0
1367 1 11.999764690768425 28.955476899783612 39.10527961644924 0 0 0
827 1 5.39266896937969 33.4554905994153 39.11541277419221 0 0 0
863 1 5.419999017540086 38.076740060519 39.25106644450527 0 0 0
540 2 0.36112567931885486 31.319968340774935 39.132017773461556 0 0 0
575 1 2.0519897973755925 38.11678955787736 39.20421043290949 0 0 0
576 1 0.4713825594642067 35.75214012021289 39.09059998880862 0 0 0
828 1 3.727235889783539 31.159552355510993 39.119468620192364 0 0 0
1116 1 7.183227750287061 31.14977355274428 39.12416744434043 0 0 0
1404 1 10.342168080214936 31.209228285654753 39.20061729404841 0 0 0
251 1 -1.4915394559971062 33.5272330966549 39.15758842330989 0 0 0
1403 1 12.025228292348137 33.55217529239394 39.07652499861962 0 0 0
539 1 2.0554822827316444 33.46481134266905 39.15315805244356 0 0 0
284 1 -2.894368944396828 35.82412134514797 34.59756626265083 0 0 0
793 1 3.715458910101091 29.040631993692056 41.36171118986661 0 0 -1
1405 1 10.498643101047088 33.55477109748675 41.3357075500176 0 0 -1
253 1 -3.0997863684280818 33.59401655616691 41.315213863761045 0 0 -1
829 1 3.674227433085574 33.308672990391415 41.3696864202806 0 0 -1
1046 1 8.616745396831828 26.636146642675957 41.364991484386366 0 0 -1
541 1 0.3152488311177608 33.55328400254143 41.37995605125141 0 0 -1
254 1 -1.18520505196557 35.7075366998478 41.40406093007664 0 0 -1
505 1 0.1802371065286037 29.041520170964198 41.391227677509846 0 0 -1
865 2 7.0144596629813645 37.973546211544104 41.4001332901819 0 -1 -1
218 1 -1.5434350512900743 31.30562004888007 41.442727482458636 0 0 -1
1118 1 8.74188960290904 35.68712024422301 41.30774602221061 0 0 -1
1153 1 10.478709474505063 37.95521175124918 41.28473189660953 0 -1 -1
1333 1 10.380095125427072 24.569207889246705 41.39720963555864 0 0 -1
1370 1 12.220965690177604 31.293837736283947 41.34485394506237 0 0 -1
1298 1 11.975687867051798 22.151093921969384 41.323573685731915 0 0 -1
1010 1 8.676454595372348 22.065910470999032 41.360823946194984 0 0 -1
1444 2 13.75721612001297 4.0877044126302176 2.9655653024207993 0 0 0
1732 1 17.373010410665447 4.199332416221149 2.9853886605874114 0 0 0
2020 1 20.45906007110969 4.48091714193774 2.9364780844348455 0 0 0
2419 1 25.604538737625397 19.85422513968512 7.4133415194240655 0 0 0
2308 1 23.900964835302524 3.900856405991717 2.9710161696765898 0 0 0
2053 2 20.60931446538714 6.491976485120074 0.9078910391659094 0 0 0
2596 1 27.31370732196678 4.017106736925678 2.8134994834651565 0 0 0
1443 1 15.402765168779855 6.45488544252096 2.968674783227527 0 0 0
2054 1 22.266902076710775 8.713648100215213 0.7445135070787225 0 0 0
1731 1 18.600971984405188 6.441208337973047 3.094318894830611 0 0 0
2341 1 24.033382999510863 6.384116620032837 0.7533530182811169 0 0 0
2125 2 20.395452696166473 15.378533014946608 0.8722884620272717 0 0 0
2019 1 22.38341607237811 6.466737382558579 3.0337307586601767 0 0 0
2307 1 25.750379293671713 6.313813200614101 3.041067212726668 0 0 0
1480 1 13.887441007242579 8.61414251967122 3.0553699361263016 0 0 0
1479 1 15.517184009093576 10.86945016014936 2.91282927341331 0 0 0
2018 1 22.149737367785196 4.329841711041212 0.7457378186219151 0 0 0
1768 1 17.129385100003187 8.640294946444975 2.914425863718026 0 0 0
1767 1 18.79252372505555 10.934005124994615 2.9207051953942895 0 0 0
2741 1 27.452982505780117 19.984637386301603 5.265791594875717 0 0 0
2056 1 20.37858778287072 8.69175445577018 3.1276935373778363 0 0 0
2055 1 22.249953565745162 10.931045290770383 2.926481826552465 0 0 0
2344 1 24.10948802530944 8.650128668671098 2.879722089223465 0 0 0
1514 1 15.49412996997031 13.288145864646024 0.7461681197262099 0 0 0
1766 1 18.90571478132429 8.654282774774074 0.7417652724446798 0 0 0
1477 1 13.847479273170595 6.301493599118672 0.7864089218156125 0 0 0
2632 2 27.349932431745795 8.613683320676854 2.995041510683665 0 0 0
2343 1 25.692720815484478 10.78540056030372 3.0795712814127847 0 0 0
2418 2 25.640354199242886 17.656703769435595 5.403459361526943 0 0 0
1516 1 13.848078100244582 13.31387149617428 2.9796066930688725 0 0 0
1804 2 16.95140436366084 13.14884506331957 3.1481689271262714 0 0 0
2092 1 20.444612770167474 13.251324262145019 2.868859662644541 0 0 0
2380 2 23.90443862211988 13.197429837646133 3.0399969170319676 0 0 0
2668 1 27.240209432544393 13.160470237834291 2.9079557787883448 0 0 0
2130 1 22.36249500452008 17.711092163390283 5.2273291951875205 0 0 0
1515 1 15.536610253783177 15.478500794475833 2.9822919426941668 0 0 0
1803 1 18.5101147468237 15.361713165264277 3.036317136010428 0 0 0
2091 1 22.24389080649409 15.534587752288687 3.0020712047233062 0 0 0
2379 1 25.59013267488901 15.515915990537344 2.961627972454714 0 0 0
2453 1 23.862138869395153 20.00371379901387 5.160313624811637 0 0 0
1552 2 13.786933708124383 17.575926726727168 2.981112008014536 0 0 0
1551 1 15.340115252488403 19.913051854169943 3.0372832130611616 0 0 0
2165 1 20.60905820844289 20.001792920665803 5.1092140871979135 0 0 0
1840 1 17.159354431693796 17.702475537766464 3.0476840355926615 0 0 0
1839 2 18.79394616434969 19.87708252534269 3.002034735398912 0 0 0
2420 1 23.814075606184417 17.51008829583971 7.516656034065688 0 0 0
2131 1 22.131500386742974 20.00551124544572 7.385060795564997 0 0 0
2128 1 20.360089921270138 17.675696616626333 3.016090132453908 0 0 0
2708 1 27.425949823144617 17.730068679901414 7.511717567594969 0 0 0
2127 1 22.084235090293934 19.97800430654595 2.9638980884555046 0 0 0
2416 1 24.04291975897281 17.771605498679527 2.9357665923877723 0 0 0
2415 1 25.49945474755361 20.0724632299933 2.8707479784800207 0 0 0
2704 1 27.047700272655934 17.668245005184055 3.076231607037637 0 0 0
1448 1 13.722733283605713 4.013622679203769 7.505925842456469 0 0 0
1446 1 15.450268019514013 4.094692231433526 5.229328564263007 0 0 0
1736 1 17.323345619081696 4.214824178167891 7.564544964398116 0 0 0
1734 1 18.93366011742702 4.335314702367215 5.333874227542428 0 0 0
2024 2 20.532468317682746 3.9568600662543414 7.4353758108645795 0 0 0
2022 1 22.1065789432317 4.188221063849215 5.187429766548235 0 0 0
2312 1 23.989248281235277 4.085226293298195 7.586443462792588 0 0 0
2310 1 25.66255619739839 4.042908033325711 5.074189880743696 0 0 0
2600 1 27.223529550947536 4.177025335542524 7.5750952269259475 0 0 0
1447 2 15.387289735088292 6.243027852319037 7.665075164025361 0 0 0
1481 1 13.819762532879956 6.430963523772424 5.216727753384836 0 0 0
1769 1 16.984625272151387 6.418940123058128 5.365396505380479 0 0 0
1735 1 19.061306927553655 6.418113548978697 7.5508092421557045 0 0 0
2057 2 20.52805927492677 6.627439256474414 5.103208356197852 0 0 0
2023 1 22.09056809073773 6.40106438180705 7.52250321385591 0 0 0
2345 1 23.88832574505324 6.368889137588298 5.3391700931057455 0 0 0
2311 2 25.486438673104704 6.39391927284318 7.6661188237738145 0 0 0
2633 1 27.239585978449078 6.356404450219337 5.338026091693971 0 0 0
1484 1 13.848939123024792 8.638220567624096 7.511046992905721 0 0 0
1517 1 13.832557398257883 10.828827377370352 5.203791912809475 0 0 0
1482 2 15.58393504308372 8.698177066746139 5.278771554734956 0 0 0
1483 1 15.609237814182197 10.891419055785965 7.439518993684715 0 0 0
1772 1 16.985536189126087 8.495274701031878 7.630023642559254 0 0 0
1805 1 17.10125723219145 11.116606192915391 5.164844797961707 0 0 0
1771 2 18.69538148426208 10.864965892748295 7.547732822322752 0 0 0
1770 1 18.61068020584856 8.689898717297053 5.371831847115903 0 0 0
2060 1 20.547631929642815 8.757642745199984 7.420470729577527 0 0 0
2093 1 20.509540604059648 10.77349510132699 5.269931913781783 0 0 0
2059 1 22.288062406949816 10.874615663379066 7.366723019359878 0 0 0
2058 1 22.346166930152204 8.748301851931732 5.1411720584780145 0 0 0
2348 1 23.934249785290497 8.670596845658302 7.585633602978997 0 0 0
2381 1 23.92213435571794 11.195889508537343 5.264507102861776 0 0 0
2636 1 27.25312457586338 8.537702500989436 7.566433553849769 0 0 0
2346 1 25.521189451277476 8.6529209952478 5.24005468143017 0 0 0
2347 1 25.57390051698499 10.946642747700214 7.466960713195078 0 0 0
2669 1 27.294990352657006 10.863173305993199 5.228991375030034 0 0 0
1518 1 15.360854541062526 13.316439999000075 5.248048803415139 0 0 0
1520 1 13.599883516890795 13.13978239938886 7.617396788990276 0 0 0
1808 1 17.210237106366264 13.278780359659878 7.435693656564965 0 0 0
1806 1 18.885855648195022 13.242625882570293 5.217064273357222 0 0 0
2096 1 20.49245681890717 13.123500334372347 7.500073619457325 0 0 0
2094 1 22.053162743334543 13.158263730906675 5.160336933272371 0 0 0
2384 1 24.031408542199834 13.15373551962878 7.524884864559327 0 0 0
2382 1 25.68224338855761 13.23592357892269 5.298074033577573 0 0 0
2672 2 27.426706193860436 13.191962422539923 7.54105731485963 0 0 0
1553 1 13.702406401380454 15.472773155611801 5.150572161063584 0 0 0
1519 1 15.337608989354248 15.319145431075087 7.487664840807808 0 0 0
1841 1 17.22767660273023 15.54984965877852 5.378151405542146 0 0 0
1807 1 18.848858634392204 15.397801410041962 7.446903663863356 0 0 0
2129 2 20.368016563434473 15.602956067222095 5.064120869081741 0 0 0
2095 1 22.061895965681853 15.395070601024777 7.3892746510050085 0 0 0
2417 1 23.92809400679925 15.282767465383793 5.306466835835131 0 0 0
2383 1 25.65244494114524 15.37591923972956 7.469429347522375 0 0 0
2705 1 27.395879298332236 15.606378111546752 5.300550892854811 0 0 0
1556 1 13.569722027733345 17.659806873044072 7.413418538207475 0 0 0
1589 2 13.640891522213337 19.957875321917918 5.4094045589428905 0 0 0
1555 1 15.479965219230177 19.875608491441312 7.559002078728151 0 0 0
1554 1 15.235663574888534 17.841541662061143 5.234130777862215 0 0 0
1877 1 16.88815078906147 20.061588077147203 5.310748175716736 0 0 0
1843 2 18.779714304492494 19.97711759722795 7.367135679410211 0 0 0
1842 1 18.67655647440364 18.004955354369145 5.309285143527699 0 0 0
1844 1 17.06083983954252 17.704027940816733 7.398071588107252 0 0 0
2132 1 20.391079573238024 17.694271376600156 7.33404799847324 0 0 0
1838 1 18.78517498948454 17.7287061106016 0.7312428143911684 0 0 0
2377 1 23.99583876419118 10.79580379093171 0.7878731293321313 0 0 0
1802 1 18.654269511752744 13.176830082343297 0.8339679169335592 0 0 0
1765 1 17.22908287597322 6.4815500600896385 0.7216117457678191 0 0 0
2090 1 22.412910527879326 13.135898641464536 0.835248618703494 0 0 0
2126 1 22.01709121522303 17.70600805834294 0.8772851003216956 0 0 0
1549 1 13.634188651120407 15.554329123059148 0.8043548142145254 0 0 0
2089 2 20.48433268262066 11.006611794250688 0.7337619975715818 0 0 0
2701 2 27.295251222026952 15.360461296146651 0.7612427741681632 0 0 0
1478 1 15.304211233317975 8.631091534660632 0.834123424136162 0 0 0
1513 1 13.700815613825217 10.987286912821185 0.893822053337959 0 0 0
1585 2 13.758321354033477 20.03456721848957 0.7486332580724385 0 0 0
2665 2 27.108129815639344 11.136727003089913 0.8663133550432693 0 0 0
2342 1 25.910095396798955 8.655091932408837 0.7495724993101547 0 0 0
1452 1 13.89547313051687 4.0400694490701365 12.118210122762449 0 0 0
1450 1 15.486693648355786 4.103917769432587 9.651916711136785 0 0 0
1740 1 17.048780589874887 4.099168520992192 12.028556664581396 0 0 0
1738 1 18.7369784936714 4.261151494763311 9.896809374215938 0 0 0
2028 1 20.587776511799934 3.969291109568588 12.268065728622217 0 0 0
2026 1 22.033639608871038 3.932360069387423 9.798386357338641 0 0 0
2316 1 23.782040244603042 4.1122161673240365 12.046500390694462 0 0 0
2314 1 25.471195626600668 4.145563778288651 9.866463769402412 0 0 0
2604 1 27.34281132911204 4.137414054547297 12.057821701379133 0 0 0
1451 1 15.415701021601187 6.538411651817626 12.054893043228299 0 0 0
1485 1 13.638569644447777 6.232876477852578 9.702763597171257 0 0 0
1773 2 17.089022191781392 6.459130805551257 9.78315390754623 0 0 0
1739 1 18.728780403713934 6.40180488342775 12.02820950016176 0 0 0
2061 1 20.54174563113678 6.352509792172971 9.899652030185255 0 0 0
2027 1 22.039581337115738 6.365727537009603 12.324456673017755 0 0 0
2349 1 23.648475837572125 6.272394024428878 9.795957466022983 0 0 0
2315 2 25.42406096671158 6.39528114147856 11.888316795408683 0 0 0
2637 1 27.39815159857023 6.405510244802793 9.893236211778229 0 0 0
1488 1 13.644454222028127 8.609898965500559 12.061147007393856 0 0 0
1486 1 15.298685878964644 8.528417695026047 9.775175590837677 0 0 0
1487 1 15.392528761975445 10.90946056410084 12.000828291652546 0 0 0
1521 1 13.727663814362895 10.834725921714766 9.628142465615165 0 0 0
1776 1 17.142755868009765 8.77813884831609 11.970825976509207 0 0 0
1809 1 17.096966485973876 10.917952297202495 9.830692357323255 0 0 0
1774 1 18.83802435798679 8.62688017337548 9.792178961805957 0 0 0
1775 1 18.950057172332848 10.797767372327968 11.975870589459818 0 0 0
2064 1 20.509812110649356 8.521438919333946 12.029952058117809 0 0 0
2097 1 20.656339152510313 10.913238978657173 9.666850063171932 0 0 0
2063 1 22.11271749997487 10.86771035028419 11.915240986106543 0 0 0
2062 1 22.277748623053018 8.687268791962625 9.855423329448303 0 0 0
2352 1 23.812025713790298 8.735874842810727 12.12213051085458 0 0 0
2385 1 23.952081347789473 10.793204417702347 9.749828514286326 0 0 0
2640 1 27.227272099603535 8.563026586585053 12.055160576237595 0 0 0
2350 1 25.57186461380787 8.415286102612889 9.8311732244181 0 0 0
2351 1 25.62798470544141 10.992208990916506 12.11468285156857 0 0 0
2673 1 27.43962579026513 10.833822182655275 9.796232583972747 0 0 0
1522 1 15.378891944941767 13.080002114735178 9.762227503323412 0 0 0
1524 1 13.631561807203695 13.159964377065894 12.000646753661433 0 0 0
1812 1 17.29604544415946 13.094430403242727 12.042162330426391 0 0 0
1810 1 18.786106631824378 13.19578115922843 9.705659444836785 0 0 0
2100 1 20.499926076721447 13.1481882197883 11.897009752791304 0 0 0
2098 1 22.40106837816232 13.153898991585132 9.517823872347384 0 0 0
2388 1 23.849377200116564 13.08609707418502 11.977194611340073 0 0 0
2386 1 25.726993840803956 13.142439925752287 9.798615066902679 0 0 0
2676 1 27.324707355071208 13.099824552138323 11.992004883569255 0 0 0
1523 1 15.502980459077055 15.347702696900495 12.143635555093141 0 0 0
1557 1 13.489721005688846 15.419363366390156 9.823658801172508 0 0 0
1845 1 17.118052895785812 15.3855876401382 9.664622313793135 0 0 0
1811 1 18.779806294270003 15.39691695808349 11.980821480556209 0 0 0
2133 2 20.55192521313262 15.16242992792013 9.70988736732161 0 0 0
2099 1 22.38331473581544 15.41989649452609 11.958302990100835 0 0 0
2421 1 23.9234697343474 15.45888921147888 9.69206240103264 0 0 0
2387 1 25.487833582858364 15.285373927682878 12.062261015690416 0 0 0
2709 1 27.34682814117478 15.442896569495227 9.832929049848676 0 0 0
1560 1 13.752761108657847 17.484588142734985 12.07767579231157 0 0 0
1558 1 15.238289444479776 17.695058317750785 9.62466372330543 0 0 0
1593 1 13.783763106474822 20.067103586461876 9.752904813928852 0 0 0
1559 1 15.408316531083475 20.016251668752542 12.047196196294841 0 0 0
1848 1 16.97433552895143 17.656786215251735 11.888787147993323 0 0 0
1881 1 17.068921044314788 19.78832775834822 9.717854174567172 0 0 0
1846 1 18.873263339229165 17.537715838470774 9.760943518210954 0 0 0
1847 2 18.83046827284417 19.686752293299474 11.897247431138998 0 0 0
2136 1 20.610181363612416 17.613220117271588 12.045131577302037 0 0 0
2169 1 20.631169293818605 19.744977865100118 9.597176804644743 0 0 0
2135 1 22.25908723496564 19.989727415881777 11.968329327752947 0 0 0
2134 1 22.089166098910933 17.62265539230388 9.78962388414524 0 0 0
2424 2 23.962935665927112 17.73965578880447 11.928582016347358 0 0 0
2457 1 23.911686254157054 19.72046197630662 9.575841296045887 0 0 0
2423 1 25.522138641359245 19.963928843037632 11.87429629199732 0 0 0
2422 1 25.693882518263617 17.796906295741074 9.78817751236451 0 0 0
2712 1 27.178016983675477 17.502410444489765 12.044205807106247 0 0 0
2745 1 27.284337601478803 20.164411675249696 9.61958183224528 0 0 0
1456 1 13.847703689789363 4.098975164520492 16.709090903157474 0 0 0
1454 2 15.302677261720902 3.955731596005834 14.476389257792023 0 0 0
1744 1 17.161784671052473 4.09531523454511 16.64094165749075 0 0 0
1742 1 18.675918703273464 3.9856945817740774 14.300432547172342 0 0 0
2032 1 20.486039723277127 4.028664547676119 16.38930475192771 0 0 0
2030 2 22.2534795001425 4.200532248541075 14.36914126432051 0 0 0
2320 1 24.03337094366926 4.201369837087657 16.471698675984747 0 0 0
2318 1 25.576504882549933 4.039193899408545 14.175922001599108 0 0 0
2608 1 27.203804121394928 3.9664729172959126 16.4492316220375 0 0 0
1455 1 15.32777477328808 6.327012542736546 16.53552209984455 0 0 0
1489 1 13.717983727141583 6.361693743096629 14.246855822192341 0 0 0
1777 1 17.05485499915373 6.269913405383269 14.387004754437548 0 0 0
1743 1 18.912323181103336 6.442439562117933 16.56932516353445 0 0 0
2065 1 20.30353039804421 6.181440747140501 14.391788953585955 0 0 0
2031 1 22.16240559292737 6.383041650102517 16.3531026584621 0 0 0
2353 1 24.040406923793636 6.337917904240342 14.231391128439348 0 0 0
2319 2 25.82093626464622 6.396696626507836 16.66314307068727 0 0 0
2641 1 27.284962029802564 6.204811598719071 14.183815545954268 0 0 0
1492 1 13.762803605875046 8.579000217884252 16.436660427646192 0 0 0
1490 1 15.431499116956388 8.70359519875164 14.267044667662855 0 0 0
1491 1 15.459388581348943 10.99075928322554 16.475002324718055 0 0 0
1525 2 13.58219381969645 11.014590179095336 14.162130662733524 0 0 0
1780 1 17.155039626642502 8.665861053590366 16.568512644563917 0 0 0
1813 1 17.260614393969387 10.920191296184358 14.139066158699626 0 0 0
1779 1 18.92635493600134 10.913736867473125 16.567797431619184 0 0 0
1778 1 18.775011090751438 8.619595480170688 14.19038985750719 0 0 0
2068 1 20.419384580034883 8.677177153953057 16.54696582902827 0 0 0
2101 2 20.433066457210185 10.877514256940144 14.248854317686687 0 0 0
2066 1 22.113776654527644 8.535927170205532 14.288258450915421 0 0 0
2067 1 22.132012238302956 10.925553501392764 16.504213250973816 0 0 0
2356 1 23.7868297486619 8.571862996089742 16.443511154514134 0 0 0
2389 1 23.753794165248248 10.864186416067216 14.254103684087873 0 0 0
2644 1 27.355586027531643 8.646140579524818 16.637986419683052 0 0 0
2354 1 25.62252987516501 8.565576202003744 14.283324166759066 0 0 0
2355 1 25.708695264832826 10.832861117624972 16.52316041676982 0 0 0
2677 1 27.335537506104462 10.833182403630424 14.297986368361396 0 0 0
1526 1 15.436488949297704 13.078564656509442 14.234767217168086 0 0 0
1528 1 13.850851123096003 13.216305296345293 16.556739426900833 0 0 0
1816 1 17.156417457273026 13.183517657370695 16.55972568343111 0 0 0
1814 1 18.91951705842791 13.168420802324215 14.350718584429409 0 0 0
2104 1 20.578882919263467 13.14885468143801 16.37512515172417 0 0 0
2102 1 22.201736527241785 13.269732190678244 14.099946860031743 0 0 0
2392 2 23.998709238248523 13.040353279888507 16.501917327606552 0 0 0
2390 1 25.63145841082037 13.019525545202228 14.293694819867216 0 0 0
2680 1 27.307774452911385 13.072031455878387 16.558153859563312 0 0 0
1561 1 13.977992583892611 15.431304867977277 14.3916196440432 0 0 0
1527 2 15.434296338158376 15.491205565246235 16.764955048437198 0 0 0
1849 1 17.06341925014397 15.355429963132432 14.458393903422001 0 0 0
1815 1 18.945880477890448 15.447592517156854 16.575176067218727 0 0 0
2137 1 20.532797400510685 15.462164671986802 14.195247234188775 0 0 0
2103 1 22.11476002628914 15.439520989859876 16.47403847692228 0 0 0
2425 1 23.94987393197982 15.27468395165154 14.468477414053062 0 0 0
2428 2 23.92084537702523 17.45400466528242 16.664157509362557 0 0 0
2391 1 25.757543128975193 15.400266888637926 16.549695476756177 0 0 0
2713 1 27.14159308727727 15.33934088349094 14.215515508743877 0 0 0
1564 1 13.738195777819655 17.58114855317136 16.543066531976358 0 0 0
1563 1 15.475427006216616 19.75664243543396 16.562693693025405 0 0 0
1562 2 15.418872455506392 17.713641946644106 14.347830994461747 0 0 0
1597 1 13.643753290420904 20.012863989708617 14.234905251127172 0 0 0
1852 1 17.293486694238574 17.552791430642376 16.618081840844887 0 0 0
2427 1 25.580081035330732 19.824600499987685 16.523574247146065 0 0 0
1851 1 18.91452882410592 19.989848500869808 16.46760080608825 0 0 0
1850 1 18.655627291913554 17.490147150405477 14.207132714663528 0 0 0
2140 1 20.626078683271057 17.67932660378345 16.42305178818726 0 0 0
2173 1 20.421748196003374 19.862971192452708 14.289222890948892 0 0 0
2139 1 22.25149012021847 19.87441616648975 16.46497716387732 0 0 0
2138 1 22.2642340598413 17.69461789847997 14.266021541450797 0 0 0
2461 2 24.025264745239387 20.079423802521706 14.173314796795468 0 0 0
2426 1 25.614621360133423 17.58390905779459 14.312115143349445 0 0 0
2749 1 27.158751003414658 19.77517315980244 14.284683289126914 0 0 0
2716 1 27.49900782914954 17.705221491496616 16.444944403558534 0 0 0
1885 1 17.15462639392243 19.807383803711936 14.18598988227073 0 0 0
1458 1 15.591920072735896 4.164487059808281 18.903069264341326 0 0 0
1460 1 13.927045893670467 4.0679470525544765 21.23921504208241 0 0 0
1746 1 18.784838973976505 4.073525818430112 18.882164768968707 0 0 0
2034 1 22.152720429940167 4.134792515698119 18.858145561055434 0 0 0
2324 1 23.998271068344994 3.9616554230811083 20.92386509699007 0 0 0
2322 1 25.60348762296466 4.050605645288759 18.805838446139923 0 0 0
2612 1 27.354713532418476 4.180556959816935 20.980826503711313 0 0 0
1493 1 13.781023536604483 6.3952563359594015 18.878804976778003 0 0 0
1459 1 15.548189357125505 6.306451963700712 21.17683615363482 0 0 0
1781 1 17.104183647251144 6.470777041897094 18.752894848296812 0 0 0
2069 1 20.517972052379275 6.43341631732776 18.801906502999522 0 0 0
2357 1 23.856695268830364 6.192198780588189 18.572934790646155 0 0 0
2035 2 22.274754248697313 6.346783754844136 21.080292942877414 0 0 0
2645 2 27.333024398248195 6.391539007337609 18.934675538579338 0 0 0
2323 1 25.49672335445543 6.230388533835517 20.909631743499208 0 0 0
1494 1 15.319671007468202 8.629139689303532 18.800392994408117 0 0 0
1529 1 13.712089137095806 10.963020269918903 18.722175557448754 0 0 0
1817 1 17.18130389909873 10.853397158973225 18.69842441651372 0 0 0
1782 1 18.769121262186296 8.5527252874262 18.935149063077127 0 0 0
2105 1 20.568868113420827 10.921053638778654 18.862058635235474 0 0 0
2071 1 22.332722585636596 10.951285379776408 20.992252644256386 0 0 0
2070 1 22.30432660867596 8.569968388662499 18.765604931103994 0 0 0
2393 1 23.96923685564713 10.948785834645793 18.840715258005 0 0 0
2358 1 25.610116438609126 8.538773227472209 18.760431675502023 0 0 0
2681 2 27.386678439891412 10.684405094220493 18.815930935103655 0 0 0
2648 1 27.407417954378328 8.407340334967857 21.002676635579856 0 0 0
2359 1 25.652828730797296 10.877073027534443 21.118081537850898 0 0 0
1530 1 15.572867852709262 13.15116909044193 18.848137224516346 0 0 0
1532 1 13.549654943857302 13.186727496846878 20.89926548618266 0 0 0
1818 1 18.842592663517777 13.171776007938103 18.98276456884363 0 0 0
2106 1 22.194863802754927 13.300413755111633 18.667719848718864 0 0 0
2396 1 24.02721543771389 13.10541347812977 21.18203026393975 0 0 0
2394 1 25.657821859736224 13.104612981204824 18.683689539232944 0 0 0
2684 1 27.184640365700083 13.204942778915115 21.075276124612156 0 0 0
1565 1 13.623878698239231 15.306030470792725 18.759761290738258 0 0 0
1531 1 15.476183740975731 15.326917505025566 20.8228354348557 0 0 0
1853 2 17.274933027324842 15.445741447352217 18.7049081388508 0 0 0
2141 1 20.613310644034016 15.5071041532175 18.861714742994433 0 0 0
2429 1 24.111561385922556 15.540856659120466 18.790179608393075 0 0 0
2107 1 22.402741261979507 15.315773230683407 20.98711773069952 0 0 0
2717 1 27.38192782263176 15.425015625400738 18.81755328883628 0 0 0
2395 1 25.690300795297688 15.407916469410893 21.132216823624884 0 0 0
1566 1 15.479674727447126 17.602742806003864 18.771178272682526 0 0 0
1601 1 13.888767449166252 19.87741678405859 18.77203324405119 0 0 0
1567 1 15.615662077536822 19.8715436298768 21.117004568946488 0 0 0
1568 1 13.828260802720681 17.599702898532776 20.953281494158027 0 0 0
1889 1 17.203136403588342 19.96721940093546 18.786868420129647 0 0 0
1854 1 19.039128432649207 17.69092408362782 18.87153520423903 0 0 0
1855 1 18.735873248215785 19.798497431515774 21.139440207783707 0 0 0
2177 1 20.526053740677284 20.129911315838253 18.79690221642662 0 0 0
2142 1 22.225242440875505 17.74681308340299 19.01345859544451 0 0 0
2143 1 22.353882995154493 19.858722988575597 21.08316547326818 0 0 0
2465 1 23.89219051119289 19.85498712153385 18.75796140444849 0 0 0
2432 1 23.940312643378565 17.61983851718662 21.188698782316713 0 0 0
2430 1 25.81127639335802 17.735501467757793 18.73220509211023 0 0 0
2753 1 27.3387104072364 20.051190488254186 18.760729078592654 0 0 0
2431 1 25.558388154697617 19.91889999636101 21.03926576265477 0 0 0
2720 1 27.37679324749987 17.704250001647907 21.222208445272617 0 0 0
1462 1 15.472004057881119 4.013921212767316 23.47534117871197 0 0 0
1748 1 17.096025749040326 4.044384834622684 21.16508478780298 0 0 0
1750 1 18.725752809724508 4.2053879298195245 23.493123033663796 0 0 0
2036 1 20.47713418618683 4.1845413931827915 21.097828489778028 0 0 0
2038 1 22.308094762134175 4.010819491871312 23.285785029780172 0 0 0
2326 1 25.551896250922628 4.031968332579969 23.199643221119704 0 0 0
1497 1 13.732777052842426 6.1885442376430495 23.33090743737835 0 0 0
1785 1 17.143160143944232 6.340226181981203 23.48424857697256 0 0 0
1747 1 18.750878339254577 6.347041516660022 21.07943782890856 0 0 0
2073 1 20.64201239099915 6.3362872598478415 23.31517503938834 0 0 0
2361 1 24.001406487441958 6.381657277179439 23.218557814740464 0 0 0
2649 1 27.21037557451017 6.236831068354861 23.302946094750496 0 0 0
1496 1 13.830878951065156 8.528117925102872 21.18298339571383 0 0 0
1495 1 15.454986596812681 10.896394445782493 21.02144770514512 0 0 0
1498 1 15.243167120462626 8.589662777401248 23.508621922628063 0 0 0
1533 1 13.78365479818454 10.828151909462395 23.417555821892822 0 0 0
1783 1 18.81177585604164 10.823752442485628 21.030437540343847 0 0 0
1784 1 17.05977206781686 8.561994721896054 21.13208386093198 0 0 0
1821 1 17.155824276365706 10.886509555987724 23.340759319397268 0 0 0
1786 1 18.7552446347573 8.597953538157617 23.228745301148265 0 0 0
2072 1 20.59494917444124 8.63065797574173 21.031680311876148 0 0 0
2109 1 20.555416957249385 10.848277307443615 23.2036394088717 0 0 0
2360 1 23.876341644174204 8.680815546321135 21.215343984600135 0 0 0
2074 1 22.168153834046997 8.579605785273774 23.358075458358012 0 0 0
2397 1 23.868697438071212 10.851815868670553 23.367683378904083 0 0 0
2362 2 25.65776743887513 8.603161272256532 23.37686458454053 0 0 0
2685 1 27.312372339158674 10.87159910722558 23.366692846282792 0 0 0
1534 1 15.32701390203357 13.106545321251259 23.26203832579219 0 0 0
1820 2 17.23142604052126 13.126228571684127 21.123844161749332 0 0 0
1822 1 18.905116132225313 13.11058901241627 23.31971148557973 0 0 0
2108 1 20.601728660908268 13.081507482560953 21.100181617212773 0 0 0
2110 1 22.170071260517414 12.999689450970116 23.323987771815787 0 0 0
2398 2 25.587902952535977 13.073967458271193 23.346213062192135 0 0 0
1569 1 13.996830109334468 15.478709186596056 23.457398344958033 0 0 0
1819 1 18.82575837600085 15.40888780728973 21.023515911362765 0 0 0
1857 1 17.04305317332778 15.240740297271666 23.287636793322424 0 0 0
2145 1 20.570492281571564 15.299464450183494 23.119569926387353 0 0 0
2433 1 23.991785969900587 15.307195944099602 23.33130846894018 0 0 0
2721 1 27.181074145343025 15.313347409443804 23.392517989770614 0 0 0
1605 1 13.875262525738723 20.002977068674028 23.3992073548319 0 0 0
1570 1 15.545014371285475 17.691183178917818 23.420257748564563 0 0 0
1856 1 17.1301812806827 17.525759276712698 20.903001403875127 0 0 0
1893 2 17.299144565659 19.83729678230446 23.404428835127998 0 0 0
1858 1 18.752135458862156 17.470916639634368 23.053924569163883 0 0 0
2144 2 20.616202582407105 17.714418066372232 21.153892552473316 0 0 0
2181 1 20.414636039614344 19.88963782804581 23.18548662493166 0 0 0
2146 1 22.24369587331516 17.53158190001684 23.264576669600586 0 0 0
2469 1 23.93049187846346 20.00420681932507 23.419157229401275 0 0 0
2757 1 27.25470970913194 19.892305809425196 23.30364840608777 0 0 0
2434 1 25.52151826914906 17.63473624398864 23.359633443996607 0 0 0
1464 1 13.727929506368628 4.033592420984197 25.746513177989684 0 0 0
1466 1 15.439092586143026 4.1460540307674485 27.88715421922048 0 0 0
1752 1 17.128797846367284 4.012882329236317 25.772443614164345 0 0 0
1754 2 18.9335712373461 4.008023228559979 27.98814155545737 0 0 0
2040 1 20.604374117063433 4.04215607052895 25.651058157780746 0 0 0
2042 1 22.082287734712736 4.128558026500499 27.857046604674423 0 0 0
2328 1 23.84045230182073 4.173604383471581 25.52210925399415 0 0 0
2330 1 25.67139038480843 4.193248122483537 27.878198601853086 0 0 0
2616 1 27.15869362739054 4.211176296838103 25.428564372620873 0 0 0
1463 1 15.473927225777047 6.198760451338012 25.759203000775408 0 0 0
1501 1 13.590167110913821 6.4109999646607045 27.842652446596016 0 0 0
1789 1 17.233029454020798 6.376684709702909 27.993819040128802 0 0 0
1751 1 18.880644560391225 6.245334020672778 25.63597830683833 0 0 0
2077 1 20.514508583006126 6.388473033339953 28.014613679602842 0 0 0
2039 1 22.311081485604443 6.382579762921684 25.67681020975063 0 0 0
2365 1 23.91366524871481 6.32553172050942 27.90848034581756 0 0 0
2327 1 25.49182097884796 6.4533078975851215 25.517743437355385 0 0 0
2653 1 27.45836346291602 6.4218443824802245 27.82387645552196 0 0 0
1500 1 13.645705575704351 8.52308149083902 25.760717874688293 0 0 0
1502 1 15.485429327197753 8.496628261005188 28.016431307286563 0 0 0
1499 1 15.572118142408232 10.849976018453637 25.545636010508773 0 0 0
1537 1 13.890401156105234 11.048983525121994 27.883862374451443 0 0 0
1788 1 17.178554992917284 8.530077142845155 25.68680530080882 0 0 0
1825 1 17.15072941741206 11.044459633426877 27.90348884122202 0 0 0
1787 1 18.955123816239766 10.909895140427833 25.63986091641452 0 0 0
1790 1 18.79739364255664 8.51372996073793 27.96880699475001 0 0 0
2076 1 20.443309940254395 8.684862441537389 25.592497550974343 0 0 0
2113 1 20.495062365177347 10.895269078666605 27.949917306703103 0 0 0
2075 2 22.1621409663743 10.855170835140893 25.493451312045185 0 0 0
2078 1 22.191557116702825 8.696546816767057 27.922456449872747 0 0 0
2364 1 23.938017815904924 8.689367754301653 25.580586144316072 0 0 0
2401 1 23.929640669863247 10.881771855881537 27.99502333873857 0 0 0
2652 1 27.319910037557452 8.629862248299649 25.648346423177244 0 0 0
2366 1 25.528325277227054 8.662066170152714 27.93084340281994 0 0 0
2363 1 25.633482783798865 10.80037950890641 25.490106529286432 0 0 0
2689 1 27.333787474352246 10.954404550582916 28.06887889103499 0 0 0
1536 2 13.772041116579203 13.325442493209684 25.63830794249731 0 0 0
1538 1 15.624519853470158 13.424212263976802 27.77478897799417 0 0 0
1824 1 17.179326984826748 13.056489923555828 25.57647707259898 0 0 0
1826 1 18.884783609738943 13.288755480031142 27.765691168794085 0 0 0
2112 1 20.532401251964476 13.119955516899648 25.701434081864626 0 0 0
2114 1 22.183923044666912 13.037640240274008 27.85202908135391 0 0 0
2400 1 23.813372854855984 13.090761957668667 25.646547383853225 0 0 0
2688 1 27.11818969575248 13.199662419180413 25.614248775300076 0 0 0
2402 1 25.531504143624257 13.170490944622106 27.92397319670676 0 0 0
1535 1 15.781295888519928 15.446183367613168 25.570691762628176 0 0 0
1573 1 13.81550482023297 15.494110662190337 27.68573393030286 0 0 0
1861 1 17.41810093642215 15.487950831685886 27.764450357923877 0 0 0
1823 1 18.941179471253925 15.422412243445688 25.364006802785227 0 0 0
2149 2 20.51173011389524 15.457301313077792 27.766429274264084 0 0 0
2111 1 22.05586368775076 15.458934142623692 25.552769128179296 0 0 0
2437 1 23.591781355840435 15.428455438260329 27.686491697982568 0 0 0
2399 1 25.487920828349207 15.594458985226831 25.74831662219142 0 0 0
2725 1 27.21731126288506 15.328320082703582 27.994941763489013 0 0 0
1572 1 13.897124206492922 17.722169803018723 25.537084100833987 0 0 0
1571 1 15.670179787285623 19.882386348562378 25.71690231523933 0 0 0
1574 1 15.722053724399228 17.733867706897108 27.824942124184524 0 0 0
1609 1 13.897372937738425 19.943607489869922 27.82484388835786 0 0 0
1860 2 17.431892710085837 17.64552540004216 25.591194551041582 0 0 0
1897 2 17.278157413234986 20.166441921667786 27.960974768944116 0 0 0
1862 1 18.986099542665745 17.85002759478629 27.87535803093669 0 0 0
1859 1 18.82494208238044 20.083141270246443 25.714524545847162 0 0 0
2148 1 20.434887802487204 17.693370799954415 25.50450700462658 0 0 0
2185 1 20.534240452919118 20.18773477721015 27.817080161312205 0 0 0
2150 1 22.001961688898703 17.84989642755989 27.84546380304229 0 0 0
2147 1 22.061092789685844 19.99599506146082 25.623862686097528 0 0 0
2436 1 23.729889675749742 17.701981028146335 25.685918704648426 0 0 0
2473 1 23.82994008566494 20.007481131318908 27.86098879438576 0 0 0
2435 1 25.631623291691678 19.932098025480755 25.636911036705882 0 0 0
2724 1 27.343811786385213 17.78161695863814 25.576540842418886 0 0 0
2438 2 25.481535470259765 17.729438358580683 27.797697826728882 0 0 0
2761 1 27.323742471099557 19.956985493810507 27.9351203126217 0 0 0
1468 1 13.692346584067078 4.123837651287228 30.11217417454336 0 0 0
1470 1 15.338879230773014 4.049651848007233 32.35451977218062 0 0 0
1756 1 16.934821116663233 4.039287925110038 30.112511881330782 0 0 0
1758 2 18.790172689639036 4.074605278172523 32.28750219082299 0 0 0
2044 1 20.607856251538372 4.1320666196201605 30.126272244497713 0 0 0
2046 1 22.347724685047705 4.046465947555708 32.56271415191317 0 0 0
2332 2 23.84171057031506 4.198721559894736 30.09648311529593 0 0 0
2334 1 25.60437586085116 4.168524619216656 32.32988253865648 0 0 0
2620 1 27.36702383928694 4.069790303605576 30.108525379225636 0 0 0
1467 2 15.531422239730919 6.3396179162814725 30.017463258010658 0 0 0
1505 1 13.890135878297748 6.5680867902839655 32.2444954003207 0 0 0
1793 1 17.02073868815019 6.32249840135039 32.39796128246374 0 0 0
1755 1 18.86353244747322 6.122821649236938 30.24728471957941 0 0 0
2081 1 20.50407895806432 6.36316951217586 32.39846572305885 0 0 0
2043 1 22.268302968319688 6.459686051740714 30.136837694119592 0 0 0
2369 1 23.955450569194554 6.496100943530277 32.28119597431191 0 0 0
2331 1 25.637895154301976 6.364735336639498 30.003675672561755 0 0 0
2657 2 27.172622480781524 6.452813566572934 32.32201161180072 0 0 0
1504 1 13.878352909441144 8.637263993853015 30.158152878173905 0 0 0
1506 1 15.583647631415754 8.751672796728048 32.44274990771248 0 0 0
1503 1 15.477739504218334 10.95898161589989 30.105481057108893 0 0 0
1541 1 13.716983073148182 10.889630523378845 32.4893054494071 0 0 0
1792 1 17.18093467322106 8.56641434640979 30.2754856406368 0 0 0
1829 1 17.297072937980563 10.974109164102389 32.38541665319465 0 0 0
1794 2 18.80850355601479 8.468450429365522 32.371620853753896 0 0 0
1791 1 18.772567655860538 10.86195878349013 30.13878547264126 0 0 0
2080 1 20.430506688063886 8.555579835562048 30.170637544116417 0 0 0
2117 1 20.45760977438725 10.771346267673787 32.496704680786166 0 0 0
2079 1 22.088063377041784 10.816074004891478 30.283013339040554 0 0 0
2082 1 22.22094456645308 8.716650429450858 32.39470920949806 0 0 0
2368 1 23.974841303543357 8.588840885870091 30.28937583692299 0 0 0
2405 2 23.84907368187202 11.088867490335904 32.430164927962224 0 0 0
2656 1 27.09186445124769 8.619372863743234 30.240976092170335 0 0 0
2370 1 25.469396593327634 8.768294043595569 32.59770771529496 0 0 0
2367 1 25.580211884379203 10.863108727122144 30.150801488849577 0 0 0
2693 1 27.376297722530637 10.757158051832201 32.45438284116425 0 0 0
1540 1 13.65755151749617 13.281315899697304 30.160634462780976 0 0 0
1542 2 15.501363516917515 13.218494012187001 32.286053860253844 0 0 0
1828 1 17.337918952990314 13.19413802419096 30.114664562608073 0 0 0
1830 1 18.801279113366636 13.296708110429268 32.53158663071972 0 0 0
2116 2 20.487552478707602 13.143560705851236 30.197427956478467 0 0 0
2118 1 22.029075157019538 13.079446579210586 32.57321692287513 0 0 0
2404 1 23.637863642897464 13.245140249096256 30.24401737993739 0 0 0
2406 1 25.712565040618756 13.095266118988476 32.48709727659353 0 0 0
2692 2 27.20573831976395 13.274073810192501 30.20858893074728 0 0 0
1539 1 15.654636137665108 15.459488553322405 29.94950829211837 0 0 0
1577 1 13.918419530332375 15.374465317166877 32.33212383508308 0 0 0
1865 1 17.033547875982052 15.462268998478322 32.34434189914002 0 0 0
1827 1 18.95159169596314 15.443966930206429 30.233147677767246 0 0 0
2153 1 20.535295410594 15.48879561050235 32.54091621327662 0 0 0
2115 1 22.044740376153452 15.435153439942667 30.076074015629477 0 0 0
2441 2 23.734062994216885 15.33948601829777 32.35683104005045 0 0 0
2403 1 25.34022327128542 15.373926023164977 30.074586741015064 0 0 0
2729 1 27.357059674334753 15.463635277941638 32.31222890692839 0 0 0
1576 1 13.841390244115338 17.680276828004107 30.076437849216006 0 0 0
1575 1 15.541001894691167 19.961711885034116 30.175838391605236 0 0 0
1613 2 13.878180095177477 20.131173163157083 32.453626332648945 0 0 0
1578 1 15.531770729739307 17.903832915315483 32.34376024539252 0 0 0
1864 1 17.227865013060065 17.733408973807542 30.049200975325313 0 0 0
1901 1 17.194700941245763 20.1650815872724 32.441152174882674 0 0 0
1866 2 18.769220937849216 17.80950113299619 32.429731318526514 0 0 0
1863 1 18.91216190569323 19.96688797623303 30.21777859245147 0 0 0
2152 1 20.490127138620778 17.762428417574895 30.13899375566596 0 0 0
2189 1 20.69025978281906 20.170579160152347 32.44524017252802 0 0 0
2154 1 22.081872159020104 17.764482142430808 32.359848629981414 0 0 0
2151 1 22.17542446502329 20.054810041564153 30.01782637808634 0 0 0
2440 1 23.753186582171352 17.763163753184685 30.118562130785772 0 0 0
2477 1 23.936640094293587 20.067415642574165 32.56614348689406 0 0 0
2765 1 27.26315793153087 19.82363985271816 32.504550605185614 0 0 0
2439 1 25.544413250658923 19.799796030654147 30.271038917067617 0 0 0
2728 1 27.154974340016622 17.59989328019506 30.162618325171145 0 0 0
2442 1 25.36218880641831 17.67241329652846 32.329713636688695 0 0 0
1472 1 13.803714528949058 4.179728284570422 34.865470806585066 0 0 0
1474 1 15.590956726966311 4.1891886894237444 36.83778011884489 0 0 0
1760 1 17.274909089289547 3.994348639180428 34.5673980271786 0 0 0
1762 1 18.847476004508792 4.344368461408154 37.02863673143601 0 0 0
2048 1 20.47590017325033 4.050294856507689 34.653426101000434 0 0 0
2050 1 22.194613350945097 3.9809745726194388 36.771417434810886 0 0 0
2336 1 24.058282439380196 4.058695035433217 34.808714248531686 0 0 0
2338 2 25.565441028081768 4.07617374838292 37.12992279889596 0 0 0
2624 1 27.23128347054728 4.086796098023208 34.61124376890332 0 0 0
1471 1 15.591336088837917 6.432664950322749 34.86681830536665 0 0 0
1509 1 13.788002401565262 6.391847065754062 36.91063450018494 0 0 0
1797 1 17.230674642240228 6.455454784035022 37.01936029862718 0 0 0
1759 1 18.87244551575672 6.354967504041362 34.616980051116386 0 0 0
2085 1 20.620708530323064 6.366629561895485 36.970370146758356 0 0 0
2047 1 22.206559765616547 6.301210374004377 34.702278911964214 0 0 0
2373 1 23.7639538674813 6.269049261011272 36.8784127955349 0 0 0
2335 1 25.613207931749773 6.407730847841398 34.59703060286867 0 0 0
2661 1 27.316319846847335 6.213183891540556 36.959146202545085 0 0 0
1508 1 13.823658689576991 8.700547142022582 34.64554541626296 0 0 0
1510 1 15.5128091067502 8.611349874145507 37.050761119029346 0 0 0
1507 1 15.455139199883455 10.979321385879063 34.67053648672349 0 0 0
1545 1 13.895255430957228 11.076006398311236 37.03572169675954 0 0 0
1796 1 17.111316550169143 8.671533735888692 34.74982152564938 0 0 0
1833 1 17.106887069430055 11.026317338178627 37.098876175296596 0 0 0
1795 1 18.73790492918775 10.748175270048272 34.73395711650501 0 0 0
1798 1 18.77379841049985 8.634006848049946 36.93279144225046 0 0 0
2084 1 20.57672299610624 8.545570868972922 34.74186357445073 0 0 0
2121 1 20.43302181624496 10.99794613429787 37.074155984854514 0 0 0
2083 1 22.177438954981938 10.841381525234437 34.83305447841845 0 0 0
2086 2 22.22949914480976 8.757563539514448 37.047130784698126 0 0 0
2372 1 23.842066249469564 8.569376831264591 34.69962523411286 0 0 0
2409 1 23.824058718732537 10.91706460755104 36.97510175188552 0 0 0
2660 1 27.242205425849995 8.678426874451635 34.63464524650199 0 0 0
2374 1 25.40902691874416 8.465817733797369 36.890466343289006 0 0 0
2371 1 25.60310074620578 10.915890783386365 34.709482183669365 0 0 0
2697 1 27.252639781386666 10.693681761142038 37.125754789402336 0 0 0
1544 1 13.94178100380918 13.22672441892379 34.67790501039377 0 0 0
1546 1 15.596711028802321 13.395475136601984 37.090474597629466 0 0 0
1832 1 16.997949560493815 13.238341298814893 34.713099383231 0 0 0
1834 1 18.70361886680597 13.100906351534224 37.01850258830032 0 0 0
2120 1 20.463026003654846 13.16046442615969 34.84178238193617 0 0 0
2122 1 22.028571318519592 13.129369077768859 37.082440009523864 0 0 0
2408 1 23.780027693886996 13.133622983199542 34.65586461137387 0 0 0
2410 1 25.694514641743535 13.100834250597943 37.05644570187816 0 0 0
2696 1 27.366050643047018 13.125866354747396 34.78276291513595 0 0 0
1581 1 13.631836944180424 15.394779141362031 36.94793651983862 0 0 0
1543 1 15.47939703436148 15.467357508619063 34.83817601525945 0 0 0
1869 1 17.15519740896611 15.516703617373684 37.02159633523959 0 0 0
1831 1 18.665471848269306 15.613746164568909 34.636090883411185 0 0 0
2157 1 20.357842209633663 15.355126392252847 36.940757603622146 0 0 0
2119 1 22.297855662886086 15.40354382971123 34.675014073662965 0 0 0
2445 1 23.95515022248058 15.31990510470851 37.05112703909131 0 0 0
2407 1 25.493039831418972 15.33757914017335 34.73100122517893 0 0 0
2733 1 27.250495150416153 15.468379854211397 36.882625154672 0 0 0
1580 1 13.743518746569329 17.725961810526186 34.80321045642842 0 0 0
1579 1 15.561126715761784 19.977148680904275 34.8028707157568 0 0 0
1582 2 15.519798602932962 17.84945557658018 36.8480585369483 0 0 0
1617 1 13.631811971861005 19.881459127017713 36.85678737777128 0 0 0
1868 1 16.9936396661264 17.897203210630728 34.56932894916919 0 0 0
1905 1 17.286282022873618 20.0610592435733 36.77264261950651 0 0 0
1867 1 18.911787077895053 19.926577376468106 34.50417903219507 0 0 0
1870 1 18.842438425225826 17.839373071335036 36.78458745739634 0 0 0
2156 1 20.54357012633029 17.66333015202173 34.79261183432136 0 0 0
2193 1 20.531744949896716 19.997026593017793 36.99344259231749 0 0 0
2155 1 22.345519905671736 19.979307355141174 34.77132906300018 0 0 0
2158 1 22.229105721751434 17.732252534585026 36.955478700407184 0 0 0
2444 1 23.85697939775581 17.65500764212622 34.694195508525425 0 0 0
2481 1 23.8480086384973 19.993114192570175 36.98809059068104 0 0 0
2443 1 25.657280059073432 19.977416301368393 34.732644609483515 0 0 0
2446 2 25.556716960343337 17.72139889524972 37.009763293168305 0 0 0
2732 1 27.15133988281724 17.69197679175469 34.66149772468414 0 0 0
2769 1 27.42680215843358 19.956892355661928 36.92530742292645 0 0 0
1476 1 13.87666278588149 4.159923960494538 39.215786729229734 0 0 0
2447 1 25.647664895558815 19.895021544348438 39.20408838620217 0 0 0
1764 1 17.078200819030435 4.214756239502314 39.137230980948615 0 0 0
2052 2 20.66258222151473 4.12300424959458 39.10149373092973 0 0 0
2340 1 23.65781904789764 3.959649239179717 39.20616826492275 0 0 0
2628 1 27.507234717179475 4.058093672425289 39.15330532029323 0 0 0
2306 1 25.527226056063054 4.024685083211184 41.348062358653664 0 0 -1
1475 2 15.48182474286909 6.4366877469633215 39.1579300135985 0 0 0
1763 1 18.950921348286062 6.321262915260159 39.20348300212923 0 0 0
2051 1 22.23998389906597 6.490551564042122 39.21666175975423 0 0 0
1872 1 17.200020830264396 17.760934581783204 39.257123941417106 0 0 0
2339 1 25.38402295306491 6.26943078550364 39.09090705124319 0 0 0
2449 1 24.016783970410316 19.988685553202824 41.34963661387707 0 0 -1
1512 1 13.742176047885955 8.62808414365006 39.21517693153616 0 0 0
1511 1 15.303832380177173 10.846627020729542 39.26822528456451 0 0 0
2736 1 27.332609811748135 17.594611327205165 39.25235412482736 0 0 0
1800 1 17.26759641511821 8.502612159861696 39.29886489230954 0 0 0
1799 1 18.830980387094403 10.843723699747933 39.35177549963504 0 0 0
1837 1 17.139325414522013 15.48622595077719 41.38594758590281 0 0 -1
2088 1 20.526236034797492 8.728481078704496 39.312451950082576 0 0 0
2161 1 20.37274841237972 19.921589378971426 41.39169230357166 0 0 -1
2087 1 22.16100964626557 10.919420344561582 39.263570995679615 0 0 0
2376 1 23.889720846218324 8.684010842342964 39.29870135070132 0 0 0
2664 2 27.25237014998633 8.498165586270837 39.010925143492 0 0 0
2375 1 25.695802548076717 10.777206694887939 39.27579989105257 0 0 0
1548 1 13.575410729328883 13.205675374278684 39.376396027976696 0 0 0
1584 1 13.669082710175832 17.581969367241754 39.03424074533898 0 0 0
1836 1 17.111731339248717 13.152239069266141 39.35308618793526 0 0 0
2124 1 20.45413957032658 13.233514504508406 39.35183338096685 0 0 0
1583 1 15.399256263871049 19.99029374429785 39.09407084078296 0 0 0
2412 2 23.83224288298689 13.154168423226448 39.060416437527394 0 0 0
1871 1 18.76613375326292 20.183593899072847 39.12547762208024 0 0 0
2159 2 22.141769369697926 20.025247719763623 39.195700706072046 0 0 0
2700 1 27.314844675404842 13.085760989941456 39.4344465649972 0 0 0
1547 2 15.246094240094369 15.412788167610714 39.29177061643901 0 0 0
1835 1 18.97852554945358 15.512385141346408 39.29337837956395 0 0 0
1730 1 18.925430862735592 4.1399432767563145 41.44046812321568 0 0 -1
2448 1 23.86491377073223 17.633043677458495 39.30483311228927 0 0 0
2160 1 20.488133945696028 17.835268871785694 39.18780823525901 0 0 0
2123 1 22.156794690733022 15.392973283537064 39.161672153284854 0 0 0
2411 1 25.69041380476437 15.264166983681061 39.19436173459036 0 0 0
2629 1 27.44470517561714 6.2895524482060665 41.377305779699 0 0 -1
1550 1 15.437014764287909 17.800644341274186 41.37147176740589 0 0 -1
2414 1 25.623299664522623 17.729598090572708 41.43571700099106 0 0 -1
1442 1 15.58262650011067 4.065517233556209 41.43916475749877 0 0 -1
2378 1 25.43694317774369 13.213354188140473 41.352221708629955 0 0 -1
1801 1 17.02327927553601 10.877638002003506 41.40951618285496 0 0 -1
1873 1 17.10096727617643 20.060566261843213 41.334214357992806 0 0 -1
2737 1 27.22584228802681 20.117625456346953 41.37899812918177 0 0 -1
2413 1 23.717549621979842 15.62002913102703 41.430833051609 0 0 -1
1588 1 13.846679206625012 22.265346935163546 2.870274207965609 0 0 0
1441 2 13.67676582613657 38.282402720755854 0.8388109940522468 0 -1 0
1876 1 17.16656220293405 22.16505701903174 2.903045057860969 0 0 0
2164 1 20.443132864060924 22.33653791781376 3.002160893353338 0 0 0
2452 1 23.730579974565547 22.271371724229173 2.906953985767904 0 0 0
2852 1 27.346531872421682 35.877343996903896 7.474664885801342 0 0 0
2740 1 27.493350771253738 22.143913914527307 3.040774058447498 0 0 0
1587 2 15.541612149839342 24.450065452971533 2.813416653361371 0 0 0
1875 1 18.76263583401775 24.49973935436541 2.7703770525729574 0 0 0
2486 1 25.693323767258903 26.580192958165192 0.7812182461254913 0 0 0
2163 1 22.032749409597546 24.595325220483282 3.1713630140792395 0 0 0
2773 1 27.423599900286984 24.47848388221348 0.8216747607090028 0 0 0
2451 1 25.7665389548659 24.337799949769053 2.9205601367460265 0 0 0
1624 1 13.86217503079411 26.801723696000764 2.9423461010027845 0 0 0
1623 1 15.452784887603308 28.90809215249079 2.8237142821928702 0 0 0
2558 1 25.350851273192532 35.81512845335895 0.7680665876181482 0 0 0
2162 1 22.202659460843833 22.235530576277423 0.7410705345223596 0 0 0
1912 1 17.18169620864734 26.758009460422624 2.8821413668797873 0 0 0
1911 2 18.85031168362268 29.131673805424423 3.04708263879845 0 0 0
2200 1 20.38531572613347 26.76476238132988 3.006829113657498 0 0 0
2199 1 22.194469325274053 28.889756053377333 2.8245223193707996 0 0 0
2488 1 23.88177595054426 26.62844332339319 2.886034569791663 0 0 0
2776 1 27.27215523669743 26.71890687613151 3.0998054592140316 0 0 0
2487 1 25.706387152997447 28.98335216477043 3.1552835633452245 0 0 0
2563 1 25.48658462538242 38.058073956796235 7.412801151169291 0 0 0
1660 2 13.66306176646787 31.174922858426367 2.981277389367434 0 0 0
2564 1 23.97979096273028 35.82588133133996 7.331825068910785 0 0 0
1948 1 16.984803875480782 31.393960198622473 2.8760293190263058 0 0 0
2236 1 20.579483277788583 31.217032897604547 2.7945049162032016 0 0 0
2524 1 23.906272637539743 31.15796789353935 2.8469814629844676 0 0 0
2812 2 27.31961247302177 31.301516775381163 3.1103111554077136 0 0 0
1659 1 15.185398331606262 33.62254780817996 2.926358601181557 0 0 0
2562 1 25.72806880067002 35.71794642116228 5.071987700621467 0 0 0
1947 1 18.709285459952806 33.468736546846095 2.825817590256784 0 0 0
1694 1 15.372395774303296 36.10801849768093 0.7388328563388525 0 0 0
2235 1 22.197854659302113 33.44520120961199 2.9962360727320863 0 0 0
2523 1 25.508607954506253 33.557300782025166 2.9265381718137196 0 0 0
1696 1 13.711770006195845 36.011682074278525 3.0728315964582738 0 0 0
1695 1 15.47878704737256 38.27451605329207 2.8582698218324882 0 0 0
2597 1 27.13290918972603 38.08866845799813 5.180040812413706 0 -1 0
1984 1 17.123723100087624 35.91659613626797 2.78252600935178 0 0 0
1983 2 19.14906886370528 38.1481932502686 3.0603325357638838 0 0 0
2272 1 20.539948047509924 35.66011219956069 2.982802491291413 0 0 0
2309 1 23.767626580792538 37.98176575802935 5.08931274306162 0 -1 0
2274 2 22.05647203828866 35.688684310503604 5.25318248622978 0 0 0
2271 1 21.95113282305773 38.2349222019622 3.002455464806942 0 0 0
2560 1 23.757164882236896 35.912027441644746 3.0191172444654417 0 0 0
2275 1 22.324843793590464 38.04698030742026 7.413340253209148 0 0 0
2848 1 27.369535794485525 35.80770356925165 2.782866108988425 0 0 0
2559 1 25.741092883513282 37.97598587661361 2.851478498685399 0 0 0
1590 1 15.349279450848268 22.24957082700503 5.121401897719291 0 0 0
1592 1 13.71365565011147 22.208204362365958 7.5873597017127095 0 0 0
1880 1 17.16391562767716 22.235775251929645 7.590771139584434 0 0 0
1878 1 18.943428572232776 22.076022154936506 5.24431115336598 0 0 0
2168 1 20.4555563608525 22.36246485042207 7.493007904346049 0 0 0
2166 1 22.14744650740909 22.370177770699208 5.245006589050002 0 0 0
2456 1 23.945625765270044 22.23057276817226 7.3630707722127715 0 0 0
2454 1 25.667551672448724 22.227598674058555 5.24821768817486 0 0 0
2744 1 27.21141783008444 22.34567814162921 7.510139066018469 0 0 0
1625 1 13.85272997905669 24.55911016045773 5.178393336048408 0 0 0
1591 1 15.411590401958705 24.50087370130221 7.466132713703728 0 0 0
1913 1 17.1823094562165 24.480531834504156 5.241082257580255 0 0 0
1879 1 18.78136962424578 24.679475678583294 7.467225841951607 0 0 0
2201 1 20.176607174271865 24.687959036276517 5.179902131994569 0 0 0
2167 1 22.111063613067838 24.647572489335978 7.319297809534772 0 0 0
2489 1 24.043634708316986 24.570398895513083 5.12953535619181 0 0 0
2455 1 25.454487866500457 24.582886404473463 7.508992544777856 0 0 0
2777 1 27.104868130701718 24.558813512714124 5.274481149882735 0 0 0
1628 1 13.681697633857883 26.635609504639646 7.465089249178608 0 0 0
1627 1 15.331669170737257 29.055898248152186 7.441372492155317 0 0 0
1661 1 13.684987811687442 29.04883816592646 5.174540948400683 0 0 0
1626 2 15.481792057472418 26.748092074629476 5.281477750618269 0 0 0
1916 1 16.976125902687112 26.738426003072146 7.61722407065359 0 0 0
1949 1 16.96367889187255 29.094567966023472 5.242270464917529 0 0 0
1914 1 18.69019326254582 27.01602078098827 5.2922280044600924 0 0 0
1915 1 18.709536252211134 28.966259937889408 7.44564457611957 0 0 0
2204 1 20.373185157094028 26.889391508059344 7.5837005224510925 0 0 0
2237 1 20.59708955627581 28.981673405647957 5.054808103757834 0 0 0
2203 1 22.087094437843636 29.055409740656263 7.503262381852248 0 0 0
2202 2 22.068216598662314 26.71172909925226 5.060348902019013 0 0 0
2492 1 23.709055337339407 26.86848188397108 7.409149396566946 0 0 0
2525 1 23.772723397483215 29.044765165646808 5.160544494944786 0 0 0
2490 1 25.398074414089443 26.960435631668368 5.2509074259995465 0 0 0
2780 1 27.14799424357826 26.95082838507941 7.504970083645619 0 0 0
2491 1 25.385030261715638 28.977897725540313 7.447433530573447 0 0 0
2813 1 27.352068359277055 29.09810382025388 5.3288386416879385 0 0 0
1664 1 13.77752971385529 31.327646718532577 7.42579660634532 0 0 0
1662 1 15.431544373006297 31.401821614470773 5.146218901326935 0 0 0
1952 1 17.08147065263201 31.248104726664405 7.529557792476496 0 0 0
1950 1 18.75135942945884 31.183778034032674 5.152523471459317 0 0 0
2240 1 20.450154515392914 31.24351528441825 7.339395341079592 0 0 0
2238 1 22.118401311105064 31.24210195234503 5.105559059157167 0 0 0
2528 2 23.687464625577647 31.333528802569063 7.483972490154067 0 0 0
2526 1 25.501359742424125 31.262563530721774 5.127070158187002 0 0 0
2816 1 27.116067661390414 31.133232613352572 7.483175267109106 0 0 0
1697 2 13.701204683877766 33.68070316373483 5.272740822798632 0 0 0
1663 1 15.538331558807641 33.56671704275229 7.492816490374787 0 0 0
1985 1 17.249367983814352 33.543096816241956 5.138722405315936 0 0 0
1951 2 18.846952979763703 33.57676855436513 7.555071107780159 0 0 0
2273 1 20.30366451034167 33.460145264469375 5.101032045547017 0 0 0
2239 1 22.078723252419227 33.60716055102872 7.263211869047552 0 0 0
2561 1 23.898128155695733 33.48561789152451 5.2260770564898085 0 0 0
2527 1 25.62022483485334 33.43404585236593 7.428824563148601 0 0 0
2849 1 27.268450209196274 33.419477073530004 5.181720745052435 0 0 0
1698 1 15.663382329943037 35.86590194046689 5.134660088898234 0 0 0
1700 1 13.82539865018289 35.76234894490083 7.354011709794471 0 0 0
1699 2 15.49519140684993 38.14284893214607 7.4786481017087105 0 0 0
1445 1 13.907966765060625 38.117303290829675 5.241463715551498 0 -1 0
1986 1 18.770826411266935 35.82889554742023 5.177816906163802 0 0 0
1988 1 17.211031517812355 35.8285590247077 7.6429930463507825 0 0 0
1733 1 17.21582228813293 38.20126800765692 5.091841612964775 0 -1 0
2021 1 20.586448923815315 38.12054044593254 5.424842610563109 0 -1 0
1987 1 18.683836680673416 38.1140556581776 7.26559218910914 0 0 0
2276 1 20.374901811290986 35.85841768129768 7.415312201228988 0 0 0
2450 2 25.68453838423761 22.305319499381646 0.7898414812004612 0 0 0
2845 2 27.334200432272418 33.69047996093568 0.7197741104858204 0 0 0
1729 1 17.389606082477094 38.11141355164143 0.7950389614327108 0 -1 0
2809 1 27.31953941384888 29.02229869192219 0.9487559215191242 0 0 0
1982 1 19.110591360322676 35.841686862822 0.8307675053528923 0 0 0
1621 1 13.701485693677018 24.381291361235277 0.8573725537501535 0 0 0
2198 2 22.04028626895847 26.822977873407105 0.832257085690939 0 0 0
1945 1 17.21102363399157 29.153247234081988 0.7111462275577054 0 0 0
2522 1 25.654584792970574 31.210796148431452 0.7113292902745911 0 0 0
1594 2 15.498681443994467 22.20204152294101 9.808883760857782 0 0 0
1596 1 13.660878151008646 22.271996805589552 11.93539859978959 0 0 0
1884 1 17.145139368607335 22.035739078937635 12.018669105191108 0 0 0
1882 1 18.808462112933725 21.930399591941168 9.743131717698464 0 0 0
2172 2 20.179830978548853 22.021793573022105 12.178084049140107 0 0 0
2170 1 22.150928268562467 21.967476486261486 9.824083427192969 0 0 0
2460 1 24.106657255899762 22.227138579141556 12.123424964589143 0 0 0
2458 2 25.557010407513506 22.33050797715139 9.67837229486315 0 0 0
2748 1 27.403917771220787 22.425547658049595 11.995966055476604 0 0 0
1595 1 15.41815720597598 24.31681770749771 11.930759776280208 0 0 0
1629 1 13.713917977329046 24.50893458250114 9.734793136366017 0 0 0
1917 1 17.197546231477283 24.309843152445417 9.70455166750666 0 0 0
1883 1 18.722458797258447 24.366157595472384 12.22550158927554 0 0 0
2205 2 20.396049640494706 24.408815404510605 9.670348709554649 0 0 0
2171 1 21.97439319422138 24.35002866233215 12.063892158269073 0 0 0
2493 1 23.555327481315373 24.344012207056156 9.787028833489149 0 0 0
2459 1 25.739199104596814 24.52084101792457 11.993136541809738 0 0 0
2781 1 27.25823952125946 24.661872891309383 9.704945876571355 0 0 0
1632 1 13.559236724469585 26.83700709047656 11.940140324247318 0 0 0
1630 1 15.49905181429676 26.77200278510072 9.822404038469449 0 0 0
1631 1 15.502198451185947 29.10070971157115 11.9294520780909 0 0 0
1665 1 13.703414357401407 28.985728133507806 9.84235762908047 0 0 0
1920 1 17.043593483757395 26.6659700651342 12.051493371218422 0 0 0
1953 1 17.05697334874335 29.118358132681195 9.65091439299891 0 0 0
1918 1 18.78951540370772 26.838149909752303 9.817267955916966 0 0 0
1919 1 18.817349248050647 28.978467556365704 12.024297970118003 0 0 0
2208 1 20.22412276537298 26.599648138892974 12.001456874761615 0 0 0
2241 1 20.447055577006214 29.091128910180768 9.71671176270465 0 0 0
2207 2 22.101770415436892 28.748819432034985 11.930556410493494 0 0 0
2206 1 22.017711276796064 26.682270186223583 9.678899318930487 0 0 0
2496 1 23.751466430577462 26.548529477232776 11.90266963356849 0 0 0
2529 1 23.741550261414563 29.041965567507567 9.753582463786085 0 0 0
2495 1 25.51084848156228 28.876798762924874 12.027120018083362 0 0 0
2784 1 27.31203635997705 26.78383939068626 12.075481912174116 0 0 0
2494 1 25.485305976541547 26.835973388703568 9.735711448441517 0 0 0
2817 1 27.070380490600268 28.925985739500714 9.812250855439046 0 0 0
1668 1 13.905519087708043 31.2864392334583 12.338730821555783 0 0 0
1666 2 15.347752135216364 31.440447365013313 9.758149740109085 0 0 0
1956 1 17.047146671179103 31.30775326792103 11.98851307891725 0 0 0
1954 1 18.885044961711817 31.376668938697645 9.724485335896727 0 0 0
2244 1 20.60520250261123 31.210396361728435 11.97053781478601 0 0 0
2242 1 22.147207825859162 31.299959301377164 9.636704602605551 0 0 0
2532 1 23.703605510659276 31.079875290495124 12.14501159808407 0 0 0
2530 1 25.32441766646153 31.356863135241188 9.800958102624817 0 0 0
2820 1 26.96290898145973 31.361975967177322 12.083899064911579 0 0 0
1701 1 13.923387933011114 33.71422751994814 9.820624104662967 0 0 0
1667 1 15.585441609588628 33.594788209107406 12.10132324996736 0 0 0
1989 1 17.058173892910613 33.59801528312046 9.786704046085857 0 0 0
1955 2 18.843632315973817 33.45389030221838 11.914661906630181 0 0 0
2277 1 20.635386964105535 33.55071801272972 9.603289976119354 0 0 0
2243 1 22.292200830933506 33.49930836487785 11.864425723517233 0 0 0
2565 1 23.766443584633304 33.635712904474644 9.431488487041019 0 0 0
2531 1 25.380532833510813 33.510169657524116 11.853202404616678 0 0 0
2853 1 27.113780016279996 33.560350811884035 9.771539244076346 0 0 0
1704 1 13.722247135687361 35.75238544171785 12.059401229398151 0 0 0
1449 1 13.779521367329536 38.0904306566451 9.731955886647915 0 -1 0
1703 2 15.426284385997267 37.93616651343971 12.025957261821898 0 0 0
1702 1 15.406273970896319 35.99011068619114 9.800272036288996 0 0 0
1992 1 17.386408405482744 35.85847466628202 12.055013491450216 0 0 0
1737 1 17.28258780463642 38.18741304841175 9.74481653464673 0 -1 0
1990 1 18.93472448281084 35.81836947597743 9.687294126406117 0 0 0
1991 1 18.780780435214236 38.11202826529067 12.175359019077417 0 0 0
2280 1 20.596444768286926 35.84059612613851 11.981367675072216 0 0 0
2025 1 20.327576215731376 38.157206630935555 9.766092464976488 0 -1 0
2279 2 22.256210461084223 38.070285727309816 11.831395550485745 0 0 0
2278 1 22.138415845259868 35.83737540567218 9.647961992042175 0 0 0
2568 1 23.8227571486185 35.77121065901412 12.021443184902488 0 0 0
2313 1 24.01202734435209 37.92252291490427 9.66937736001286 0 -1 0
2856 1 27.26059786200876 35.789234005976965 12.032917278353931 0 0 0
2566 1 25.660801112213015 35.95839618007432 9.82570894753834 0 0 0
2567 1 25.41109188901274 38.06733434770704 11.889114157569106 0 0 0
2601 1 27.325198859327887 38.064176679093414 9.62921982933229 0 -1 0
1598 1 15.444486194106133 22.098907121810726 14.185208543023771 0 0 0
1600 1 13.750619029258718 22.12178107003677 16.641212324327324 0 0 0
1886 2 18.777852595852693 22.274434970635305 14.50837284042664 0 0 0
1888 2 17.11873513525977 22.22692076407797 16.428430696140488 0 0 0
2176 1 20.54360597846483 22.262725599389224 16.633324983280914 0 0 0
2174 1 22.064227391121445 22.057471638140573 14.200077438484277 0 0 0
2464 1 23.951414965309624 22.06719960162035 16.522897845397125 0 0 0
2462 1 25.75945085837929 22.120714264259185 14.388895998387301 0 0 0
2752 1 27.36758106632885 22.21502480619428 16.501844758589 0 0 0
1633 1 13.7444419107281 24.35975842365843 14.332855975925694 0 0 0
1599 1 15.454580210969024 24.409308453248066 16.63785676914401 0 0 0
1921 1 16.90776756544336 24.47595770881387 14.420289201674578 0 0 0
1887 1 18.674899421375642 24.496740888765633 16.57870332121641 0 0 0
2209 1 20.558324893432278 24.428068522493337 14.472854796398058 0 0 0
2175 1 22.418363451390302 24.471903214529046 16.567308429532112 0 0 0
2497 1 23.863844052280367 24.374042899436617 14.219572965915951 0 0 0
2463 1 25.52097193530001 24.471314280131754 16.457618058079994 0 0 0
2785 2 27.350995820842112 24.516317430027655 14.288246479072805 0 0 0
1636 2 13.877292397470281 26.7871688968627 16.707712808252666 0 0 0
1634 1 15.24511674488718 26.874086153762896 14.292787870639708 0 0 0
1635 1 15.34694457832276 29.094736793260903 16.398780306128813 0 0 0
1669 2 13.79319352316464 29.052785763546243 14.172477901292053 0 0 0
1924 1 16.86699107775395 26.684411326192492 16.56651626360052 0 0 0
1957 1 17.176149046383653 28.878325644910486 14.31401688009757 0 0 0
1923 1 18.869616874522517 28.860765641143395 16.72183058840817 0 0 0
1922 1 18.82580213050391 26.61561947653562 14.477582094830952 0 0 0
2212 2 20.649731082451588 26.596914894852993 16.576366584311437 0 0 0
2245 1 20.35780872379855 28.87834054163555 14.303620798094643 0 0 0
2210 1 22.080946615134355 26.705634983096264 14.20064190290085 0 0 0
2211 1 22.04481024716823 28.919951826839124 16.565364547883753 0 0 0
2500 1 23.805061924428923 26.767925469723664 16.388606884414173 0 0 0
2533 1 23.812148877526724 28.85607163513122 14.170736957510417 0 0 0
2499 1 25.39067290833652 29.107472192020204 16.5994409617079 0 0 0
2788 1 27.04869323370854 26.7524867313409 16.429365095059758 0 0 0
2498 1 25.43615919602836 26.76455370287417 14.190136403005404 0 0 0
2821 2 27.143839538156634 28.98462507229157 14.31177133421809 0 0 0
1672 1 13.773546626413456 31.35108362538243 16.58528276174863 0 0 0
1670 1 15.590710283168093 31.368962944237587 14.335564770826986 0 0 0
1960 1 17.319338038264224 31.126959190220834 16.608873241503716 0 0 0
1958 1 18.85759131904848 31.31169270825903 14.102838665744102 0 0 0
2248 1 20.442907871362507 31.184350138952368 16.506885964027653 0 0 0
2246 1 22.13583414849098 31.063672309577385 14.410061080080856 0 0 0
2536 2 23.81396005942506 31.363562750034177 16.713344716550438 0 0 0
2534 1 25.253566550415897 31.179154528810773 14.34354173489996 0 0 0
2824 1 27.333706986935542 31.16135106368124 16.657446557744805 0 0 0
1705 2 13.95190599958065 33.54322551450835 14.385415935539257 0 0 0
1671 1 15.622016010035317 33.46849506399093 16.702343639304267 0 0 0
1993 1 17.26223900995027 33.492126230776165 14.368196847668036 0 0 0
1959 1 18.84763028888403 33.47344071027685 16.430144603647953 0 0 0
2281 1 20.428542035270006 33.54550795002481 14.18757201712574 0 0 0
2247 1 21.991556156633834 33.49967509383178 16.629701862121763 0 0 0
2569 1 23.727344775578672 33.448859065962694 14.385157937756917 0 0 0
2535 1 25.491560514166896 33.562126832592895 16.57517589039336 0 0 0
2857 1 27.016121056615262 33.401690187251674 14.125907746472242 0 0 0
1708 1 13.991657514232443 35.69430528105564 16.404538057613845 0 0 0
1707 1 15.388578728927161 38.01300753469251 16.619139390452045 0 0 0
1706 1 15.624425689632108 35.90548841848432 14.17290315274821 0 0 0
1453 1 13.785911840563422 37.950644724593666 14.2692598790244 0 -1 0
1741 1 17.081914472463595 38.10690434848387 14.441556507711466 0 -1 0
1996 1 17.043354680008736 35.81408650383909 16.66860626123408 0 0 0
1995 2 18.813630573197674 37.9096892160337 16.511699922232815 0 0 0
1994 1 18.97226231019979 35.97017887247544 14.57853755615604 0 0 0
2284 1 20.67816625815487 35.9464436266038 16.627463650353995 0 0 0
2029 1 20.593520829212302 38.11427381354368 14.274392368067405 0 -1 0
2282 1 22.20188672901102 35.800361433190645 14.199005633399521 0 0 0
2283 1 22.35880449465921 38.20421184477252 16.385628535706836 0 0 0
2572 2 23.759187818177537 35.733584896438124 16.542844173123832 0 0 0
2317 1 23.79257080962619 38.12624592447246 14.258255530175166 0 -1 0
2570 1 25.420523406367703 35.704762510609875 14.304690213589545 0 0 0
2571 1 25.434960698723298 38.126441900263146 16.527782472405327 0 0 0
2605 1 27.131296608573177 37.96459029248877 14.259299535514664 0 -1 0
2860 1 27.197607562639828 35.80260563956193 16.465084166339345 0 0 0
1602 1 15.485784822438351 22.210577071878138 18.794030008841816 0 0 0
1890 1 18.651927671342122 22.215629095565923 18.743030692334674 0 0 0
2178 1 22.196860370804917 22.227886818130923 18.789705691090685 0 0 0
2466 1 25.69239487225565 22.115829321114685 18.705996465803832 0 0 0
1637 1 13.765321712853389 24.488760840214642 18.871025553538423 0 0 0
1925 1 17.115451257627946 24.43580772570803 18.948218673698218 0 0 0
1891 1 18.99489973336193 24.62583060125507 21.039010023743238 0 0 0
2213 1 20.469039560092845 24.36333000215937 18.74120032000869 0 0 0
2179 1 22.234533412732382 24.386524496809074 20.99703259363106 0 0 0
2501 1 23.990460134145188 24.335042157539714 18.76039634223886 0 0 0
2789 2 26.969290594794234 24.55605895744641 18.89464001419211 0 0 0
2467 1 25.513771396379823 24.4292091468854 21.204794835099694 0 0 0
1638 1 15.44606100058434 26.706698277528133 18.98533542860078 0 0 0
1673 1 13.81952357818513 28.92528346536532 18.744147807040846 0 0 0
1961 1 17.11031518133326 29.055601262190464 18.642923870492766 0 0 0
1926 1 18.828205462827505 26.690567641116935 18.7066209442758 0 0 0
1927 1 18.89952224681468 28.876065604541918 21.047081504480083 0 0 0
1928 2 17.180067582146638 26.654801112529658 21.07333194408395 0 0 0
2249 1 20.635372523356104 28.875344281284914 18.901251583392742 0 0 0
2214 1 22.29524481133638 26.611972302193454 18.72781600076229 0 0 0
2537 1 23.72642453116415 28.96096413466907 18.85560336428391 0 0 0
2504 1 23.84094471942317 26.629699289962375 21.101827309946955 0 0 0
2502 1 25.507044348741452 26.797979174417218 18.74045507272922 0 0 0
2825 2 27.18397886357926 29.045775981452074 18.77109981616524 0 0 0
2503 1 25.376344957686705 29.054837693544737 21.058908952947277 0 0 0
2792 1 27.280423702087482 26.754636855374986 21.02713736826161 0 0 0
1674 1 15.426292706266398 31.343491456210373 18.80513094459709 0 0 0
1676 1 13.972192830798857 31.14374841399323 21.209193007288828 0 0 0
1964 1 17.233979209037955 31.194392240230655 21.04392769072501 0 0 0
1962 1 18.859059996682642 31.080751491230473 18.827252951282002 0 0 0
2250 2 22.133400598124286 31.326973918892502 18.68152788881165 0 0 0
2538 1 25.47092981978542 31.272613919757294 18.768583460850117 0 0 0
2828 1 27.19221707397953 31.392845368468766 21.142941949999333 0 0 0
1709 1 13.673943694096973 33.55684607366052 18.837719487110967 0 0 0
1675 2 15.472246757367422 33.58545788952315 20.95962351347099 0 0 0
1997 1 17.42661460393224 33.59668261468104 18.873033088058527 0 0 0
2285 1 20.382351643469292 33.59864412251562 18.770435284563067 0 0 0
2251 1 22.207114434716775 33.54625811753107 21.05974128110079 0 0 0
2573 1 23.805015751930064 33.45469654661106 18.771845513587856 0 0 0
2861 1 27.05185978305929 33.5745670532263 18.749947315295785 0 0 0
2539 2 25.438124847619523 33.45088899594069 21.08655968269067 0 0 0
1710 2 15.366979842062445 35.755919830411855 18.925050150550028 0 0 0
1457 1 13.972570694321 38.02224994026075 19.014316648175296 0 -1 0
1745 1 16.958920956938243 37.95812989963978 18.86878937619191 0 -1 0
1998 1 18.916313757317045 35.93179769331137 18.709737180340323 0 0 0
2033 1 20.659980442779425 38.14242211206976 18.653883687241034 0 -1 0
2286 1 22.13028368705755 35.76897257478146 18.960115065429704 0 0 0
2321 2 23.691467044749327 38.112161811056374 18.864908394589794 0 -1 0
2574 1 25.472190380007817 35.77880068788387 18.86722698417389 0 0 0
2609 1 27.30465453940774 37.934740938316914 18.568933105893674 0 -1 0
2864 1 27.239965945109425 35.574103305867496 21.065638329626175 0 0 0
1604 1 13.856673509054808 22.18846586742974 21.313617865899012 0 0 0
1606 1 15.80046233665491 22.20911764629689 23.472443945874918 0 0 0
1892 1 17.29334448804525 22.323758976810698 21.09547807195447 0 0 0
1894 1 18.958486696551372 22.197930508961793 23.325511470800752 0 0 0
2180 1 20.57799703080299 22.19840566759395 21.108504149778703 0 0 0
2182 1 22.131304643562874 22.007854453116096 23.36318742058064 0 0 0
2468 1 23.989717563367513 22.086011322069456 21.175843605976873 0 0 0
2756 1 27.255090616872607 22.13173349750974 21.095272573053585 0 0 0
2470 2 25.67658247845165 22.249965136311282 23.447801304451687 0 0 0
1603 1 15.578278778709134 24.458861903684884 21.23212330480067 0 0 0
1641 1 13.877608575394188 24.366601840482666 23.37047571071429 0 0 0
1929 1 17.324044269050464 24.481058922694988 23.322655909591322 0 0 0
2217 1 20.56998908200964 24.309931592153305 23.35762226011993 0 0 0
2505 1 23.764639718447974 24.240942566104525 23.332133464849743 0 0 0
2793 1 27.28697510719294 24.493062561339322 23.320433974913396 0 0 0
1640 1 13.875545145802278 26.845012721748105 21.226613071183746 0 0 0
1639 1 15.60987866037085 28.98703970434268 21.039740714064564 0 0 0
1642 1 15.464469139095108 26.655536612436492 23.353264139094875 0 0 0
1677 1 13.914337975427724 28.94899444570752 23.374885760895914 0 0 0
1965 1 17.333560619627292 28.96790966486402 23.335242614297854 0 0 0
1930 1 19.07884097804569 26.59858062312105 23.42552792630846 0 0 0
2215 1 22.18841498105647 29.02583636186767 21.1333298715237 0 0 0
2216 1 20.705524329618903 26.673359304816046 21.06856704233419 0 0 0
2253 2 20.511717170455857 28.97513415897015 23.361189897345234 0 0 0
2218 1 22.1651285096317 26.684084636844442 23.329704941205126 0 0 0
2541 1 23.95041696247131 28.986279030511184 23.373351451584618 0 0 0
2506 1 25.4036596322249 26.703113486262907 23.365062957662083 0 0 0
2829 1 27.18739317859316 28.898741116033268 23.40049291069886 0 0 0
1678 1 15.64221123035713 31.286865867841648 23.439913524554584 0 0 0
1966 1 18.97079129111522 31.355142504892175 23.341770856236298 0 0 0
2252 1 20.602285611357168 31.239953278151514 21.03318904956407 0 0 0
2254 1 22.125184673647848 31.288107428713225 23.294780530296077 0 0 0
2540 1 23.884555600266623 31.286058551084853 21.114199823037676 0 0 0
2542 1 25.441229722217436 31.352823761683556 23.38642349899719 0 0 0
1713 1 13.902429263087473 33.528474389553665 23.22992557241183 0 0 0
1963 1 18.955933300272815 33.482445547715216 21.176591748987025 0 0 0
2001 1 17.04626817958642 33.531136178576375 23.26683458329669 0 0 0
2289 1 20.65053758620767 33.535520416926914 23.564844738628786 0 0 0
2577 1 23.724412092215108 33.64581202072581 23.381641703428723 0 0 0
2865 1 27.369821549614162 33.41025481591045 23.194001983682238 0 0 0
1711 1 15.628702839136807 37.99745056347461 21.2641813103018 0 0 0
1712 1 13.542130739824465 35.787824068249925 21.10567181358473 0 0 0
1461 1 13.68220126954482 38.01907667687241 23.373419254377907 0 -1 0
1714 2 15.462930794894568 35.935790014293275 23.249586060918617 0 0 0
2000 1 17.302492895247358 35.72277370700344 21.115620616163362 0 0 0
1999 2 18.929627827979704 38.0347043044016 21.023085199445337 0 0 0
1749 1 17.40077883278896 37.91075667850509 23.49372668043379 0 -1 0
2002 1 18.9078755093439 35.65290517638101 23.400641098935658 0 0 0
2288 1 20.498264105914245 35.869647933456335 21.092166161486826 0 0 0
2287 1 22.077820945378868 38.06040504029001 21.10443341000365 0 0 0
2037 1 20.41330903162916 37.95181033902147 23.427008461544883 0 -1 0
2576 1 23.90183243128471 35.846126310888636 21.16461124219936 0 0 0
2290 1 22.174824995196584 35.82238647814242 23.50805431122265 0 0 0
2325 2 23.88861492681565 37.98527477799631 23.23508170265409 0 -1 0
2575 1 25.77054931788179 37.97431274017568 20.949667291062546 0 0 0
2578 1 25.736969653265362 35.772376650602936 23.4130859573306 0 0 0
2613 1 27.193907209378466 37.98331483862764 23.211517389185804 0 -1 0
1608 2 13.932029237704992 22.211631833348793 25.52289130021425 0 0 0
1610 1 15.44524018511435 22.331716547422253 27.87942381812496 0 0 0
1896 1 17.17957879385209 22.30919538231039 25.699976359096556 0 0 0
1898 1 18.798268424641353 22.480400504372575 27.978009389699697 0 0 0
2184 2 20.51862425381747 22.40128187036123 25.688681494299924 0 0 0
2186 1 22.35138355885059 22.27584958721442 27.802129539351075 0 0 0
2472 1 23.828551726750593 22.160576350585384 25.633406298648534 0 0 0
2474 2 25.55905455269457 22.092018871841727 27.863248787407482 0 0 0
2760 1 27.38527684684851 22.243055564740796 25.65732805953354 0 0 0
1607 1 15.580484630060859 24.514381585184054 25.60269766839008 0 0 0
1645 1 13.853689581352366 24.59877461846354 27.90467943850194 0 0 0
1933 1 17.092409011445593 24.668372878725666 28.03542561858327 0 0 0
1895 1 18.806090499890534 24.6770431022938 25.75605231777761 0 0 0
2221 1 20.646011219421844 24.565846161073726 27.817600553611435 0 0 0
2183 1 22.28029607669068 24.599513628534794 25.568995158874035 0 0 0
2509 1 24.067340720905666 24.50531835373796 27.622093965031656 0 0 0
2471 1 25.595854535668682 24.379046745898563 25.42200816337121 0 0 0
2797 1 27.09388504568487 24.381968861580823 27.80642042670861 0 0 0
1644 1 13.856832935957037 26.692050500308408 25.696629967589168 0 0 0
1646 1 15.461635812195222 26.857169656918508 27.973716431506347 0 0 0
1643 1 15.624035430790087 28.93860376183939 25.59888439173013 0 0 0
1681 1 13.919169518167987 29.08565302773903 27.971228220265836 0 0 0
1932 1 17.218274553370414 26.86502214295217 25.764645286991872 0 0 0
1969 1 17.063379894506657 29.21259682538734 27.962692929305472 0 0 0
1931 1 18.806391740607896 29.109725702771655 25.643342240980157 0 0 0
1934 2 18.89265649661164 27.02812618637025 27.921844647171895 0 0 0
2220 1 20.52946399861883 26.899493501333897 25.686962173939893 0 0 0
2257 1 20.694689168257703 29.20519005448383 27.894441334833832 0 0 0
2222 1 22.281164038246608 26.87660703439272 27.852147818648948 0 0 0
2219 1 22.274308782880567 29.18143383668979 25.580783318588974 0 0 0
2508 2 23.818573955283682 26.806376303261732 25.618714315353195 0 0 0
2545 1 23.92558302423019 29.148316777708185 27.892028007699732 0 0 0
2507 1 25.603708008754314 29.014260604456336 25.61783160181299 0 0 0
2510 1 25.601390683625002 26.83642915511102 27.83835250781445 0 0 0
2796 1 27.325817144439853 26.695310409291412 25.598226345610783 0 0 0
2833 1 27.390529856660088 29.150274397523713 27.948820280343487 0 0 0
1680 1 14.01766503778505 31.243342546285938 25.610567571095725 0 0 0
1682 2 15.50461975538876 31.446611344785513 27.958567332320893 0 0 0
1968 1 17.14748534292099 31.285738815198368 25.535728363728026 0 0 0
1970 1 18.862435944492958 31.34103918710454 27.927224854607925 0 0 0
2256 1 20.672865768127156 31.358002125272105 25.698469990337415 0 0 0
2258 2 22.237386068874844 31.586657596258625 27.982032118357907 0 0 0
2544 1 24.010407699068523 31.31313910696814 25.715245415429113 0 0 0
2546 1 25.707948449840057 31.304925601448957 27.914904435212073 0 0 0
2832 1 27.30986461856983 31.276764453974103 25.712330242111037 0 0 0
1717 1 13.702455730250158 33.47964432963026 27.889615416858334 0 0 0
1679 1 15.617924822240742 33.55593209583474 25.62403963760199 0 0 0
2005 1 17.363891953831164 33.57020884247093 27.878712132265 0 0 0
1967 2 18.85236132551711 33.511238726032005 25.46580211450182 0 0 0
2293 1 20.4225790612609 33.504242912954155 27.824910381831938 0 0 0
2255 1 22.516838006958384 33.4872144102753 25.72221053749512 0 0 0
2581 1 24.171210405000366 33.63440053637444 27.92637990087883 0 0 0
2543 2 25.65163064080239 33.66406213963872 25.44959249467794 0 0 0
2869 1 27.245978843502083 33.54424847687805 27.713525074191782 0 0 0
1716 1 13.839213227572227 35.70290362171727 25.52876207190939 0 0 0
1465 1 13.652560611131335 38.13639441679598 27.96745385651902 0 -1 0
1715 1 15.576711801743429 37.83188123873968 25.616807718394842 0 0 0
1718 1 15.222793549607978 35.84738728475952 27.778684415318445 0 0 0
2004 1 17.26086697329869 35.67085949792683 25.79679758413865 0 0 0
1753 1 16.946062154740954 38.012704239088784 27.96055861702698 0 -1 0
2003 1 18.830358306491597 38.05282814050834 25.808680129279473 0 0 0
2006 2 18.837084623197597 35.953085285802096 28.0345551710901 0 0 0
2292 1 20.528510887276656 35.798179706113494 25.712869950298355 0 0 0
2041 1 20.66663935921644 38.02029759565622 27.93457697898329 0 -1 0
2294 1 22.387895627085967 35.8782845931342 27.90091704525442 0 0 0
2291 1 22.34479482586081 38.0521621359608 25.628012633955294 0 0 0
2580 1 24.05594891464128 35.79527914398082 25.717493192320077 0 0 0
2329 1 23.951270699528997 38.282188675715325 27.822766471288148 0 -1 0
2868 1 27.235257215511336 35.91950148987227 25.788574374302137 0 0 0
2579 1 25.471642619612577 38.12098608926293 25.50952893134867 0 0 0
2582 2 25.638380861923718 35.90759410589964 27.923221035010776 0 0 0
2617 1 27.157250879978232 38.12276658814448 27.847838574645536 0 -1 0
1612 1 13.703669352372227 22.21196113662567 30.295453404855657 0 0 0
1614 1 15.559649922009807 22.414259552023537 32.366106450741256 0 0 0
1900 1 17.14613598815153 22.237885085122517 30.17605062956579 0 0 0
1902 1 18.941146321095164 22.363104964831543 32.24258162597526 0 0 0
2188 2 20.577675852298686 22.322462310826264 29.978951404791463 0 0 0
2190 1 22.17702063178607 22.500419582569318 32.246852943402274 0 0 0
2476 1 23.88105986143895 22.217260328819247 30.146402691471305 0 0 0
2478 1 25.549055785046455 22.32312957072137 32.373654015469164 0 0 0
2764 1 27.290987638388664 22.32649154905377 30.124624454111743 0 0 0
1611 1 15.33656181559762 24.59666934548861 30.20896289930891 0 0 0
1649 1 13.6984617146983 24.536900650860378 32.409296928942545 0 0 0
1937 1 17.0960884895288 24.65230452823838 32.1811509044057 0 0 0
1899 1 18.99685305126354 24.618606732770974 30.168003410282896 0 0 0
2225 2 20.624111145683223 24.658863630734512 32.32173072722181 0 0 0
2187 1 22.34153742670515 24.619076645417476 30.046246423777752 0 0 0
2513 1 23.877007623684843 24.57007942193783 32.32834421007662 0 0 0
2475 1 25.551310538717363 24.609497038968975 30.060048684889374 0 0 0
2801 1 27.189654050184487 24.587037392240823 32.38247439055459 0 0 0
1648 1 13.602443859361586 26.897470074536535 30.210875536534548 0 0 0
1650 1 15.283352205720725 27.01830053626736 32.32421450983319 0 0 0
1685 1 13.497946637821606 29.19698105994004 32.29663039051398 0 0 0
1647 1 15.449743219222125 29.16263826821532 30.23809341014931 0 0 0
1936 1 17.20212517112408 26.919524494543765 30.10068578913962 0 0 0
1973 1 17.15721582143987 29.269516567314927 32.351482689116736 0 0 0
1935 1 18.933990549617583 29.03783407874359 30.080763036818144 0 0 0
1938 1 18.792971634750838 26.928081170678087 32.31095278099552 0 0 0
2224 1 20.701802961745933 26.86612958029508 30.183947940855862 0 0 0
2261 1 20.72107548218989 29.06461040438863 32.3542578750323 0 0 0
2226 1 22.36379538912 26.847749790813985 32.35268826151572 0 0 0
2223 1 22.296795052360707 29.26686033877633 30.154193235458838 0 0 0
2512 1 23.97616114305675 26.895470735327493 30.041467555317805 0 0 0
2549 1 23.76780902303861 29.204950579845946 32.34013178121341 0 0 0
2511 1 25.663360949783986 29.219108068852467 30.245306990574502 0 0 0
2514 1 25.57012540808658 26.938287483081876 32.574460892925416 0 0 0
2800 1 27.297804877543445 26.760875331218745 30.281216427521784 0 0 0
2837 1 27.442613165210194 28.921015851959464 32.47154253241288 0 0 0
1684 1 13.545608069894062 31.30363233736807 30.126410982238035 0 0 0
1686 2 15.324512932880118 31.256193783980603 32.29531820101502 0 0 0
1972 1 17.22965424845783 31.17036509882744 30.229008615194353 0 0 0
1974 1 19.034753068651167 31.350924042236745 32.426469474733324 0 0 0
2260 1 20.40084386202038 31.351864282906597 30.10094270225506 0 0 0
2262 2 22.203433914272605 31.500924788949845 32.255333946674924 0 0 0
2548 1 24.025287185828486 31.52666607881912 30.131516432744437 0 0 0
2550 1 25.714717473143214 31.410269381856974 32.45172933487629 0 0 0
2836 1 27.322723376579393 31.241285331393343 30.1789139029134 0 0 0
1721 1 13.621254286587085 33.565196811149235 32.42608556515269 0 0 0
1683 1 15.400199421862773 33.50095657869237 30.093592429188732 0 0 0
2009 1 17.157518173110283 33.55928181893967 32.32005242083504 0 0 0
1971 1 18.79928643562595 33.651025659985955 30.103606050804085 0 0 0
2297 1 20.48892604112587 33.84670768030597 32.45665822720518 0 0 0
2259 1 22.142007265274113 33.60256721426755 30.134552549686724 0 0 0
2585 1 24.008654786314374 33.44080934280976 32.42704594419313 0 0 0
2547 1 25.858710442842828 33.696031116191236 30.20648841287568 0 0 0
2873 2 27.38553364166072 33.61044310713865 32.460630867744825 0 0 0
1720 1 13.69702878679669 35.71522358408713 30.151175026491018 0 0 0
1469 1 13.757514664642212 37.910635885358296 32.46329977575135 0 -1 0
1719 2 15.175040884689121 37.99927400782874 30.201207370808017 0 0 0
1722 1 15.492873925196186 35.90181379145364 32.31872294078218 0 0 0
2008 1 16.95061746468127 35.819274488757515 30.091953400302472 0 0 0
1757 1 16.927720384871176 38.13730465596138 32.429240376276745 0 -1 0
2010 2 18.746632049604266 36.03338220248126 32.26189875326283 0 0 0
2007 1 18.80095244371288 38.09656591566805 30.16829822346804 0 0 0
2296 1 20.559891773860755 35.76063248667773 30.029925483020595 0 0 0
2045 1 20.668415484082733 38.083255391987215 32.44801771078663 0 -1 0
2295 1 22.35927268031951 38.098388468287496 30.22157210503818 0 0 0
2298 1 22.454637723330457 35.79445898490648 32.50768014510033 0 0 0
2584 1 23.988044630534823 35.73207382811387 30.171317990432197 0 0 0
2333 1 24.179096602864195 38.07014567298351 32.389944567761276 0 -1 0
2872 1 27.36689229315142 35.997976801605425 30.210250627677425 0 0 0
2621 2 27.304616849903763 38.091875750592585 32.3440199954928 0 -1 0
2586 1 25.66886168447844 35.724032862584586 32.39799978793376 0 0 0
2583 1 25.55309079298888 38.14103711502585 30.059612794634347 0 0 0
1616 1 13.793944497904697 22.181821438975376 34.612302537614624 0 0 0
1618 2 15.452796083270101 22.100828625376742 36.794167787426005 0 0 0
1904 1 17.242887037263696 22.19762173766752 34.675275790294535 0 0 0
1906 1 19.00134016957265 22.475901581440905 36.962906089030085 0 0 0
2192 1 20.652783858443847 22.258739679641806 34.63384251227764 0 0 0
2194 1 22.245035650325622 22.352503127396446 36.859947478705436 0 0 0
2480 1 23.883880497371415 22.181803010920547 34.66541333465129 0 0 0
2482 2 25.588336378702408 22.049662989524318 37.03341360981915 0 0 0
2768 1 27.32192856361952 22.209757177880352 34.809687777549286 0 0 0
1615 1 15.56790463213159 24.447814347145577 34.60514794251206 0 0 0
1653 1 13.781292727280775 24.523076644577614 36.92251237171121 0 0 0
1941 1 17.006139080774304 24.53967579348635 36.980329567762624 0 0 0
1903 1 18.831643456787013 24.497403350954784 34.55000279363338 0 0 0
2229 2 20.579662867762618 24.592291178112678 36.75252805194461 0 0 0
2191 1 22.433402775569014 24.494842930053547 34.69117743590981 0 0 0
2517 1 24.031037875402905 24.691293625253433 36.9949962294787 0 0 0
2479 1 25.560984700167058 24.278337715526213 34.61229961159191 0 0 0
2805 1 27.186729147557823 24.38751130448093 36.99724804762704 0 0 0
1652 1 13.859479836059979 27.03254064448907 34.60340237135297 0 0 0
1654 1 15.409517552424383 26.84836062088864 36.95466439962429 0 0 0
1651 1 15.29143207690393 29.275801627586723 34.47526122154008 0 0 0
1689 1 13.636084755867742 29.187677425075904 36.775442079594654 0 0 0
1940 1 17.006756880424877 26.88993115743526 34.49127409312362 0 0 0
1977 1 17.08677149662661 29.092245151744176 36.760544534014144 0 0 0
1942 1 18.836185723759826 26.717802935487917 36.832840598294155 0 0 0
1939 1 18.99702293764627 28.943108943717974 34.665602987155594 0 0 0
2228 1 20.59350390529587 26.60495274994689 34.691225202594595 0 0 0
2265 2 20.418012729966033 29.048576068200774 37.019761543593205 0 0 0
2227 1 22.322875825330133 28.966490994587787 34.79772137070094 0 0 0
2230 1 22.268944299494322 26.855316533815902 36.97999917341535 0 0 0
2516 2 24.07483598621596 26.723010439505867 34.774748360725255 0 0 0
2553 1 23.9695363318415 29.00031261133785 36.86306985248429 0 0 0
2804 1 27.25519581052428 26.698795537167257 34.7359015508804 0 0 0
2515 1 25.684274792802047 29.053729652441767 34.75491293212957 0 0 0
2518 1 25.696028546152164 26.83217329145122 36.95633579496432 0 0 0
2841 1 27.45386057301009 29.075883952367892 36.99513695139781 0 0 0
1688 1 13.590994959958834 31.421075155471584 34.66801962546961 0 0 0
1690 1 15.558986628056253 31.33480156697329 36.86466927752353 0 0 0
1976 1 17.184688977211 31.23554095998586 34.52943191195547 0 0 0
1978 1 18.628925440220023 31.19975808450531 36.84827303594804 0 0 0
2264 1 20.68479490484833 31.257025154020287 34.72578317763866 0 0 0
2266 1 22.259988673793405 31.32811101926048 36.94391430781475 0 0 0
2552 1 23.76766246382188 31.359136204617677 34.677230774664395 0 0 0
2554 1 25.489548418561487 31.241301491326936 36.76720512725865 0 0 0
2840 1 27.462536457580562 31.372720174502906 34.71006123439891 0 0 0
1725 1 13.81248431118276 33.501205241444765 36.936444156468994 0 0 0
1687 1 15.638402969380508 33.44539210490048 34.525954352237875 0 0 0
2013 1 17.332410850876265 33.6569686904035 36.887674995786384 0 0 0
1975 2 18.813413664402646 33.40284017383563 34.74807174102837 0 0 0
2301 1 20.40100531893449 33.53436062675753 36.970018024709944 0 0 0
2263 1 22.167377450897913 33.68767845295237 34.65441887485228 0 0 0
2589 1 23.974814473694597 33.62870252244494 36.891771133547394 0 0 0
2551 1 25.821003981028156 33.63216976052101 34.66314704105547 0 0 0
2877 2 27.33587278833071 33.59531347615324 37.04019256992494 0 0 0
1726 1 15.336524752533588 35.73802124459265 36.82359759867569 0 0 0
1724 1 13.93179755418491 35.736293260772506 34.44490318820333 0 0 0
1473 1 13.750028295509232 38.049877699411006 36.9602678133822 0 -1 0
1723 1 15.472611099103126 38.078734340274444 34.78618798689203 0 0 0
2012 1 17.131690801444055 35.647523886191635 34.595020311291634 0 0 0
1761 1 17.027083785982917 38.10976012590646 37.00095963633602 0 -1 0
2011 1 18.71691557099176 37.945520253205835 34.510936886099316 0 0 0
2014 1 18.807824342098684 35.997922535655405 36.889730325463844 0 0 0
2300 1 20.462731161077066 35.79644324022972 34.702459825225105 0 0 0
2049 1 20.36015724452655 38.181531478199545 36.938087555604525 0 -1 0
2302 2 22.196176955081484 35.84887730877992 36.95669152429855 0 0 0
2299 1 22.44256044169373 37.967958813440696 34.69693362461234 0 0 0
2337 1 23.91591198448764 38.07697371126325 36.95733664424212 0 -1 0
2588 2 23.924185657715988 35.58666156319293 34.81543853870487 0 0 0
2876 1 27.480760033077274 35.867009854630474 34.666591857267136 0 0 0
2625 1 27.35344640290135 38.12389580834761 36.90207188706623 0 -1 0
2590 1 25.742691441321384 35.84521054812051 36.9319122434746 0 0 0
2587 1 25.59374243298145 38.01264755907305 34.73265678657697 0 0 0
1620 1 13.964038082256302 22.27956426382573 39.32776348462801 0 0 0
1908 1 17.171576416708835 22.339923468378764 38.92650519194139 0 0 0
2593 1 27.47474140119994 38.13563984009607 41.3763413060488 0 -1 -1
2196 1 20.66339175655124 22.30752313604961 39.2004054244956 0 0 0
2484 1 24.008578570501566 22.081469821315196 39.31178589525463 0 0 0
2772 1 27.236031672055223 22.201177655811478 39.3612129969063 0 0 0
1910 1 18.883773569223923 26.748612179365832 41.24172327070606 0 0 -1
1619 1 15.147414998322034 24.60293011981127 39.1116416863492 0 0 0
1658 1 15.295261191741776 31.29644726819149 41.334559298198954 0 0 -1
1907 1 19.04111303817328 24.593856272792085 39.091845929758236 0 0 0
2197 1 20.5592459878728 24.598240240639253 41.35547474530097 0 0 -1
2195 1 22.235199675047944 24.451343275432524 38.9074553240373 0 0 0
2880 1 27.205925716907277 35.855581793734515 39.38576439626816 0 0 0
2483 1 25.542728270446574 24.442837766796984 39.36640331796994 0 0 0
1656 1 13.620661965235293 26.860411315522693 39.19276555140938 0 0 0
1655 1 15.39754860662108 28.987236271996693 39.11765926067535 0 0 0
2017 1 20.498964502598948 38.23178764557015 41.357454724162864 0 -1 -1
1944 1 17.100586934356055 26.64178635984062 39.03081646445912 0 0 0
1943 1 18.653477186520515 28.99309642769841 39.157178575967876 0 0 0
1728 1 13.605849579392821 35.80800475094427 39.10558225595976 0 0 0
2232 1 20.53905832226847 26.85075412189473 39.068369440065794 0 0 0
2591 1 25.530574782514687 38.210158380929336 39.11514490129821 0 0 0
2231 1 22.352615121671622 28.976643832153854 39.04046701666698 0 0 0
2520 1 23.78145236417637 26.65071949151507 39.26481855825058 0 0 0
2303 1 22.12829010351938 37.94688884157004 39.06218019193622 0 0 0
1693 2 13.742370676742926 33.65920052524582 41.29738929611034 0 0 -1
2808 1 27.51852953823277 26.67433950631959 39.415514053412934 0 0 0
2519 1 25.695191452425533 28.917558653270206 39.216726022271175 0 0 0
2592 1 23.833868584588664 35.73297784042621 39.23444160929111 0 0 0
1692 1 13.855694245539262 31.335826902264362 39.16644200884075 0 0 0
2304 1 20.470006198988983 35.664306559262734 39.0162177467698 0 0 0
1980 1 17.065070952007865 31.379317957439575 39.19652321893436 0 0 0
2268 1 20.293661823643294 31.232047812065613 39.0696102402793 0 0 0
2556 1 24.12850191843217 31.275282281739297 39.122147351762806 0 0 0
1874 1 18.90341363135486 22.288384767163635 41.30088758190435 0 0 -1
2844 2 27.28184559633459 31.21546601135362 39.12267976856205 0 0 0
1727 1 15.35275300836932 38.10823537814391 39.246344012741275 0 0 0
1691 1 15.485308164301248 33.66265921741328 39.04583290436679 0 0 0
2555 1 25.585500373779862 33.52018803196624 39.22944099567698 0 0 0
1979 1 18.668667834259907 33.55414284281733 39.27806931390505 0 0 0
2267 2 22.251848260083932 33.355554693123636 39.0950029043465 0 0 0
2016 1 17.23952181127191 35.87506475590234 39.352826968727854 0 0 0
2015 1 18.91187859163261 38.15033942561754 39.10195572150805 0 0 0
2521 1 24.01436807555205 28.90813415641528 41.4208617566118 0 0 -1
2234 1 22.127046630027092 31.074436242063925 41.2296346980079 0 0 -1
1657 1 13.715289492561698 28.867055054877596 41.34652228786203 0 0 -1
1909 2 17.14574569419259 24.6022069544518 41.1795661601458 0 0 -1
2269 1 20.727172908145906 33.49014498415294 41.36794037881921 0 0 -1
2557 1 23.806399465138984 33.41810435995919 41.25306769573352 0 0 -1
2233 1 20.377905632880584 29.084641678354494 41.40223731462898 0 0 -1
1586 1 15.636579539852747 22.406757802329523 41.33423330052439 0 0 -1
1622 1 15.371657320319265 26.731541318869862 41.27079822482685 0 0 -1
2270 2 22.138843401393526 35.91848837306846 41.321781724114985 0 0 -1
1946 2 18.733698889263934 31.439913847514244 41.41940726767541 0 0 -1
2485 1 23.703163416421113 24.41552832140995 41.41023794753512 0 0 -1
2305 1 23.836286668919186 38.173851591116055 41.43224541525791 0 -1 -1
1981 1 16.909543652061497 33.60045150729151 41.42202416804081 0 0 -1
2884 1 30.827131449936616 4.126062360938458 3.1337504965854106 0 0 0
112 2 44.14159708516194 17.65637129268861 2.827302368274034 -1 0 0
3172 1 33.86245638245137 4.170748426734072 3.030908498411001 0 0 0
3460 1 37.44890681604907 4.137218646565248 3.0094082730222866 0 0 0
44 1 44.12740662992897 8.590324216615524 7.339175130865594 -1 0 0
3748 2 40.79993483409011 4.033461453644901 2.954771597729327 0 0 0
3817 1 40.707141883107944 10.859129730927433 0.7732874507507836 0 0 0
3818 1 42.68525594546412 13.014087479075021 0.9380771938109457 0 0 0
2595 1 28.93266882481508 6.3072624075047745 2.9878030401931337 0 0 0
2883 2 32.35915231150298 6.438176440549614 3.0575555810428234 0 0 0
3171 1 35.57758036438639 6.328587361186499 2.9653158869450102 0 0 0
40 1 44.08652783684019 8.551516258685847 2.9461238713843123 -1 0 0
3459 1 39.16980018489247 6.4741266974150795 2.887358678814598 0 0 0
3566 2 39.293749910420566 17.491060436086407 0.7085471120039191 0 0 0
3747 1 42.453351143890494 6.212802087388934 2.8825255018515104 0 0 0
3893 1 40.63752945223528 19.93962702325625 5.163195343701496 0 0 0
2920 1 30.610877825505938 8.601149231215649 3.029904004895378 0 0 0
2631 1 28.93809174621915 10.94697742637406 2.855818608860058 0 0 0
149 1 44.140477128448715 19.990926604345038 5.208588030580242 -1 0 0
3208 1 34.07699917599284 8.71942517012707 3.0458428188837217 0 0 0
2919 1 32.38608981594552 10.79005452806599 2.956934968665564 0 0 0
3496 1 37.325662029149214 8.516235194186272 2.7942871198783217 0 0 0
3207 1 35.98978808190403 10.858849512476684 3.0567210912220206 0 0 0
3495 2 38.878622622819776 10.820152932654947 2.8913955921812153 0 0 0
3784 1 40.84195399760266 8.638372049245756 2.940247044231443 0 0 0
3025 1 30.61862076661553 19.834893695022416 0.8396450560240962 0 0 0
3783 1 42.588001623115645 11.013640954900806 3.058527819622864 0 0 0
3859 1 42.483891587020025 19.97074266832735 7.3327178609857535 0 0 0
2956 1 30.638179429038416 13.210200542981449 2.9513198907256295 0 0 0
3277 1 34.04759316917462 15.468993524344953 0.7272700272192599 0 0 0
3244 1 34.08052597614248 13.087973991645065 2.995655985145425 0 0 0
3860 1 40.84960358816983 17.487240023447935 7.481849870600808 0 0 0
3532 1 37.38877679659399 13.202541307362372 3.0567937992511007 0 0 0
3820 1 40.65193892192767 12.957759613396087 3.0308114742734693 0 0 0
2667 1 28.941541176928197 15.426871798671986 2.91149842327894 0 0 0
80 1 44.04841159930696 13.125812935795084 7.460779327819391 -1 0 0
2955 1 32.467074098916264 15.352284987814233 3.097105663707371 0 0 0
3605 1 37.55824986309274 19.997038656462696 5.163649365405035 0 0 0
3243 1 35.70366996282642 15.425481082024778 3.0198443591429105 0 0 0
3531 1 39.18170689058742 15.483521677652957 2.9369422177169473 0 0 0
3819 1 42.491429487438495 15.256417331765745 2.9267876041137493 0 0 0
3282 1 35.7179431761663 17.62333272963203 5.203670531881763 0 0 0
2992 2 30.756043168475976 17.71808209447424 2.846527075831718 0 0 0
2703 1 28.882097004502388 19.825474129618 2.94868509484748 0 0 0
3280 1 33.982481311613846 17.7070871488457 2.9529317842188156 0 0 0
2991 1 32.38290207350242 19.965436249215607 3.058336970508401 0 0 0
2918 1 32.34438853287464 8.799547681723428 0.825550980185232 0 0 0
3279 1 35.57503109758021 19.903051426884485 2.818726978185064 0 0 0
3568 1 37.43245517591223 17.63187780565657 2.8629140691038972 0 0 0
3572 1 37.38591797156102 17.55280016077636 7.710356032546653 0 0 0
3241 2 34.09412901098632 11.035830492909046 0.8763476738557602 0 0 0
3567 1 39.07841115963455 19.897667582056634 2.950624357363815 0 0 0
3856 1 40.86254464746305 17.570542886575268 2.954973653156081 0 0 0
2882 1 32.27203807461188 4.140751045217055 0.7915064408704873 0 0 0
3855 1 42.49230177819676 19.91317932481678 2.97717886233166 0 0 0
3283 1 35.87236377453174 19.85947332917631 7.324028395245234 0 0 0
2598 2 28.955338935005685 3.901990352581185 5.241745585021652 0 0 0
2888 1 30.690725146404247 4.047596499008172 7.516728977622394 0 0 0
2886 1 32.484537741050836 4.335973171680115 5.330748690711433 0 0 0
3176 1 33.951842497056504 4.108047147688325 7.529385267694665 0 0 0
3174 1 35.60712609626442 4.135020396090235 5.147740999343307 0 0 0
3464 1 37.373378068474935 4.137737115570819 7.404822578630422 0 0 0
3462 1 39.13950465430165 4.022415072894541 5.190787572550669 0 0 0
3752 1 40.75924124945626 4.221302461038476 7.429838751294027 0 0 0
3858 1 42.48321946531911 17.788580639644675 5.163305896031134 0 0 0
3750 1 42.52500639296419 4.153809376540773 5.311576988718867 0 0 0
2599 1 28.97870859593172 6.215947317699775 7.615766771882383 0 0 0
2921 1 30.494913247582453 6.259449366666563 5.2647402973650435 0 0 0
2887 2 32.23033889327783 6.495346554424043 7.545254582289012 0 0 0
3209 1 34.10641543535532 6.435504145401365 5.363155737627373 0 0 0
3175 1 35.863414327252 6.448827174432808 7.456817662816369 0 0 0
3497 1 37.553312784919285 6.32031940446931 5.0978057487985105 0 0 0
3463 1 39.06443656275349 6.493527810854221 7.641834289260155 0 0 0
3785 1 40.69369212875119 6.29484550632412 5.235794538395943 0 0 0
3570 1 39.02942778333314 17.601951709906928 5.176219457149998 0 0 0
3751 1 42.37009741847623 6.326521211242302 7.434675614274442 0 0 0
2924 1 30.37277816807942 8.545179271585468 7.614196796737712 0 0 0
2634 1 28.892195270052472 8.578898241048496 5.272747035425075 0 0 0
2635 1 28.964777031851888 10.915808031735345 7.350627394209471 0 0 0
2957 1 30.61417702444769 10.89398037365987 5.19638053173525 0 0 0
3212 1 34.17768138395829 8.51013040369394 7.501313773361909 0 0 0
2922 1 32.23192461038712 8.506859354887418 5.332402190292997 0 0 0
2923 1 32.37467406831664 10.785178022560666 7.39632001313213 0 0 0
3245 1 33.97812988016516 10.803338119248728 5.1033862093470885 0 0 0
3500 1 37.5022235985638 8.673935026375247 7.578617374587699 0 0 0
3210 2 35.92999193336294 8.69988468767226 5.266423768721255 0 0 0
3211 1 35.65588299336185 10.85478539181114 7.3130133741475545 0 0 0
3533 1 37.54923113724547 10.915533374734625 5.424865026594439 0 0 0
3498 1 39.14814948099497 8.625527998564305 5.136368934532955 0 0 0
3499 1 39.190012012023786 10.921574320233404 7.577966686556882 0 0 0
3821 1 40.57271609851771 10.909751731995149 5.151337496733205 0 0 0
3788 1 40.819477878997134 8.61317141985711 7.553265379806595 0 0 0
3571 2 39.020446812156756 19.895568440681235 7.442390688797396 0 0 0
2994 1 32.28343198594783 17.750547944695526 5.252172701684674 0 0 0
3786 1 42.43026667469266 8.677808259813736 5.250706497657695 0 0 0
3787 2 42.51493372944499 10.82467843376322 7.324419329348261 0 0 0
2670 1 29.013131051748893 13.131498747780865 5.152489234679162 0 0 0
2960 1 30.674925068222798 13.073252158440335 7.621788695070954 0 0 0
2958 2 32.3881646804849 13.160704592028429 5.237938410368249 0 0 0
3248 1 34.09792667478296 13.102980706599245 7.41766657770974 0 0 0
3246 1 35.70063465874445 12.94128535188828 5.315469241742122 0 0 0
3536 2 37.347556170494784 13.019225805618488 7.496382327857777 0 0 0
3534 1 39.06335814046903 13.228034514973608 5.132202519733374 0 0 0
3824 1 40.84589428096842 13.073381361232858 7.533698475537545 0 0 0
2917 1 30.668640924203608 6.533712384970762 0.8161837630206253 0 0 0
3822 1 42.548434869910224 13.114825764633782 5.100911455008758 0 0 0
2993 1 30.628418363326332 15.564311538310891 5.156004726056494 0 0 0
2671 1 29.002145311265366 15.515795097342926 7.653083603052287 0 0 0
3281 1 34.16311613774509 15.39994491902475 5.237136256084446 0 0 0
2959 1 32.305258016637026 15.38811094275194 7.3885895091345715 0 0 0
3247 1 35.706786179691775 15.36452994923672 7.538938522990379 0 0 0
3569 2 37.358088570286974 15.316167866930277 5.1964240712833645 0 0 0
3857 1 40.82041031404701 15.457981379182586 5.218845771509846 0 0 0
3535 1 39.00988108677207 15.358527380429958 7.284563964354583 0 0 0
3823 1 42.61217281023923 15.3798468578338 7.526850104236006 0 0 0
2996 1 30.563117083002616 17.679289548638508 7.448199251947814 0 0 0
2706 1 29.064887202407697 17.846700792359456 5.087618870614052 0 0 0
3029 1 30.594722509933206 20.058667241080062 5.31512746840152 0 0 0
2707 1 29.09518369440702 20.195999823191524 7.538607207354057 0 0 0
3317 1 34.13459351006595 19.918999045838987 5.192726987189041 0 0 0
2995 2 32.3133843520795 19.99209020947605 7.675772787325462 0 0 0
3284 1 34.03900117464787 17.736931111960995 7.514286964823413 0 0 0
2702 1 28.88421609897763 17.625761627514095 0.8085169846670789 0 0 0
73 1 44.11140547607555 10.742264082483802 0.7363738187466282 -1 0 0
3746 1 42.661067803892166 4.0265499499736865 0.7156446433729315 0 0 0
3170 1 35.78755034814404 4.105503378176791 0.8568768002931629 0 0 0
3565 1 37.407065052900464 15.47602053544425 0.7495454937398686 0 0 0
41 2 44.11820362890213 6.340095324970349 5.105744346262088 -1 0 0
3530 1 39.12366437765824 12.959045936338832 0.8082830593750181 0 0 0
3458 1 39.04904348565934 4.171530803031337 0.8271791377955006 0 0 0
3889 1 40.839458108139254 19.831555941013864 0.8735870126108588 0 0 0
3242 1 35.80874380855301 13.192116580711957 0.7198131548932605 0 0 0
2954 1 32.429186371193744 13.334320694332819 0.8232819880768799 0 0 0
2594 2 29.198189124450124 4.044579185570576 0.7345802328326759 0 0 0
2953 1 30.739333139413503 10.932371059180339 0.7650254720875409 0 0 0
3205 1 33.95098939773214 6.310216943947667 0.7087748537567364 0 0 0
2602 1 29.066735318537937 3.963271757771634 9.876306000344746 0 0 0
2892 2 30.565122847322357 4.06140510081055 12.175561183318374 0 0 0
2890 1 32.277266259670306 3.8958977263927865 9.856279039823345 0 0 0
3180 2 34.16153408963485 3.835724998675604 12.0014654655729 0 0 0
3178 1 35.776071163531796 4.117134541137177 9.595139240668557 0 0 0
3468 1 37.374767510314186 4.1164136603485 11.991754473719123 0 0 0
3466 1 39.14661197085379 4.083925655031324 9.656846224454577 0 0 0
3756 1 40.72378773215782 4.094210309040921 11.951593987228312 0 0 0
3754 1 42.49520684820756 4.127910108815382 9.775671040863687 0 0 0
3579 1 38.944603393942586 19.99394020029463 16.6234650925362 0 0 0
2603 1 29.15624923406053 6.338104796208046 11.95156882165469 0 0 0
2925 1 30.6682532343822 6.261693247007976 9.77970892279104 0 0 0
2891 1 32.46330793263032 6.184899691615011 12.116609812347132 0 0 0
3213 1 33.91110558489964 6.237352762900229 9.67985546614257 0 0 0
3179 1 35.6221031164884 6.259503255351932 11.943674501004931 0 0 0
3501 1 37.434832703202275 6.387775037978243 9.716149281404565 0 0 0
3467 1 39.099613806800086 6.389321808032627 12.046970628371433 0 0 0
3789 1 40.758400761383115 6.309494525401942 9.652737781134729 0 0 0
3755 1 42.46264010910599 6.3561953464409235 11.824372650322694 0 0 0
3867 2 42.434038952902476 19.952644622639585 16.34107652062706 0 0 0
2928 1 30.89377152459558 8.465846408236699 11.986820314818074 0 0 0
2638 2 29.019415225898065 8.551391580373448 9.963533592707034 0 0 0
2639 1 29.001762903259035 10.721966313613828 12.015999959539833 0 0 0
2961 1 30.666922486181498 10.89971773803899 9.771670577499231 0 0 0
3216 1 33.975659170018204 8.672136626492703 11.972692436893176 0 0 0
2926 1 32.35861767633961 8.656553813043676 9.745589668814585 0 0 0
2927 1 32.331763974012055 10.932162552524247 12.020799409131826 0 0 0
3249 1 34.00656507650968 10.886143232517338 9.738771658500433 0 0 0
3504 1 37.25411006390682 8.563911263284645 11.872310119364426 0 0 0
3214 1 35.648472837612815 8.589417566908974 9.692902536688678 0 0 0
3215 2 35.68801339551638 10.911373860707938 11.998078747111812 0 0 0
3537 1 37.21494431968429 10.946888893305443 9.563060504834635 0 0 0
3792 1 40.84209396237818 8.723794622400604 12.023027373456042 0 0 0
3502 1 39.17596570807038 8.707526225770607 9.785319624654733 0 0 0
3503 1 38.90338929420435 10.944799530129975 11.846906185462377 0 0 0
3825 1 40.97372264493069 10.885259797937142 9.79313968969725 0 0 0
3790 1 42.56906154979665 8.528802776928906 9.612084354010017 0 0 0
3791 2 42.56936545070894 10.937596309139396 12.126646375841252 0 0 0
88 1 44.088099309800306 13.358627553412424 16.601572034806473 -1 0 0
2674 1 29.01786642538216 13.157016736441445 9.796630164152802 0 0 0
2964 1 30.7146543074954 13.16745712126432 12.10668132397932 0 0 0
2962 1 32.45293040059397 13.151607447685562 9.770487844114479 0 0 0
3252 1 34.03526560836605 13.131851768088382 12.020055330595929 0 0 0
3250 1 35.63893358897353 13.062069652385384 9.758649094730467 0 0 0
3540 1 37.42239223124711 13.188230615974375 11.969977450628061 0 0 0
3538 1 39.16635377144605 13.00634175530749 9.621831828854653 0 0 0
3828 1 40.70629614423329 13.17052796274035 12.01968290892999 0 0 0
49 1 44.14935043828094 6.386851498387368 14.162151560330187 -1 0 0
3826 2 42.55313413656566 13.273932980508283 9.838796359962874 0 0 0
2675 2 29.04074881865295 15.44162862128726 12.037306901096796 0 0 0
2997 1 30.698989105172565 15.440334806598736 9.84867856838708 0 0 0
2963 1 32.339792278558726 15.389006330866462 12.080164980039367 0 0 0
3285 1 33.80499727371208 15.539532204252543 9.718969741051373 0 0 0
3251 1 35.72417544498614 15.518379321528663 11.982734586589928 0 0 0
3573 1 37.538896612727214 15.441358360148834 9.797149953910504 0 0 0
3539 1 39.03646215371715 15.482630098991056 12.04462507783447 0 0 0
3861 1 40.710934375010325 15.332093608053516 9.5824255492659 0 0 0
3827 1 42.42129707642328 15.444956902609889 11.86591258895009 0 0 0
3000 1 30.76101172449318 17.766400634693007 12.093640033332095 0 0 0
2710 1 29.039119086439626 17.516789377552733 9.995981584223372 0 0 0
3033 1 30.39582781576732 19.966217062376188 9.96279476203353 0 0 0
2711 2 28.736734338672587 19.770908816692092 12.013419397512944 0 0 0
3288 1 33.91296975768236 17.724728089937138 11.98652778199995 0 0 0
2998 1 32.279782182382654 17.9650679349444 9.6856890800946 0 0 0
2999 2 32.44691164639299 20.183540286669125 11.878584247481978 0 0 0
3321 1 34.16805162467137 20.056276084131905 9.617138834421711 0 0 0
3286 2 35.674356961720235 17.515871407534394 9.897193596881486 0 0 0
3287 1 35.73282585635763 19.877585559795072 12.00066088334769 0 0 0
3576 1 37.454999044715684 17.744532906050047 12.04626151143301 0 0 0
3609 1 37.24273392932468 19.986192159356357 9.799799804958582 0 0 0
3574 1 39.2186363287647 17.836633760345677 9.763035022380635 0 0 0
3575 1 39.090685554502095 20.04625345914323 11.918686636709674 0 0 0
3864 1 40.661835281037696 17.593045922283046 12.071857716717696 0 0 0
3897 1 40.72716768808767 20.0126549676219 9.69920629482685 0 0 0
3863 2 42.41667631971986 19.911519869641854 12.105904258083044 0 0 0
3862 1 42.32042110849411 17.641416304628066 9.695598222115597 0 0 0
3290 1 35.65560879678613 17.756976104793786 14.253972799322742 0 0 0
2606 2 28.923396133750643 3.9790080253411224 14.246087625682856 0 0 0
2896 1 30.65450082811713 4.090818998228636 16.579935082774895 0 0 0
2894 1 32.407844025603325 4.075065934940244 14.345538234589853 0 0 0
3184 1 34.123195821692505 3.98709994121195 16.530855741936445 0 0 0
3182 1 35.722272303040675 3.9676231870555325 14.177910712661763 0 0 0
3472 1 37.42069299919515 4.108540472381793 16.52732675263079 0 0 0
3470 1 39.00187482378424 4.247715083248083 14.176771739869512 0 0 0
3760 1 40.71365175322994 4.030169853695408 16.557133938148002 0 0 0
3758 1 42.32034716557437 4.010680194040031 14.200066310045752 0 0 0
2607 1 28.85313198188881 6.3004440054697906 16.655890989044323 0 0 0
2929 1 30.601248597017886 6.31290440793956 14.356945845496535 0 0 0
2895 1 32.520435578233545 6.25302900392843 16.42835395329726 0 0 0
3217 1 34.13596468886805 6.202833508548576 14.284555846455929 0 0 0
3183 2 35.686371020509576 6.31216731349442 16.586812294882883 0 0 0
3505 1 37.238816327168834 6.268070715469818 14.22518761710877 0 0 0
3471 1 39.021798883703916 6.438206087421015 16.32426554108578 0 0 0
3793 1 40.76173971615402 6.426324400347582 14.261345799393235 0 0 0
3759 1 42.34405025494177 6.434702362749801 16.48019653041657 0 0 0
3868 1 40.89609186859668 17.72408581009411 16.40131942801031 0 0 0
2932 1 30.765546252724505 8.470500827767642 16.66524692438508 0 0 0
2642 1 28.98890547501619 8.659976653192029 14.286153360847164 0 0 0
2643 1 29.048724094051863 10.837598139497954 16.599401503736903 0 0 0
2965 1 30.710967602574634 11.005950825913489 14.27372432050338 0 0 0
3220 1 34.07749574167846 8.586796090239417 16.710671474196957 0 0 0
2930 2 32.42115682510282 8.501658831358622 14.328665365042726 0 0 0
2931 1 32.45822218510925 10.827841853775809 16.58799165117594 0 0 0
3253 1 34.06372447128993 10.87156612428516 14.239113818208539 0 0 0
3508 1 37.29229900500253 8.61184176737897 16.5783722740986 0 0 0
3218 1 35.73823077326917 8.620542733878462 14.333718546564599 0 0 0
3219 1 35.58943740146488 10.886276929889796 16.500011377721233 0 0 0
3541 1 37.45692468951787 10.879142221967573 14.29570222557485 0 0 0
3506 2 38.968670226458265 8.582647723624746 14.207617352231992 0 0 0
3507 1 39.10724465976767 10.914320710100968 16.481028144191747 0 0 0
3796 1 40.75008401140818 8.69231495407361 16.32926979438114 0 0 0
3829 1 40.54948232059364 10.958833946041457 14.15313079276673 0 0 0
3794 1 42.59832170782904 8.758317100960047 14.274692404707194 0 0 0
3795 1 42.430343547578424 10.917695991978645 16.503419047979293 0 0 0
3578 2 39.02809316364593 17.55372684032607 14.32670253629726 0 0 0
2678 1 28.93139696267562 13.285657299174044 14.25454355781954 0 0 0
2968 1 30.68927718258525 13.125725246348754 16.543728054968867 0 0 0
2966 1 32.46788151997204 13.14660589685641 14.28428361966672 0 0 0
3256 1 34.0003705425979 13.266943827422667 16.55438201753107 0 0 0
3254 1 35.782931641712715 12.986593235775317 14.131719269040254 0 0 0
3544 2 37.31828499588619 13.150720096472897 16.512170634283052 0 0 0
3542 1 39.06320629826213 13.167415855059115 14.245050874552863 0 0 0
3832 1 40.6929030720065 13.16426587205926 16.557636019126036 0 0 0
3866 1 42.36812258533328 17.938023540102414 14.191666873946282 0 0 0
3830 2 42.49311515444182 13.099374476462694 14.327861745755213 0 0 0
2679 1 28.997785297420982 15.469162050670208 16.62005187120706 0 0 0
3001 1 30.84015375904611 15.443583741787368 14.284132681365646 0 0 0
2967 1 32.390172564327 15.465827103046989 16.623255292791455 0 0 0
3289 2 34.175457613386435 15.308325712479943 14.356243459878385 0 0 0
3255 1 35.54918868974863 15.578184877086835 16.73295420269729 0 0 0
3577 1 37.22225354863898 15.453558196425009 14.28269449197555 0 0 0
3543 1 39.096655948946605 15.501271911957671 16.454636802704346 0 0 0
3865 1 40.82888147357037 15.390471358713539 14.22189564958038 0 0 0
3831 1 42.29651718137467 15.445672648236336 16.43031491872695 0 0 0
3901 1 40.393818111234545 19.957588113508827 14.324507725837922 0 0 0
3004 1 30.57847006496513 17.653219975131325 16.576887998888203 0 0 0
3037 1 30.85850569834801 20.07334817272825 13.999684269225563 0 0 0
2714 1 29.03193293754361 17.745588147210285 14.151610049764924 0 0 0
2715 2 28.981660318054594 19.956983225175268 16.36456725987877 0 0 0
3325 1 34.11811976908439 20.025413472028077 14.23989931354439 0 0 0
3292 1 33.814133157600615 17.953186464963444 16.510710934451218 0 0 0
3002 1 32.4755733469632 17.731551447366968 14.198956782717742 0 0 0
3003 1 32.194634328614285 20.13166768428372 16.475386800800507 0 0 0
3291 2 35.67570982909367 20.040672306800786 16.483070555280275 0 0 0
3613 1 37.332717197216105 20.120278613923855 14.356249501419004 0 0 0
3580 1 37.335157137135276 17.78992201472821 16.461070519026535 0 0 0
81 1 44.03078835496333 10.805328755979106 9.757299370592838 -1 0 0
84 1 44.12034196512744 13.17170737237632 12.18416832855872 -1 0 0
153 1 44.03568980170522 19.86539267157649 9.627995299971541 -1 0 0
12 1 44.03408231137469 4.045181836795965 12.069875486580623 -1 0 0
121 1 44.065860237660075 15.277147653215355 14.37802383294828 -1 0 0
48 1 44.12924545210278 8.540596750677963 11.906786216095092 -1 0 0
16 1 43.94023431419944 4.024068841413822 16.437941368186465 -1 0 0
120 1 44.046395353689086 17.65308845315176 12.020750448740031 -1 0 0
52 1 44.034479900461186 8.766381297696626 16.496821096250592 -1 0 0
2610 1 28.804114971869588 3.9759093889029495 18.67335248192672 0 0 0
2898 1 32.53432898537955 4.0156428817759515 18.665412092855895 0 0 0
3186 1 35.73318659288317 4.136986201360706 18.78433403590242 0 0 0
3474 1 38.99096781950548 3.9779029360015956 18.841369889959985 0 0 0
3762 1 42.478957774192146 4.063952707722217 18.74672534011656 0 0 0
161 1 44.12339563471192 19.922684139386963 18.792000242549243 -1 0 0
2933 1 30.753399091380913 6.169605208808159 18.767745945659527 0 0 0
2611 1 29.22981787067443 6.379515946049434 21.077307969425046 0 0 0
3221 1 33.98204355472414 6.340963782758436 18.80370450491023 0 0 0
3509 1 37.343595976391725 6.369057206144687 18.739364128858462 0 0 0
3797 2 40.703247644581005 6.251906839634226 18.6901973669934 0 0 0
3475 1 39.03381883387754 6.198777934082617 21.15022234496098 0 0 0
3763 1 42.279536195345166 6.190644070316425 20.99284066131794 0 0 0
3621 1 37.554622207320314 19.958480798220194 23.293296119856965 0 0 0
2646 1 29.14160535484225 8.567702297565468 18.67799636194227 0 0 0
2969 1 30.77350214811691 10.927069150544712 18.993970700192637 0 0 0
2647 1 28.872595332973695 11.002954563769599 21.105390748734887 0 0 0
2934 1 32.40017515497981 8.680374240754453 18.894061265077696 0 0 0
3257 1 34.10216905096112 10.95599411111301 18.849361659328114 0 0 0
3222 2 35.69238045758408 8.671447931102957 19.00818940105238 0 0 0
3545 1 37.36772402157759 10.773941152501632 18.68797658863427 0 0 0
3510 1 39.119437840196724 8.506354223974991 18.611303016034803 0 0 0
3833 1 40.707750693404144 10.886110127472355 18.824034078677904 0 0 0
3800 1 40.64801845916585 8.474940321933978 21.07533337200991 0 0 0
3798 1 42.29423680879036 8.50371300392892 18.731528901747897 0 0 0
3298 1 35.76928777694364 17.721026642053545 23.428381442460566 0 0 0
2682 1 29.032667473508752 13.165936261329664 18.89274537773144 0 0 0
2970 1 32.46008850233609 13.241345022979305 18.892086709899967 0 0 0
3260 1 34.06722486753194 13.145674076747524 21.106111111348593 0 0 0
3258 1 35.73676004443581 13.063326222267825 18.834204271796075 0 0 0
3546 1 38.95353117871181 13.199612576495912 18.6967239523204 0 0 0
3836 2 40.71502676064484 13.253655600349106 20.98682850779556 0 0 0
3834 1 42.290206321540495 13.258272153409866 18.86458083580588 0 0 0
3005 1 30.831364651818 15.393417188376592 18.804720729466332 0 0 0
3293 2 34.045163328698486 15.475988151136816 19.003956050469238 0 0 0
3581 1 37.438744542849456 15.475359501437886 18.737862866916846 0 0 0
3259 1 35.87853074189861 15.510158312605103 21.080021996549917 0 0 0
3869 1 40.63360768904811 15.471792542952427 18.695769077148366 0 0 0
2718 1 29.013873464024982 17.73818222215332 18.905224003081827 0 0 0
3041 1 30.54372110884045 20.050538553440976 18.774248836582903 0 0 0
2719 1 29.09226241973836 19.990941612145242 21.172803762131394 0 0 0
3006 1 32.17266996798685 17.94791337851325 18.79086038109863 0 0 0
3329 1 34.00636375967481 20.00455196726747 18.7688285795397 0 0 0
3007 2 32.29575986419173 19.958184240488496 21.033694410490344 0 0 0
3294 1 35.616535343316954 17.74288033464044 18.847576125805407 0 0 0
3617 1 37.28118698584932 19.951987854171257 18.917233232644385 0 0 0
3584 1 37.51254625621425 17.780544496627552 21.21000998109055 0 0 0
3582 1 39.043713104145816 17.810762029014974 18.750149314480254 0 0 0
3905 1 40.82088407015666 20.024290998549173 18.74114867001069 0 0 0
3583 1 39.18916876083187 19.965302622172427 20.97112041772198 0 0 0
3872 1 40.69849939735789 17.66192404617445 21.06250244435458 0 0 0
3870 1 42.52216053269786 17.738648936322786 18.73086904139082 0 0 0
3909 1 40.81607484783523 19.850226730238806 23.209184883134107 0 0 0
3586 1 39.09609185615009 17.75314201641055 23.339150802283452 0 0 0
2900 1 30.651055252489193 4.020693193151717 20.936333925235672 0 0 0
2614 1 28.91597118025031 4.093569203918102 23.1583528226047 0 0 0
3188 1 33.83568249905234 3.931583136872762 20.980967890067944 0 0 0
2902 1 32.21749348493306 3.9035929079617757 23.26360219014369 0 0 0
3476 1 37.24195291661907 3.875145072150433 21.095815830500595 0 0 0
3190 1 35.55841504679186 4.109545115060266 23.34264777529148 0 0 0
3764 1 40.64698359229605 3.923253852910026 20.908530501184366 0 0 0
3478 1 39.19408280641968 3.93071740971115 23.301222589634634 0 0 0
3766 1 42.36872110772411 4.02545361694249 23.211295479806456 0 0 0
2937 1 30.776126876064275 6.206730593906121 23.454982992868793 0 0 0
2899 1 32.185602837557745 6.2279627871925305 21.001859699823747 0 0 0
3225 1 33.79672135938996 6.3823057346921495 23.458146319482577 0 0 0
3187 1 35.71113049064848 6.350396217183638 21.148627703631963 0 0 0
3513 1 37.493098229172226 6.226133273209607 23.42759868331382 0 0 0
3801 1 40.8236489654342 6.450771304117816 23.32900763958404 0 0 0
3871 1 42.4847888128411 19.87790689286517 20.99221921478046 0 0 0
2936 1 30.74571551972442 8.667871972836743 21.108743706485665 0 0 0
2650 1 28.937959387297134 8.51319179605391 23.373767097549212 0 0 0
2973 1 30.587544158750127 10.757840096063953 23.31587793389581 0 0 0
3224 1 33.81628395569671 8.561309926303485 21.1892944522733 0 0 0
2935 2 32.45719384707168 10.873768209079316 21.219585470267806 0 0 0
2938 1 32.23300233186596 8.618107165921938 23.409965812138907 0 0 0
3261 1 34.14407163078534 10.802743353259723 23.36478761387456 0 0 0
3512 1 37.59914762357754 8.493805063201483 21.04975958343426 0 0 0
3223 1 35.799648268761466 10.756311988290514 21.12040136615653 0 0 0
3226 2 35.74783695892182 8.407709549989285 23.270964067512967 0 0 0
3549 1 37.47749040836522 10.880502480774892 23.343305936012353 0 0 0
3511 1 39.037373622130055 10.866735485001486 21.04095497626808 0 0 0
3514 1 39.159212406627034 8.587400891670292 23.403882355372698 0 0 0
3837 1 40.48685475409342 10.828446371441299 23.31153161099065 0 0 0
3799 1 42.204416019642004 10.859703998796057 21.051207463496482 0 0 0
3802 1 42.4896600795819 8.715607378661836 23.398883371081105 0 0 0
3874 1 42.31054293918377 17.644166666003972 23.256900879121613 0 0 0
2972 1 30.715517457887586 13.021541488588088 21.047250405495184 0 0 0
2686 1 28.86380418741324 13.211394447785924 23.343453629045477 0 0 0
2974 1 32.31047138188415 12.937996365944228 23.387696264724454 0 0 0
3548 1 37.30648491422146 13.129463778597888 20.998258285510506 0 0 0
3262 1 35.82876739366207 13.272895395363095 23.402818731674405 0 0 0
3550 1 39.04688339611383 13.147737599198196 23.386675063392342 0 0 0
3838 1 42.194680928443304 12.987289314149693 23.47154861044681 0 0 0
129 2 43.87764854192603 15.12248224034459 23.329992775489465 -1 0 0
2683 1 29.012161418605096 15.4444610520998 21.132880369752186 0 0 0
3009 2 30.674850910311797 15.216161915362195 23.537455125513667 0 0 0
2971 1 32.18019825538158 15.341163095846731 21.19787430843727 0 0 0
3297 1 34.09822630121239 15.484167490814764 23.42523661365672 0 0 0
3585 1 37.42577671869146 15.429781899549091 23.41949106933325 0 0 0
3547 1 38.94153860654033 15.407922251812591 20.975204391008244 0 0 0
3873 1 40.68569488784972 15.45960009781298 23.111435126900634 0 0 0
3835 1 42.46435608945204 15.428734293914474 20.90850171439387 0 0 0
3295 1 35.620608423063814 19.909394232554774 21.062355652309556 0 0 0
3008 1 30.75025515417005 17.690731000265906 21.307876247747323 0 0 0
2722 1 29.205233832294105 17.549375710461472 23.54524829006838 0 0 0
3045 1 30.74234645908294 19.898996229143243 23.435284713574358 0 0 0
3010 1 32.3035976277063 17.480357903150008 23.42552394779893 0 0 0
3296 1 34.073200849389174 17.696567531130114 21.037328796325614 0 0 0
3333 1 33.94535298591105 19.847096621183464 23.354071641980234 0 0 0
165 2 44.09999514458417 19.95920441433238 23.439565278112887 -1 0 0
93 2 44.0631017895981 10.995506271225384 23.223910396913084 -1 0 0
57 1 43.90497778173601 6.363323988007237 23.32834441354238 -1 0 0
56 1 44.05042442417419 8.596725141605763 21.06691021752463 -1 0 0
53 1 44.07982575802923 6.445047307423983 18.856685063953112 -1 0 0
92 1 43.905865006808185 12.970948566575055 21.082079741190718 -1 0 0
89 1 43.945581599540645 10.808268883444079 18.844224061540455 -1 0 0
125 2 44.081885733849774 15.492858099812855 18.642172921979647 -1 0 0
128 1 44.13989011017123 17.787440908611 20.956709157801466 -1 0 0
2618 1 29.00840692257667 4.097811817156927 27.818044290655372 0 0 0
2904 1 30.70015736487875 4.075269579950005 25.498138766523937 0 0 0
2906 1 32.37434664126661 4.269738889799044 27.886488633395647 0 0 0
3192 1 33.985656311749864 4.002371798890717 25.62360441405042 0 0 0
3194 1 35.74506722194042 3.967675161807266 27.886228718095 0 0 0
3480 1 37.401364997699176 3.966977144395506 25.452218393176633 0 0 0
3482 1 38.90536849203179 3.958311811388591 27.926500594436053 0 0 0
3768 2 40.793274573783485 3.960686401229229 25.703378780515063 0 0 0
3770 1 42.56088170794637 4.037374610848635 27.945806745773844 0 0 0
3879 1 42.69232942439673 19.93430842802855 30.07439843903306 0 0 0
2615 1 28.884534248888585 6.455526211867752 25.644160600585316 0 0 0
2941 1 30.568028692652682 6.416381041101446 27.941431005962755 0 0 0
2903 2 32.28158752516246 6.3930332085147805 25.644423359069712 0 0 0
3229 1 34.16876350088219 6.282001053268291 27.883213254240708 0 0 0
3191 1 35.78707787190116 6.160931605073433 25.51832307062342 0 0 0
3517 2 37.35265742747844 6.302563098260634 27.76535684076913 0 0 0
3479 1 39.212269576313226 6.139259012741772 25.653275111794837 0 0 0
3805 1 40.55561083741725 6.176109222832075 27.910993876210206 0 0 0
3767 1 42.387496359478305 6.255285581324521 25.5867015502828 0 0 0
2940 1 30.555240839554635 8.705490888425757 25.713812374654214 0 0 0
2654 2 28.978944969986813 8.678628748685012 27.949537328575154 0 0 0
2651 1 28.830557032047935 11.07516922835995 25.64757510036181 0 0 0
2977 1 30.728076295348735 10.815791720913321 27.874582804845016 0 0 0
3228 1 34.19319162466878 8.630212069624871 25.563637120941383 0 0 0
2939 2 32.35491108919586 10.799986211000945 25.575491698878377 0 0 0
2942 1 32.44977450373851 8.55541261196597 27.835522289436298 0 0 0
3265 1 34.18191354155818 10.912873514071162 27.725759072315558 0 0 0
3516 1 37.37078357419334 8.409965174849887 25.557280942357416 0 0 0
3230 1 35.7220759304328 8.504182784352006 27.892117306379003 0 0 0
3227 1 36.02405326370683 10.8040629656671 25.5526809384452 0 0 0
3553 1 37.49021852431122 10.91672967610981 28.006355624520676 0 0 0
3518 1 38.983989739011626 8.663486781046682 27.84210309334954 0 0 0
3515 2 39.01607774667221 10.726180341564127 25.61387383398782 0 0 0
3841 1 40.745138493172625 10.883422556109485 27.883448533724234 0 0 0
3804 1 40.721797373347954 8.66823718279938 25.693393013310185 0 0 0
3806 1 42.254980705100664 8.620030882528608 27.905869360184578 0 0 0
3803 1 42.43966670811496 10.991620258322836 25.559193489052376 0 0 0
2690 1 29.05065761580188 13.108457924228517 28.030643044339765 0 0 0
2976 1 30.688818506431616 13.13472920949497 25.688018698934304 0 0 0
2978 1 32.30322315743674 13.10487734651337 27.935347607571252 0 0 0
3264 1 34.00142123905153 13.130524240170379 25.609865006420325 0 0 0
3266 1 35.7989305519453 13.060124194388836 27.692586409032543 0 0 0
3552 1 37.50653565885878 13.211618346686246 25.612618733100074 0 0 0
3554 1 38.88243089390378 13.153798928166665 27.950549046266378 0 0 0
3840 2 40.680159064421865 13.101588860721654 25.9124315606664 0 0 0
3842 1 42.63420144965576 13.147643380312871 27.95684393239392 0 0 0
3882 1 42.49716918014265 17.56837506532045 32.227971602857785 0 0 0
2687 1 28.86696795381583 15.299793455732509 25.540299512334524 0 0 0
3013 2 30.796095885249613 15.462516095730638 27.83022848268401 0 0 0
2975 1 32.46932771964442 15.328003464142938 25.627715505654972 0 0 0
3301 1 33.96428566461032 15.247111894980689 27.94073129568172 0 0 0
3263 1 35.66969276041639 15.417113289727771 25.806695906094394 0 0 0
3589 1 37.31006474094117 15.468487230803303 27.91447502713288 0 0 0
3551 1 39.17161650556828 15.425981290914285 25.697208208116063 0 0 0
3917 1 40.92271858950034 19.860484687654033 32.263245258804915 0 0 0
3877 1 40.79113095117586 15.204429722457219 27.961724784501573 0 0 0
3839 1 42.19980557302579 15.452068299540981 25.539900852897084 0 0 0
3012 1 30.744955905662678 17.43809341825609 25.6890102171799 0 0 0
2723 1 28.94983607445564 19.930856470119675 25.593335344711196 0 0 0
2726 1 28.834559162259435 17.448650802224403 28.013730311846427 0 0 0
3049 1 30.551160259281282 19.791616281299046 27.832275861374608 0 0 0
3337 1 33.99278891615976 19.92858296315206 27.96878650028318 0 0 0
3014 1 32.443520047799055 17.709381911380646 28.009201098600066 0 0 0
3011 1 32.38277102521094 19.984499313306408 25.649121001822735 0 0 0
3300 1 34.01542174615823 17.652384999969687 25.746339408744944 0 0 0
3299 2 35.77019010201625 19.863979950012116 25.582469983286366 0 0 0
3302 1 35.70406938694045 17.6142555870183 27.875597085775475 0 0 0
3588 1 37.37561607057995 17.602009302330256 25.69239812020672 0 0 0
3625 1 37.46574879420071 19.91939812535724 27.885655463616477 0 0 0
3913 1 40.72981788065593 19.88389128818615 27.866617672417313 0 0 0
3590 2 39.070605540957494 17.62513829689202 27.89846899199354 0 0 0
3587 1 39.154708352804725 19.93892596030995 25.59069041194966 0 0 0
3876 1 40.6690674404571 17.694781956283308 25.59441019498061 0 0 0
3878 1 42.34021080150817 17.62835734097274 27.85332590593098 0 0 0
3875 1 42.23942457948337 19.935004661812624 25.529145479396668 0 0 0
100 1 44.144178408626665 12.972061692096915 30.157793091686266 -1 0 0
2622 1 28.906294368016127 4.056397530759167 32.40683415595092 0 0 0
2908 1 30.69691363893633 4.095373269863529 30.103109534745837 0 0 0
2910 1 32.37496516241124 4.076512279421677 32.44340133644071 0 0 0
3196 2 34.139950742135696 4.147426036791776 30.22276943907045 0 0 0
3198 1 35.766518851590604 4.007928822062065 32.479600432840414 0 0 0
3484 1 37.320228422323204 3.770000400639729 30.208523275834107 0 0 0
3486 1 38.97223884235887 3.8900753210838346 32.335254104277254 0 0 0
3772 2 40.73038203834457 4.045868603097077 30.128218480844406 0 0 0
3774 1 42.589694853721454 3.994381018994268 32.31405193057596 0 0 0
2619 1 28.900864900347692 6.26968480103225 30.183566053948216 0 0 0
2945 1 30.634142481969697 6.211261533173594 32.40776992666876 0 0 0
2907 1 32.34134549613922 6.395614477620943 30.199865899817055 0 0 0
3233 1 33.989210181760846 6.243342680309183 32.45272034780551 0 0 0
3195 1 35.90245806987185 6.32803225820085 30.200722383258093 0 0 0
3521 1 37.30458960469204 6.302355217843781 32.53574461581616 0 0 0
3483 1 38.867595739812856 6.1278977348290145 30.102822413512904 0 0 0
3809 1 40.69664981117389 5.986359571956432 32.32704313400447 0 0 0
3771 1 42.34174332789196 6.362312124694793 30.05890323495379 0 0 0
3880 1 40.79391386461469 17.58124524541736 30.138237796750477 0 0 0
2944 1 30.77057043931015 8.547951693374754 30.069251281441787 0 0 0
2658 1 29.125797311446114 8.478991037273385 32.29198428044653 0 0 0
2655 1 29.01119614702762 10.737905691890576 30.055480790080857 0 0 0
2981 1 30.684916656083175 10.916211842992565 32.33081163439941 0 0 0
3232 1 34.06243344102308 8.612656984650759 30.174626562972268 0 0 0
2943 1 32.482078510816756 10.913434021690884 30.17494286335567 0 0 0
2946 2 32.44681322543618 8.439050260854174 32.395802247508456 0 0 0
3269 1 34.09659476806586 10.841288305567904 32.420719981451796 0 0 0
3520 1 37.515376611224696 8.42364208708199 30.157328435252264 0 0 0
3234 1 35.615317473316416 8.48848081712778 32.525125193210826 0 0 0
3231 1 35.72100940686082 10.83456648819292 30.259053882226482 0 0 0
3557 1 37.39193739812065 10.655531010954762 32.4840377019802 0 0 0
3522 1 39.16906930391523 8.60955976864721 32.61265934583689 0 0 0
3808 1 40.64591694097321 8.431459325184314 30.164532205388866 0 0 0
3845 1 40.709252607915076 10.845001006640983 32.51500018208634 0 0 0
3519 1 39.20154610602085 10.891272088447078 30.240635605513628 0 0 0
3810 1 42.15949133066979 8.332731860330831 32.45715479345711 0 0 0
3807 1 42.30051624168717 10.861404483516985 30.12376796208664 0 0 0
3594 1 39.2675418471975 17.573308872830978 32.477024367681295 0 0 0
2980 1 30.795541299816534 12.929999192636343 30.222033862465157 0 0 0
2694 1 28.891939852371035 13.129774332905036 32.41033948083122 0 0 0
2982 1 32.26784013869147 13.167243278442303 32.497514197758676 0 0 0
3268 2 34.08717853920495 13.215444535527133 30.139725227668876 0 0 0
3270 1 35.66169252819286 13.13071148457915 32.4935774923047 0 0 0
3556 1 37.27016476568048 13.199858157210825 30.14123825390085 0 0 0
3558 1 38.91532374739571 13.018725513008658 32.54460957412239 0 0 0
3844 2 40.76238742933273 13.128508970849946 30.3285538533519 0 0 0
3846 1 42.61597324374844 12.999599482501095 32.5548843570386 0 0 0
3591 1 39.16081297196748 19.82184072406208 30.212879661928678 0 0 0
2691 1 29.083481370946245 15.287685140535848 30.148985602862926 0 0 0
3017 1 30.629970676580157 15.4377305995125 32.42499219980337 0 0 0
2979 1 32.20396398185253 15.367271207332239 30.155767791201274 0 0 0
3305 1 33.97317483718179 15.393809804635975 32.38958989697667 0 0 0
3267 1 35.85700650290505 15.485203947923189 30.212496112836043 0 0 0
3593 2 37.44529825478076 15.319326877998378 32.57993584100627 0 0 0
3555 1 39.06875273217147 15.319091510783803 30.12489944852673 0 0 0
3881 1 40.77366506271985 15.310468344483784 32.293743367905996 0 0 0
3843 1 42.526228683101316 15.285738236295566 30.139243884288145 0 0 0
3016 1 30.74400801239888 17.719848951316184 30.13901750671825 0 0 0
3053 1 30.56164817318963 19.93364346565197 32.44531445029003 0 0 0
2727 1 28.897869433635634 19.93306197619928 30.092405897600024 0 0 0
2730 1 28.997349882264075 17.684538322199163 32.388915107683914 0 0 0
3341 1 33.90406329891412 19.980720877000188 32.242526373947115 0 0 0
3015 1 32.15625818466108 20.101038035004095 30.17835554711508 0 0 0
3018 1 32.27148811376615 17.711412167631543 32.38263475646348 0 0 0
3304 1 33.926914450727544 17.757868172950012 30.258440511072873 0 0 0
3629 1 37.46499308015264 19.81741231067096 32.40494922663555 0 0 0
3306 1 35.703019424201685 17.683647377288473 32.48152835673905 0 0 0
3592 1 37.38511221073709 17.670506071468914 30.17891558267509 0 0 0
3303 2 35.746813447438946 20.01641354638797 30.194975178774072 0 0 0
24 1 43.97620965995777 4.037572219687194 25.54237908210303 -1 0 0
61 1 43.995244915115656 6.303964877018716 27.831476018308393 -1 0 0
132 1 44.000869821380796 17.625206214552627 25.578951901164245 -1 0 0
96 1 44.11726839132491 13.23946030974302 25.510327240872353 -1 0 0
60 1 44.08016827925314 8.596065567349633 25.750683753400175 -1 0 0
97 1 44.06534422713885 10.786460630415297 27.877000733510606 -1 0 0
64 1 44.11523533065913 8.510124156373994 30.160828540766715 -1 0 0
65 2 44.10350035353925 6.417922331991972 32.44550640305764 -1 0 0
137 2 44.10484657905945 15.311346195160342 32.39993057451083 -1 0 0
2626 1 28.955686103209935 4.18333575867349 36.77237560180136 0 0 0
2912 2 30.70081571725322 4.239769779241374 34.66477087211631 0 0 0
2914 1 32.512606788100214 4.011982910147161 36.90662328663642 0 0 0
3200 1 34.06015609774503 4.063648508239186 34.672211681636284 0 0 0
3202 1 35.668024436431516 4.208903156301561 36.891852442716385 0 0 0
3488 1 37.5513965444414 4.181922595283567 34.66207917820262 0 0 0
3490 1 39.06860505773283 4.080409195734838 36.90332013548492 0 0 0
3776 1 40.73506605107909 4.097213226283412 34.46578768249968 0 0 0
3778 1 42.370486828622504 4.0888161323585255 36.91126560370499 0 0 0
3206 1 35.50332200068552 8.599886492731386 41.38876512781485 0 0 -1
2623 1 28.958879723153707 6.336474796757424 34.64234797198499 0 0 0
2949 1 30.757652324384182 6.328248070405925 36.83571998252853 0 0 0
2911 1 32.400290287824596 6.329157189268802 34.660299398228744 0 0 0
3237 2 33.94816065811692 6.446264930683683 36.99241140191303 0 0 0
3199 1 35.6236841916243 6.3715654741889285 34.853224442227585 0 0 0
3525 1 37.57005637751244 6.283228170233515 36.82833834748061 0 0 0
3487 2 39.30611642255575 6.421547151549724 34.7229857910324 0 0 0
3813 1 40.71868486430282 6.314034822298565 36.972859870218926 0 0 0
3775 1 42.23282036861695 6.285220162930703 34.55702101875623 0 0 0
105 1 44.10261480746154 10.947913327795801 36.96540033037273 -1 0 0
2948 1 30.6177002374696 8.567968145535891 34.55902994535323 0 0 0
2662 1 29.073655955852878 8.57544003803928 36.86708393257038 0 0 0
2659 1 29.07894752131152 10.900076049596008 34.78055984179382 0 0 0
2985 1 30.597497093534976 10.986244584842952 36.9106928148382 0 0 0
3236 1 34.04204387689465 8.76584995028518 34.76189805121925 0 0 0
2950 1 32.05328280396058 8.664256857327212 36.92093512582527 0 0 0
2947 1 32.22541205538736 10.902221242629475 34.528070067333815 0 0 0
3273 2 33.98555473021765 10.78391567355971 36.81832316776433 0 0 0
3524 1 37.42466899593022 8.436767879532248 34.78230361002579 0 0 0
3238 1 35.837908241691686 8.622501846033511 37.026211686226304 0 0 0
3235 1 35.8488512953071 10.87280936160122 34.848938536518915 0 0 0
3561 1 37.63631039139395 10.939868295454167 37.06645218002089 0 0 0
3526 1 39.03838821028899 8.566355170187016 36.99387469386734 0 0 0
3523 1 38.815292595415414 10.883481249705602 34.72540110876352 0 0 0
3849 1 40.70638575448182 10.679303095996293 36.875213526828574 0 0 0
3812 2 40.80003181987379 8.603749658092815 34.949948936067116 0 0 0
3814 1 42.6901474328744 8.54643669749963 36.90064791096394 0 0 0
3811 1 42.6859687974947 10.784334189820001 34.679195863381054 0 0 0
2698 1 28.86608460571038 13.146866352175433 37.050175304635815 0 0 0
2984 2 30.643638624245966 13.231127970667393 34.66299607070407 0 0 0
2986 1 32.30888003211265 13.006054282066874 36.91701325542098 0 0 0
3272 1 33.98769947259364 13.052444967446773 34.854164429689675 0 0 0
3274 1 35.752177616609266 13.086402546794483 36.938888149711616 0 0 0
3560 1 37.27994232050866 13.221315283287197 34.85803107863808 0 0 0
3562 1 39.22298848732829 13.168496225766226 37.00487690765142 0 0 0
3848 2 40.7307153349963 12.788162604157828 34.64074756906862 0 0 0
3850 1 42.3545184053915 13.194318027921941 37.00178405958184 0 0 0
32 1 44.10939422395058 4.042254588175743 34.64711802585384 -1 0 0
2695 1 29.00166019871007 15.4792963689044 34.59537638069946 0 0 0
3021 1 30.667737399991438 15.315667329918801 37.050660163079414 0 0 0
2983 1 32.3388141668103 15.283484074973178 34.59888251661762 0 0 0
3309 1 33.95931197556309 15.360641611601116 36.954847096979904 0 0 0
3271 1 35.572035786402274 15.372160469047007 34.649165959511095 0 0 0
3597 1 37.498940781478815 15.371888833695639 36.991339717206785 0 0 0
3559 1 39.214796290620264 15.25320039730001 34.76814160208458 0 0 0
3885 1 40.700160150693065 15.482630057587354 36.854982219133404 0 0 0
3847 1 42.24355886127835 15.186893703768428 34.66827473081263 0 0 0
3020 1 30.800295137175148 17.641581537639947 34.67832063803148 0 0 0
2731 1 29.016168757093943 19.98617207235692 34.6233808806153 0 0 0
2734 1 29.01015511469982 17.60139170645784 36.924746152934375 0 0 0
3057 1 30.782613543442572 20.11679010020672 37.11190132187957 0 0 0
3345 1 34.03024619451962 19.939262142274956 36.93515139854449 0 0 0
3308 1 33.924317878538886 17.691586269773914 34.72613888789597 0 0 0
3022 1 32.26860808566347 17.709753554186175 37.03305676238432 0 0 0
3019 1 32.28823734710362 19.94509329339226 34.70448743703109 0 0 0
3633 1 37.50219644525074 19.91056905958575 36.82627359947297 0 0 0
3307 1 35.656673755061775 19.98946166830049 34.572736084631714 0 0 0
3310 1 35.91399620626153 17.70565119449302 36.954640265152975 0 0 0
3596 1 37.48922769768589 17.63311799906864 34.75083692365958 0 0 0
3595 1 39.23032899214357 19.787000267795584 34.701941940146455 0 0 0
3598 2 39.18111075366833 17.835148244574718 36.91912321622931 0 0 0
3921 1 41.04651470718016 19.817538015904624 37.02414221038853 0 0 0
3884 1 40.938105445860664 17.576127443300813 34.73580006675783 0 0 0
3886 1 42.59379581603097 17.61294863490606 36.88871597559451 0 0 0
3883 1 42.515946377825685 19.770107120289335 34.548948465900125 0 0 0
3887 1 42.55309012519195 19.887877333185614 39.21977529381232 0 0 0
2630 1 28.87025228709187 8.720771248787706 41.33637533952465 0 0 -1
2916 1 30.68395910726477 4.041612165198026 39.17551478310652 0 0 0
3204 1 34.09001262986015 4.26299370044085 39.34742412246301 0 0 0
3278 1 35.65288077909331 17.686237478861102 41.42604981901688 0 0 -1
3492 1 37.43927260904492 4.088464036420666 39.18145242891205 0 0 0
3780 1 40.79152390679367 4.235748443074149 39.1366124896107 0 0 0
3854 1 42.34074063598283 17.471264103353583 41.28940253965024 0 0 -1
2627 1 29.015601879812728 6.369012655693962 39.2443382382299 0 0 0
2735 1 29.05435267854171 19.943956332096164 39.220747468923264 0 0 0
3313 1 33.89895090085435 19.96835315234784 41.26476923651849 0 0 -1
2915 1 32.230841559945766 6.332859918401774 39.21496051835841 0 0 0
3203 1 35.86841048398589 6.326674808410138 39.11370864537331 0 0 0
3491 1 38.96708076533532 6.321389411974804 39.17216205503391 0 0 0
3779 1 42.81472049524934 6.235189670844967 39.192889728753244 0 0 0
2952 1 30.719055671140396 8.732930372568038 39.29739146720098 0 0 0
2663 1 28.849605565129192 10.874783584638623 39.22097208806619 0 0 0
2990 1 32.47777456894322 17.78402901296625 41.392520510349755 0 0 -1
3240 1 34.01512359164925 8.452489432910614 39.12034176242713 0 0 0
2951 1 32.41734207705455 10.885456669945208 39.16510027809922 0 0 0
3312 1 34.174489615085086 17.623639287808647 39.18144268710738 0 0 0
3529 1 37.38508578060365 10.70936493766865 41.38867669978296 0 0 -1
3311 2 35.82328717077649 19.777864919788378 39.27215983483276 0 0 0
3528 1 37.22719148180699 8.735594583856244 39.39176906334494 0 0 0
3239 1 35.459370570398356 10.821403697668202 39.132956167089446 0 0 0
108 2 44.129757621001524 13.05446584889162 39.13195775626643 -1 0 0
3816 1 40.88395836373736 8.33604927830293 39.16373661748615 0 0 0
3527 1 39.34804791075491 10.816094427964808 39.24209639805861 0 0 0
3851 1 42.60921800592152 15.371827642372148 38.94599356840307 0 0 0
3815 1 42.38058464633809 10.75141845800619 39.0731497995847 0 0 0
3024 1 30.595444800731784 17.648009861668214 39.24703669086509 0 0 0
2988 1 30.693279568792057 12.987350515623405 39.260470280906986 0 0 0
3276 1 34.05264721788849 13.226221820185927 39.25948186561281 0 0 0
3564 2 37.392662851144166 12.76578992962455 39.24544834967908 0 0 0
3599 1 39.14996325929818 19.828481762260264 39.061491670915956 0 0 0
3023 1 32.380048316239275 19.918508194144056 39.129973249956535 0 0 0
3852 1 41.076816005643444 13.13425624088178 39.413166843828776 0 0 0
3600 1 37.65445150851058 17.525413135647746 39.18172851893564 0 0 0
2699 1 28.9516098429985 15.289433642994453 39.22444476669811 0 0 0
2987 2 32.368033053022295 15.443076455785087 39.21643861779023 0 0 0
3275 1 35.85106542974347 15.353532662729872 39.180101713789284 0 0 0
3888 1 40.6642601073429 17.332849647838295 39.06125094114353 0 0 0
3563 2 39.010898660585795 15.056787356352137 39.31910183866751 0 0 0
3782 1 42.37679143306762 8.555976081427602 41.43630329101532 0 0 -1
3781 1 40.83460759608414 6.2890839426821 41.386951659378255 0 0 -1
3601 1 37.554409786988586 19.7140702851711 41.36114907926002 0 0 -1
3853 1 41.00206800165288 15.17463745178191 41.424342684877644 0 0 -1
2989 1 30.740435873892537 15.51093230367027 41.34271184298768 0 0 -1
3493 2 37.39288376139477 6.400340791046551 41.36554946113587 0 0 -1
3494 1 39.18389018742393 8.602439794066576 41.35559183841113 0 0 -1
2666 1 29.11759554450093 13.222033924705721 41.425134875670636 0 0 -1
3028 1 30.686991607147057 22.15313932515469 3.0606245631170705 0 0 0
148 1 44.03819261050868 22.256108353863663 3.020571671668793 -1 0 0
3316 1 33.972322240766445 22.211746341657125 2.87229071609073 0 0 0
3604 1 37.38168585633422 21.96557178205862 2.6794134638963634 0 0 0
188 1 44.11923798797092 26.74797885185234 7.5749729436535205 -1 0 0
3892 1 40.9959367557339 22.212292696597522 2.8536168234171737 0 0 0
2739 2 29.085628907526598 24.54110723631832 3.081144482954065 0 0 0
152 1 44.03161289306272 22.178088715459275 7.43699815779192 -1 0 0
3027 1 32.411062059263735 24.49225552981514 3.1469809538765983 0 0 0
3315 2 35.91680883640738 24.254632735963934 2.9646835402046015 0 0 0
3097 2 30.619906608930513 29.210484828415844 1.026594193690856 0 0 0
3603 1 38.92496420994788 24.382355925944058 2.917721527452786 0 0 0
3891 1 42.46376225040715 24.592368650362523 3.050583884291671 0 0 0
221 1 43.96638944040586 28.972845637034847 5.189240295845037 -1 0 0
3064 1 30.727071925598928 26.84517991252161 3.1968180621085946 0 0 0
2775 1 29.007515563980924 29.015194910500863 3.215580545209939 0 0 0
3457 1 37.364054510593974 38.02582195223107 0.7337785054798636 0 -1 0
3352 1 34.19174298796202 26.6526655566242 2.8555541707641763 0 0 0
3063 1 32.44620484756028 29.10882264110215 3.082743960739996 0 0 0
3421 1 33.98215794506548 33.4910424802279 0.8593518656705164 0 0 0
4004 1 40.88064912042579 35.83302738710937 7.4887511509247995 0 0 0
3640 1 37.354335381908236 26.59897938728705 3.052732069328084 0 0 0
3351 1 35.88621752946654 29.024096053996836 2.9419010393453693 0 0 0
3928 1 40.38905436445985 26.75447741445032 2.9586903170381667 0 0 0
3639 1 39.12615930250912 29.191686602170865 3.155876824184456 0 0 0
3715 1 39.30938099229461 38.13694626942338 7.3960522229005585 0 0 0
3926 2 42.496730964872405 26.719227823220102 0.8843876465801802 0 0 0
3927 1 42.27185444637608 28.804124136026278 2.8682909557187224 0 0 0
3100 1 30.70110633353662 31.15955220497281 2.9276083923927865 0 0 0
3388 1 34.22617623544873 31.24010050878665 2.8177161003357387 0 0 0
3714 2 39.05341276706215 36.01753404679788 5.322234304934916 0 0 0
3676 1 37.334299817410994 31.327247814595506 2.833645382695074 0 0 0
3169 1 33.979139837888134 38.09208967292033 0.7678430863917909 0 -1 0
3964 2 40.93726904398861 31.317173339998654 2.824288049536785 0 0 0
2811 1 29.15885410312132 33.49990143422705 2.8642025281762433 0 0 0
3099 1 32.218824586821476 33.49132576917383 3.0322951507950635 0 0 0
3745 1 40.736835878303374 37.97607686855871 0.9039253066789132 0 -1 0
3387 1 35.66547824512012 33.618625471575726 3.0654103944576687 0 0 0
3675 2 39.28342947171816 33.554047358320915 2.7064788353521347 0 0 0
3963 1 42.48628523962605 33.573137794470256 2.947798984821473 0 0 0
2847 1 29.042867242757836 38.14075045756975 3.0248609977583607 0 0 0
3136 1 30.725514443058955 35.84750371326234 2.937697571785967 0 0 0
3424 1 33.88423861358574 35.81661452654576 3.063328208821941 0 0 0
3135 1 32.285277170691856 38.03384120307182 3.0238137164540104 0 0 0
2774 1 29.245178114891743 26.968974468820818 0.8976992350203283 0 0 0
3716 1 37.30625197685727 35.85666565536473 7.432345570354663 0 0 0
3749 1 40.92936584450591 38.20830547727448 5.130326027078943 0 -1 0
3426 1 35.70026681405687 35.673549033418176 5.0924950751128755 0 0 0
3712 1 37.52248810059729 35.80496167566316 2.974312571423508 0 0 0
3423 1 35.50342989813652 38.067164411545065 2.9503804827816014 0 0 0
3711 1 39.094169212377686 38.11662401776118 3.1262746603148788 0 0 0
4000 1 40.731703050622 35.83942602537524 2.985113433097502 0 0 0
3999 1 42.55886632123154 38.016674060412264 2.98159978309092 0 0 0
2742 1 29.010185744153617 22.41954049769311 5.47212258681371 0 0 0
3032 1 30.697943793483915 22.342477719234203 7.533914273863587 0 0 0
3030 1 32.406658830846716 22.197226539461774 5.127428567867568 0 0 0
3320 1 34.056203107415286 22.224112536351214 7.6679875932623816 0 0 0
3318 1 35.736536087500355 22.16328939164956 5.083203121816433 0 0 0
3608 1 37.48231632623541 22.27419415297994 7.320862159238978 0 0 0
3606 2 39.16577950767818 22.21209596495658 4.9031562317184925 0 0 0
3896 1 40.59440116278315 22.21222024456659 7.381501723599661 0 0 0
3894 1 42.347871335218834 22.264606395405476 5.209276545689773 0 0 0
2743 2 28.821591924729315 24.734607640435556 7.430640033393924 0 0 0
3065 1 30.81112453469632 24.58751920352247 5.275829331746755 0 0 0
3031 2 32.5396910172958 24.424334518342754 7.527251229581059 0 0 0
3353 1 34.17293824304874 24.460607713144576 5.177596803922969 0 0 0
3319 1 35.71200364178613 24.45023274860934 7.540419392365589 0 0 0
3641 1 37.40485404798864 24.493285612298926 5.314458169091202 0 0 0
3607 1 39.0789916692908 24.49396792281488 7.551868535038898 0 0 0
3929 1 40.63130490781501 24.553634827565865 5.173831234019779 0 0 0
3895 1 42.37509953586633 24.60441091835315 7.4234385257773825 0 0 0
3068 1 30.722934544665577 26.75826790938664 7.306179673124566 0 0 0
2778 1 28.959434484605666 26.698300763421 5.294665034208252 0 0 0
2779 1 29.10554002230245 29.076836475564715 7.511296084502003 0 0 0
3101 2 30.744872664913366 28.91372617652218 5.319469760743176 0 0 0
3356 1 34.02391443469006 26.823894834047636 7.502119440993934 0 0 0
3066 1 32.46240875222993 26.797861951047476 5.216150136950892 0 0 0
3067 1 32.42540694647662 29.032503200863378 7.506382702129017 0 0 0
3389 1 34.155274972336386 29.15189925348824 5.191169116003091 0 0 0
3644 1 37.20618812401809 26.751164274087298 7.694877257916201 0 0 0
3354 2 35.65474602640159 26.86773332895393 5.2246142310584025 0 0 0
3355 1 35.691749498595485 29.11201157943006 7.499848921372692 0 0 0
3677 1 37.37947135911755 29.13327276406536 5.2833281719999565 0 0 0
3642 1 38.84987099263972 26.825537380677737 5.461639422155923 0 0 0
3643 1 39.05888451388129 28.91986033779488 7.619641907371659 0 0 0
3965 1 40.88717098640127 28.99702987775644 5.336065162766034 0 0 0
3932 2 40.94148720117347 26.907678723738712 7.451503449059082 0 0 0
4002 1 42.4338371797756 35.91936045844595 5.198335803094336 0 0 0
3930 1 42.49067270980061 26.75504458755952 5.237431121806724 0 0 0
3931 2 42.58917112311071 28.970913824163468 7.611328732651021 0 0 0
2814 1 28.99219463565811 31.312951209472253 5.209231541825313 0 0 0
3104 1 30.517510584804853 31.332593058571117 7.606972925766792 0 0 0
3102 1 32.36334938831258 31.26194775370936 5.247457633807373 0 0 0
3392 1 34.05675439233579 31.46780322795539 7.522610621715036 0 0 0
3390 1 35.8180172137496 31.380227739276076 5.296752691529053 0 0 0
3680 1 37.54437414752906 31.30552425940187 7.598548391057668 0 0 0
3678 1 39.23080969745975 31.30827678057125 5.177326957937209 0 0 0
3968 1 40.870895199565695 31.200571556410853 7.468831842567179 0 0 0
4003 1 42.518823157354156 38.07695781875036 7.487254775281905 0 0 0
3966 1 42.51167829674565 31.36306292556156 5.227985643435419 0 0 0
2815 1 28.86718375788329 33.387854027437555 7.450441410290911 0 0 0
3137 1 30.52298561320194 33.65337283713862 5.15911360344497 0 0 0
3103 1 32.21544179401359 33.54604220703796 7.369909378323368 0 0 0
3425 1 34.018417160941446 33.54545362630798 5.272631417945345 0 0 0
3713 1 37.53844097644576 33.61179946543571 5.099444219231442 0 0 0
3391 1 35.701557721138684 33.55827314679772 7.4705350645083755 0 0 0
4001 1 40.74744171515793 33.654009718802584 5.142369104737715 0 0 0
3679 1 39.19903749156499 33.662095119975234 7.381209884249693 0 0 0
3967 1 42.58922633848304 33.53473887776259 7.416511665509521 0 0 0
2885 1 30.85912255537587 38.1984763537315 5.235343694078273 0 -1 0
3140 1 30.578936900990612 35.85923952946297 7.433665041456964 0 0 0
2851 1 29.064001232484408 38.07014389722008 7.287909324094318 0 0 0
2850 1 28.926906212684088 35.88143243470138 5.154766201334836 0 0 0
3428 1 34.0400836146607 35.79578097066233 7.455150934570145 0 0 0
3173 1 33.88991533244499 38.050726362379805 5.281961904036324 0 -1 0
3138 2 32.28055499666684 35.76256629255774 5.389468840981984 0 0 0
3139 1 32.45714802133694 38.08515116155409 7.5262432479845085 0 0 0
3427 1 35.61698558854646 38.02434120160279 7.474697819180925 0 0 0
3461 1 37.296061006384356 38.10477080021396 5.28473969328685 0 -1 0
3674 1 39.04811002030215 31.295323813528306 0.7343687717771619 0 0 0
3422 1 35.38454213044132 35.77323376496232 0.7151534723370981 0 0 0
3026 1 32.280509113479944 22.112470712467132 0.7680909725490004 0 0 0
3673 1 37.5103968833596 28.995305227002117 0.8656800901032982 0 0 0
3385 1 34.14437252295731 28.885089484929978 0.7665737136212293 0 0 0
3349 1 34.1711666103844 24.419962287614226 0.7578220157547125 0 0 0
2810 1 28.851788012071268 31.33381568957122 0.7543639114245888 0 0 0
3036 1 30.48518355705584 22.13117060214613 12.016307686967309 0 0 0
2746 1 28.994344256625745 22.4149415864052 9.610731508639258 0 0 0
3034 1 32.34437074828324 22.2372655569889 9.953235184034627 0 0 0
3324 1 34.14106625506705 22.42703634614325 11.963189591383784 0 0 0
3322 1 35.95185362160794 22.361954511359244 9.665574289332206 0 0 0
3612 1 37.384007048981964 22.468193850786076 12.086021261369934 0 0 0
3610 1 38.97890052725224 22.24109998750942 9.651333973777303 0 0 0
3900 1 40.79761757258146 22.254496314879677 12.001808090403507 0 0 0
3898 1 42.55716654750447 22.255855728139405 9.776365469769248 0 0 0
3069 1 30.710049102980875 24.55417665699252 9.649032342034593 0 0 0
2747 1 29.045212798400748 24.529653206779816 11.906252801830382 0 0 0
3035 2 32.22248415059597 24.401779653058114 12.052469936118545 0 0 0
3357 1 33.95918656003686 24.57075260609919 9.849324781421693 0 0 0
3323 1 35.7517497644981 24.720518306852238 12.160817183002433 0 0 0
3645 1 37.402386702689434 24.652980966350295 9.938353514869746 0 0 0
3611 1 39.268034814469324 24.612665014965703 12.11794536739608 0 0 0
3933 1 40.84340246508631 24.450744054047156 9.75920324496604 0 0 0
3899 1 42.620464975274174 24.390711430953193 12.042221133453127 0 0 0
3072 1 30.467840525042384 26.83596199527001 12.067206451120969 0 0 0
3105 1 30.58649331292021 29.229369620361716 9.670838766626318 0 0 0
2782 1 28.87491169321042 26.785215087145932 9.632072160233196 0 0 0
2783 1 28.81038197735059 29.082402760651213 11.99116064326958 0 0 0
3360 1 33.8112514691925 26.658541721057894 12.10701920167121 0 0 0
3070 1 32.325964662155116 26.931599481741316 9.800893135689053 0 0 0
3071 1 32.249433958170755 29.04961692361112 12.034228221197539 0 0 0
3393 1 34.13000416341358 28.998810595286624 9.799990045431315 0 0 0
3648 1 37.40391672979492 26.867239661786584 12.157063789442862 0 0 0
3358 1 35.62080547249833 26.732321279084758 10.010179410783236 0 0 0
3359 2 35.53361357125795 28.96685326335048 12.196649262496779 0 0 0
3681 1 37.34597743135617 28.905419511674754 9.930334873033795 0 0 0
3646 1 39.229096475418466 26.725565617567792 9.864376978999704 0 0 0
3647 1 39.19085568878586 29.07924097310659 12.095622707863795 0 0 0
3936 1 40.805948182023435 26.817817422456912 12.039046349528865 0 0 0
3969 1 40.806814750928 29.086599058112245 9.791350353472625 0 0 0
3934 1 42.46027150407224 26.876688434129015 9.885472860666974 0 0 0
3935 2 42.56852977256312 29.020837612673276 12.012032337503587 0 0 0
268 1 44.115144381664074 35.892698037016 16.50522236198995 -1 0 0
2818 1 28.72792716796044 31.30374837729749 9.860097651104569 0 0 0
3108 2 30.591185715757263 31.39687679613262 12.015883650436422 0 0 0
3106 1 32.385554552249296 31.283270457893693 9.905230580370658 0 0 0
3396 1 33.97623230887743 31.235305224638424 12.149765463226503 0 0 0
3394 1 35.673034274312755 31.447385011962556 9.742224161499303 0 0 0
3684 1 37.2519756163641 31.32168916901168 11.944110558496543 0 0 0
3682 1 39.1284676729786 31.23003507276472 9.757760909234994 0 0 0
3972 1 40.92416105328711 31.26324942542404 11.959779783110212 0 0 0
3970 1 42.5859184261694 31.197527188515622 9.651433452984579 0 0 0
2819 2 28.912401759448173 33.422250816382615 11.843281624747846 0 0 0
3141 1 30.738329484323167 33.452245742949444 9.774070300627221 0 0 0
3107 1 32.55977665331747 33.53689268358491 12.056422229740278 0 0 0
3429 1 33.968724612476954 33.56773076712274 9.63243766502377 0 0 0
3395 1 35.62855225409456 33.58803291379989 11.9961822264008 0 0 0
3717 1 37.52915470889082 33.55822877982417 9.713602538868688 0 0 0
3683 1 39.21113584679366 33.33340407165073 12.047167963130516 0 0 0
4005 1 40.85332202942422 33.358550431482705 9.76123225189011 0 0 0
3971 1 42.43365480928289 33.49056660391835 12.041861104851746 0 0 0
3144 1 30.53954974925834 35.61767586288426 11.942917943692741 0 0 0
2854 1 28.918105310850443 35.61838050038511 9.634767962696897 0 0 0
2855 1 29.05450186267479 38.036141469384 11.992743949064485 0 0 0
2889 1 30.647345302839298 37.968333681263765 9.729120695054823 0 -1 0
3432 2 34.14145826382863 35.92132983967406 11.850123657114182 0 0 0
3143 1 32.203568225986935 37.84914950093377 11.89879771423813 0 0 0
3142 1 32.268019634177215 35.746803097662436 9.545712210786386 0 0 0
3177 1 34.09702638650851 38.03571335133643 9.837254850309458 0 -1 0
3720 1 37.47159328290048 35.68164773448056 12.06532819508537 0 0 0
3430 1 35.89018209254255 35.70078551295935 9.77061499969629 0 0 0
3431 1 35.897448129782454 37.86149444772176 11.993166741946194 0 0 0
3465 1 37.49066199768082 38.17796869757037 9.598282775262623 0 -1 0
4008 1 40.57083756532704 35.64955145415429 12.036213057352688 0 0 0
3718 1 39.07668496227999 35.867668372812034 9.694961177295408 0 0 0
3719 2 38.96417237842908 38.10242925176643 11.92476382845471 0 0 0
3753 1 40.77281275639285 38.00035678642844 9.599239254131387 0 -1 0
4006 1 42.29085685762859 35.72612761787426 9.79790294369042 0 0 0
4007 1 42.309966248699006 37.97271332055927 12.00176354713383 0 0 0
9 1 44.06510301050715 37.97389376085438 9.758395028960962 -1 -1 0
2750 1 28.73317780887771 22.071380932505296 14.269828344124958 0 0 0
3040 1 30.467792278010812 22.258979455668623 16.359504261507126 0 0 0
3038 1 32.34111729538333 22.317299374548185 14.154756897595757 0 0 0
3328 1 33.99053218045947 22.268743461789104 16.6194962495736 0 0 0
3326 1 35.756108965515566 22.414720236162232 14.322363520456356 0 0 0
3616 1 37.38449111960387 22.257374762265403 16.39686985276564 0 0 0
3614 1 39.261815913801236 22.26098338879286 14.292528139670768 0 0 0
3904 1 40.802340910028185 22.182285380097444 16.665127442550386 0 0 0
3902 1 42.444872566848275 22.035494540499275 14.393778859934233 0 0 0
2751 1 28.792574659073228 24.598977384635024 16.61115549854349 0 0 0
3073 1 30.50765510237199 24.344069321261404 14.256118852926289 0 0 0
3039 1 32.08542129680758 24.51687424164984 16.413008005830036 0 0 0
3361 1 33.88141099330916 24.648452947071792 14.451862136671268 0 0 0
3327 2 35.61270799009845 24.418632039496654 16.425053721383648 0 0 0
3649 1 37.525303178007825 24.544610169096927 14.36823880222266 0 0 0
3615 1 39.16349375900456 24.473311213501077 16.532223303061585 0 0 0
4010 1 42.293098542594194 35.73176181261447 14.269145087917718 0 0 0
3937 1 40.884694904431 24.502325116863123 14.393435479798676 0 0 0
3903 1 42.5408431951756 24.458968881609096 16.681628491749038 0 0 0
3076 2 30.533993367610577 26.760485753060298 16.718510000959512 0 0 0
2786 1 29.03760663664434 26.6680230403467 14.41777049155756 0 0 0
3109 1 30.534359447140908 28.981075399773463 14.33127775659764 0 0 0
2787 1 28.94338773999832 28.958219410236413 16.568218206070775 0 0 0
3364 1 33.912249050945555 26.799635922126186 16.52496853928554 0 0 0
3074 1 32.09241598723821 26.73370899872832 14.40601699930377 0 0 0
3075 1 32.40117062453557 29.038452137068504 16.586811232014107 0 0 0
3397 1 33.80408052581225 28.932504779110626 14.294486075048447 0 0 0
3652 1 37.332250646019 26.669859227125265 16.396004788442607 0 0 0
3362 1 35.613129669475065 26.816656096004827 14.304822413264402 0 0 0
3363 2 35.68062117734992 28.854308574403827 16.310073249411893 0 0 0
3685 1 37.46668182422531 28.98624687859363 14.357627699652232 0 0 0
3650 2 39.22603731659238 26.781754777415454 14.426995816762792 0 0 0
3651 1 39.24043973969544 28.804984824434904 16.565560342967323 0 0 0
3973 1 40.82048932361368 29.05222073556839 14.23654281576849 0 0 0
3940 1 40.99249740081846 26.66269323225866 16.55762210621296 0 0 0
3938 1 42.59713244052994 26.919773864938662 14.080490505683931 0 0 0
3939 2 42.683271866750616 29.03092227178843 16.487653864102054 0 0 0
4011 1 42.22417339335884 37.95922855092395 16.459474604705154 0 0 0
3112 1 30.635544260066013 31.3203505106257 16.57640964137346 0 0 0
2822 1 28.802846428600134 31.278399863669822 14.276046253241962 0 0 0
3110 1 32.19972115582886 31.30387880928458 14.301769005675753 0 0 0
3400 1 34.21181472519803 31.23514986733323 16.649730018053553 0 0 0
3398 1 35.60495504954225 31.002370755987194 14.337967560609506 0 0 0
3688 1 37.3801414189844 31.161142140420914 16.544964528745368 0 0 0
3686 1 39.206773000125956 31.278266521678788 14.24700224944645 0 0 0
3976 1 40.86752501920587 31.11628144991806 16.705517600609966 0 0 0
3974 1 42.66834909044435 31.21019336504341 14.383668878014731 0 0 0
2823 1 28.716493144137957 33.44440805997568 16.420043637122426 0 0 0
3145 1 30.544520810633053 33.56398452008898 14.10570632867599 0 0 0
3111 1 32.49582155232089 33.52250643936539 16.399646728519315 0 0 0
3433 1 34.24048723225055 33.354975970584526 14.288916124280064 0 0 0
3399 1 35.80519880491906 33.569445406851095 16.75386507226107 0 0 0
3721 2 37.29346165249657 33.35138336536451 14.329874167031594 0 0 0
3687 1 39.1180949537745 33.35929575115246 16.539821318465542 0 0 0
4009 1 40.944593532380175 33.52913687985975 14.284891602344155 0 0 0
3975 1 42.431519543490275 33.568952412123735 16.701386504333303 0 0 0
3148 1 30.579614771227263 35.57744076003947 16.267021154968656 0 0 0
2858 1 28.77792395406244 35.723411108722644 14.141432999517036 0 0 0
2893 1 30.696933571935865 38.02865172467975 14.152867967087257 0 -1 0
2859 1 29.066264823045287 38.15491892717035 16.40311893559206 0 0 0
3181 1 33.97001103804022 38.007035917193136 14.065230466946995 0 -1 0
3436 1 34.03595121174691 35.83179401518498 16.351180985757644 0 0 0
3147 1 32.268304652264035 37.911987733077986 16.39125539907765 0 0 0
3146 1 32.54233353474091 35.81699178427995 14.110080594974432 0 0 0
3435 1 35.89909795698911 37.96013377022836 16.46974652573462 0 0 0
3434 1 35.77093119447091 35.69494995435453 14.241994422888801 0 0 0
3469 1 37.464380062009944 37.96501630991847 14.221363597731578 0 -1 0
3724 1 37.3718779672551 35.68383081500489 16.56516098986721 0 0 0
3722 1 39.02844258863571 35.60918513899852 14.358718566412392 0 0 0
4012 1 40.64943145375811 35.69815441813732 16.731405844749556 0 0 0
3757 1 40.54710742470298 38.05742892829484 14.172130319040802 0 -1 0
3723 1 38.99869242118583 37.997905380182765 16.634833350635276 0 0 0
156 1 44.05575771849021 22.042139163552896 12.151299653269062 -1 0 0
13 1 43.9653144335301 38.10352385344144 14.307487951889087 -1 -1 0
264 1 44.037045359251415 35.83302626653374 11.990803575847425 -1 0 0
193 1 44.0271305986238 24.506626412366796 14.441979690600471 -1 0 0
2754 1 28.99766389357456 22.374250214994955 18.88365141376287 0 0 0
3044 1 30.6985176218107 22.199448032460783 21.093069738254822 0 0 0
3042 1 32.205293341960775 22.286096289562572 18.707431510102726 0 0 0
3332 1 34.04459425754933 22.266468015991446 21.019292400583172 0 0 0
3330 1 35.71568735774012 22.121944073316705 18.726274798451392 0 0 0
3620 2 37.35812313763965 22.0888720245604 21.038202930467357 0 0 0
3618 1 39.008812074107475 22.150081715579187 18.887307772091887 0 0 0
3908 1 40.95345834691819 22.225710063125437 21.020065762877863 0 0 0
3906 2 42.59754529051542 22.35035959498188 18.81378101417316 0 0 0
3730 1 38.768323352692356 35.75893850398461 23.361258065685412 0 0 0
3077 1 30.719915929856107 24.674706117960408 18.799701691827188 0 0 0
2755 1 28.87570258113539 24.44390765058217 21.044613947049733 0 0 0
3365 1 33.98378628029663 24.54666644478271 18.63750750862615 0 0 0
3043 1 32.39034460741193 24.5371764706097 21.011396709111903 0 0 0
3653 1 37.32124007250537 24.36631562824698 18.68411016470521 0 0 0
3331 1 35.67989743351542 24.370091852518875 20.953461475059083 0 0 0
3941 1 40.669496054962586 24.3696849575757 18.928621872516835 0 0 0
3619 1 38.973786155927975 24.455960139783716 21.034567531284218 0 0 0
4015 1 42.480104882724866 37.970818955350765 21.21800211049968 0 0 0
3113 1 30.626912102968554 28.848568520129664 18.933869687915116 0 0 0
2790 1 28.695385854310842 26.835353860343744 18.78995108469628 0 0 0
3080 2 30.57088489886121 26.75719683946191 20.966742999499758 0 0 0
3078 1 32.400248646672395 26.8592358066031 18.833678195860237 0 0 0
3401 1 34.193388833686626 28.988334900033873 18.76109556169172 0 0 0
3366 1 35.71489621316598 26.6551073080066 18.571454341112165 0 0 0
3689 1 37.17027867313905 28.917253159640378 18.787152158274278 0 0 0
3656 1 37.343232061181375 26.771277090039845 20.92051008864254 0 0 0
3654 2 39.01731087737901 26.685203070675307 18.59859327971708 0 0 0
3977 1 40.80231955270025 28.793806957204694 18.679191478687105 0 0 0
3655 1 38.93864998618995 28.847252988854393 20.871099583260946 0 0 0
3944 1 40.73358879562569 26.744255146151353 21.1095366006272 0 0 0
3942 1 42.518348758647086 26.619164144257887 18.888665965057594 0 0 0
3765 1 40.78798901782503 37.95445081443744 23.34344614982201 0 -1 0
2826 1 29.076569803442595 31.157034907079687 18.79474825848643 0 0 0
3114 1 32.19983370216695 31.177056265146053 18.680835238672014 0 0 0
3404 1 33.849717629615746 31.3295551225841 20.90249779656261 0 0 0
3402 2 35.734129838473216 31.426843641956673 18.87658556188185 0 0 0
3692 1 37.42970925898802 31.171719857563662 21.091182977113572 0 0 0
3690 1 38.944273137926835 31.040843521608803 18.6841335794671 0 0 0
3978 1 42.35497115876901 31.095085235043957 18.82902578809107 0 0 0
3149 2 30.56446079789211 33.49982200260128 18.562411613965146 0 0 0
2827 1 29.032408058709613 33.37779135006866 20.911878876338864 0 0 0
3437 1 33.9258167504908 33.49292123839277 18.77552851004418 0 0 0
3115 1 31.975259732637767 33.557974342750626 21.032884722012994 0 0 0
3725 1 37.57068887806537 33.433616497933464 18.78487745110938 0 0 0
3403 1 35.57880929710951 33.32712514679725 20.981307760603663 0 0 0
4013 1 40.75675171303392 33.421585291477044 18.767913714443072 0 0 0
2862 1 28.961862889450906 35.72614996442116 18.653718396161977 0 0 0
2897 2 30.672304245864588 38.103533259261745 18.731926908001903 0 -1 0
3152 1 30.421276705737434 35.7810235043984 21.023346699848364 0 0 0
3185 1 33.93662589374397 37.90272494479987 18.77268890694956 0 -1 0
3150 1 32.09999434986771 35.69942051913977 18.542491966163695 0 0 0
3440 1 33.88802992471777 35.662654261397336 20.84702714278879 0 0 0
3438 1 35.65935133892008 35.71745270170942 18.76831420223605 0 0 0
3473 1 37.24184627255417 37.8509537136147 18.8598272920349 0 -1 0
3728 2 37.31066321777766 35.5976941866196 20.983521185538685 0 0 0
3726 1 39.1787191170184 35.71960075460351 19.003948127322975 0 0 0
3761 1 40.78768547154713 38.045927519752 18.99014050751098 0 -1 0
4014 1 42.39284301590164 35.68733477830492 18.807954805772273 0 0 0
236 1 44.057518072959105 31.167076757635993 21.1819562207888 -1 0 0
2758 1 28.840646965174958 22.079739480884754 23.256768955378984 0 0 0
3046 1 32.38497564022283 22.126253833403673 23.354065574319957 0 0 0
3334 1 35.731377347948495 22.056858148318874 23.386383695003623 0 0 0
3622 1 39.15255524195384 22.083166625590902 23.2826884396769 0 0 0
3910 1 42.43411019709494 22.20605273982466 23.360118838383414 0 0 0
3081 1 30.55731005104829 24.289221332471175 23.295404145360298 0 0 0
3369 1 34.09311546690628 24.401422306139953 23.252198379956816 0 0 0
3657 1 37.44856469119841 24.297664044191222 23.333088901910042 0 0 0
3945 1 40.76306514780584 24.601417481037146 23.335001128052973 0 0 0
3907 1 42.51513562164451 24.487169143999562 21.08330411189644 0 0 0
2791 1 28.880098065639096 29.0281842850623 21.056596632275355 0 0 0
3117 1 30.620157526097458 28.968661718750305 23.342350737947807 0 0 0
2794 1 29.070591704152598 26.802858790056277 23.278888685401434 0 0 0
3079 1 32.504594966652725 28.881286373859048 20.992591911552086 0 0 0
3368 1 34.12595387213904 26.69586361078004 21.14425858999024 0 0 0
3082 1 32.254225445276916 26.60244539257101 23.27465046552953 0 0 0
3405 1 34.179541704709564 28.720654366278662 23.436196845312796 0 0 0
3367 2 35.651011005113595 29.083032885224444 21.180533960585688 0 0 0
3370 1 35.84085382263318 26.56866736072952 23.20735599875942 0 0 0
3693 1 37.34897555661434 28.952779264041805 23.262738457695786 0 0 0
3658 1 39.016203893164 26.68212182691533 23.341808136604655 0 0 0
3981 1 40.52410357563989 29.09616728135636 23.258508442578023 0 0 0
3943 2 42.40557898216965 28.936049652039564 21.08229268621495 0 0 0
3946 1 42.41973146394565 26.93815938900074 23.27098756807165 0 0 0
3116 1 30.591798780919007 31.216558602134803 21.00803948511934 0 0 0
2830 1 28.882827934238385 31.20347583268439 23.258234409374648 0 0 0
3118 1 32.47542571050852 31.212166821874998 23.35113102715113 0 0 0
3406 1 35.497349398742514 31.16143053399958 23.256600326392178 0 0 0
3980 1 40.590675451289826 31.160009248620792 20.89926395813219 0 0 0
3694 2 39.002831890542765 31.417554254237707 23.43637680932114 0 0 0
3982 1 42.30186242065232 31.171328546935303 23.312518742873515 0 0 0
3153 1 30.567017966390708 33.532358459765035 23.39493219378709 0 0 0
3441 1 33.997256507530714 33.468161143357186 23.336762683585295 0 0 0
3729 1 37.28731628989238 33.43806670244415 23.14083327311234 0 0 0
3691 1 39.22610353186425 33.527787550241044 21.228930786050668 0 0 0
4017 1 40.93564328827218 33.45548298311817 23.546583103988368 0 0 0
3979 1 42.307545489790115 33.39004480966524 21.05707713784151 0 0 0
4018 2 42.50425946256895 35.80706508952344 23.470970560899328 0 0 0
2863 1 28.847211815621677 38.16167220310486 20.918462394655073 0 0 0
2901 1 30.408570188844713 37.96523590724105 23.14042419977404 0 -1 0
2866 2 28.848454984118565 35.79909722507818 23.472466430122818 0 0 0
3151 1 32.21958976720584 37.919471113152774 20.90980846117903 0 0 0
3154 1 31.985059775701345 35.814100267607735 23.326779539106994 0 0 0
3189 1 33.97421292763051 37.96051141511872 23.12559373093608 0 -1 0
3439 1 35.623523856036655 37.91800512233066 20.95056288260943 0 0 0
3442 1 35.66123772563633 35.72239103849131 23.31503083772238 0 0 0
3477 2 37.31486294167032 38.05291986093859 23.386049557897692 0 -1 0
3727 1 38.91788856450801 37.90821626572964 21.14504726846692 0 0 0
4016 1 40.80883789169624 35.78173800014007 21.274523358827505 0 0 0
269 1 44.120491847951605 33.38882749102331 18.873015286416422 -1 0 0
233 1 44.06379384246046 28.80175301768268 18.93872937863469 -1 0 0
273 1 43.983225994536156 33.53246064868297 23.43420483802795 -1 0 0
200 1 44.08186975536004 26.736957365492945 21.13122047060986 -1 0 0
164 1 44.13585684908538 21.98859479530134 21.240481458717294 -1 0 0
17 1 44.04623398051303 37.89472193618571 18.95797315740111 -1 -1 0
272 1 43.89884025760472 35.70261515744231 21.139002049167882 -1 0 0
3048 1 30.673402751059378 22.181052336280857 25.540675888954244 0 0 0
2762 1 29.011538073659572 22.2293696545797 27.755609043350404 0 0 0
3050 1 32.236331167984254 22.109803537091896 27.906296487743955 0 0 0
3336 1 34.10722301003728 22.13050307783163 25.63514162795064 0 0 0
3338 1 35.77593968538403 22.040652697481686 27.961733038998002 0 0 0
3624 1 37.30686243223162 22.123538718541365 25.65956101203552 0 0 0
3626 1 39.09288863195946 22.21856935232891 27.89433028687197 0 0 0
3912 2 40.792979116163124 22.243761600458093 25.586412228874 0 0 0
3914 1 42.44316235348887 22.17923157264604 27.854086597099283 0 0 0
3085 1 30.77968309099925 24.49271756669609 27.805421191385346 0 0 0
2759 2 28.93160296410238 24.455591536139927 25.745483153343777 0 0 0
3047 1 32.4372369954429 24.38246843809174 25.551980123768132 0 0 0
3373 1 34.07570820927181 24.375463704173427 27.836242508468978 0 0 0
3335 1 35.81938124926576 24.410140237114096 25.60851433578952 0 0 0
3661 1 37.4513716470014 24.41600246270012 28.003311809128423 0 0 0
3623 1 38.935074586651275 24.367879660024446 25.525145076817413 0 0 0
3949 1 40.777658100493234 24.365230862938503 27.538804996062282 0 0 0
3911 1 42.62925194942067 24.38167728940427 25.493801181191127 0 0 0
3084 1 30.583236551381454 26.62843368639044 25.55739908043923 0 0 0
3121 1 30.749763535187334 29.041918030321135 27.777072477524523 0 0 0
2798 1 29.014274050724595 26.694561904336812 27.774252849460037 0 0 0
2795 1 29.01125643745325 28.853351194655954 25.655059274893876 0 0 0
3372 2 34.0895119029389 26.593244199108323 25.594903680328173 0 0 0
3086 1 32.50176653993696 26.808397906105743 27.81349333094534 0 0 0
3083 1 32.40044577804467 29.07504960357676 25.523552860241136 0 0 0
3409 1 34.24521402660632 28.94947848227162 27.811191484253506 0 0 0
3660 1 37.266614416092246 26.776400085651932 25.682133386064457 0 0 0
3374 1 35.79519843270916 26.6519975267136 28.01441643389809 0 0 0
3371 1 35.897967523197416 29.07776087453362 25.619980420795557 0 0 0
3697 1 37.38480013819245 29.00910686324255 28.033068609995553 0 0 0
3662 2 39.16283257841173 26.705034841344048 27.926420885686763 0 0 0
3659 1 38.960694081009976 29.026817262447054 25.594958695840234 0 0 0
3948 1 40.63606401686261 26.76471077427662 25.58236436301118 0 0 0
3985 1 40.75676668445556 29.10082623611344 27.91107602854506 0 0 0
3950 1 42.259041304677346 26.73344206429874 27.852697457632544 0 0 0
3947 1 42.196600017071034 28.947759255406204 25.490539751269033 0 0 0
3120 1 30.5806154256398 31.295958251328855 25.566632809821865 0 0 0
2834 2 29.014295620377155 31.285189203905972 27.954998625165693 0 0 0
3122 1 32.35275207712864 31.3616736104908 27.92148209857156 0 0 0
3408 1 34.03437647923963 31.192647452586996 25.603200168690577 0 0 0
3410 1 35.64363848383159 31.309676207128398 27.93943472961591 0 0 0
3696 1 37.37609408148626 31.267955048545492 25.507967436029205 0 0 0
3698 2 38.96379538380629 31.15847627435977 27.803464040048283 0 0 0
3984 1 40.76960574831514 31.265292333593536 25.629778262224963 0 0 0
3986 1 42.59718682555282 31.292957845103103 27.99255290892579 0 0 0
4026 2 42.46562637131629 35.88512517105226 32.496588815368725 0 0 0
3157 1 30.68618123499047 33.67730574366274 27.83527953238989 0 0 0
2831 1 28.90123206039774 33.61108641689125 25.56173180747014 0 0 0
3119 1 32.3447330563152 33.428955099491446 25.5603550445407 0 0 0
3445 2 34.05330730320332 33.60444505562498 27.758296006935133 0 0 0
3407 2 35.63134487149426 33.544944595808005 25.632540819850128 0 0 0
3733 1 37.43712749788175 33.53379411737589 27.764225158561498 0 0 0
3695 1 38.99860344706239 33.574155781478986 25.352527878876444 0 0 0
4021 1 40.56292856378582 33.37274504609346 27.79195768193826 0 0 0
3983 2 42.59064581317373 33.45716133876006 25.855938209147133 0 0 0
3156 1 30.495525842720618 35.76427725084031 25.679649817111933 0 0 0
2867 1 28.894091890160094 38.250444612165786 25.536117104056014 0 0 0
2870 1 29.075642438759978 35.83030342538998 27.986107204036696 0 0 0
2905 2 30.76779267440461 38.20804223875511 27.779663250912147 0 -1 0
3444 1 33.88150972811065 35.697910211286015 25.549031047697174 0 0 0
3158 1 32.37223629985076 35.83412717516819 27.71359549821357 0 0 0
3155 1 32.25481397849564 37.9958126662592 25.346120354084373 0 0 0
3193 1 33.93073975098478 38.075644447682066 27.9398627142175 0 -1 0
3732 1 37.324431709644365 35.8378838062036 25.641397278095823 0 0 0
3481 1 37.32864603562505 37.90711904391801 27.96297471224608 0 -1 0
3443 1 35.676767530207826 37.96357296283445 25.58359048535215 0 0 0
3446 1 35.58499445933915 35.8009033407282 27.77762434349859 0 0 0
3731 1 39.04077650455028 38.04422009904914 25.63429375714171 0 0 0
3734 2 39.071892292912715 35.80349816657813 27.80394355283808 0 0 0
4020 1 40.71004643706759 35.74162961714024 25.576444738026733 0 0 0
3769 1 40.83997328178265 38.08452381736761 27.857930325576618 0 -1 0
4022 1 42.47209461195725 35.6003503243138 27.919257321387438 0 0 0
4019 1 42.432921845915686 37.8641016104091 25.5757296117763 0 0 0
205 2 44.03569661211539 24.416554764003976 27.917049320197346 -1 0 0
3735 1 39.1203591142436 37.97548578841114 30.067811783932523 0 0 0
2766 1 28.866106242626728 22.263400282763023 32.33720629067466 0 0 0
3052 1 30.639274347275304 22.33092606205156 30.19281382711639 0 0 0
3054 1 32.14518490630928 22.157338539063957 32.36259570094211 0 0 0
3340 1 33.94027232368467 22.159102423635872 30.163198702548378 0 0 0
3342 1 35.77320247637513 22.17893873260078 32.41371014929709 0 0 0
3628 1 37.50479025831679 22.05264019891751 30.21099972416271 0 0 0
3630 2 39.115999103933994 22.09926906445097 32.44446746927146 0 0 0
3916 1 40.67254356612878 21.909738031702858 30.09296529373773 0 0 0
3918 1 42.35454727991129 22.1530005402916 32.3803318325499 0 0 0
3089 2 30.501590215535153 24.378872567390463 32.24449140682549 0 0 0
2763 1 28.882746729844136 24.48081448285968 30.164182781333498 0 0 0
3051 1 32.413618737274206 24.477665960910223 30.178264131222335 0 0 0
3377 1 34.079419548850154 24.34344175617722 32.389827241286554 0 0 0
3339 1 35.674199051269824 24.342608765003828 30.231069790623412 0 0 0
3665 1 37.552752102635544 24.295480686167085 32.29075896532213 0 0 0
3627 1 39.191351981365685 24.360621324383285 30.124385328080283 0 0 0
3953 1 40.77638997639286 24.374455687511283 32.31502994859463 0 0 0
3915 1 42.25578246487913 24.27091537469053 29.970606569713603 0 0 0
3088 1 30.628072493537125 26.657977463239277 29.944860185602046 0 0 0
2802 1 29.02458085183273 26.730545270570286 32.39728146469872 0 0 0
2799 1 29.05971403971226 29.05169230351196 30.182495141524146 0 0 0
3125 1 30.743783642538055 28.999407439301375 32.458879516116994 0 0 0
3376 1 34.1096185963081 26.692204690155286 30.14577655042813 0 0 0
3087 2 32.378420366516174 28.90305370061348 30.132350398397836 0 0 0
3090 1 32.1665532720646 26.661330864502133 32.28675896123121 0 0 0
3413 1 33.9197860918013 28.974608006154376 32.50526435551154 0 0 0
3664 1 37.49720654624093 26.556371618315378 30.181418918509063 0 0 0
3378 1 35.70199138980486 26.610680774899148 32.450705100547566 0 0 0
3375 1 35.75435973820286 28.972399808581898 30.264545238334268 0 0 0
3701 2 37.40026322929929 28.85819662869815 32.62489620082421 0 0 0
3666 1 39.061166253614864 26.776888958351496 32.43413576742848 0 0 0
3663 1 38.840463082949064 28.97213037062282 30.2595171381529 0 0 0
3952 1 40.72679184504241 26.79721191645576 30.144724995403116 0 0 0
3989 1 40.847569352696176 28.83226840481836 32.39534958754765 0 0 0
3954 1 42.564725743808665 26.531780629626734 32.33564921097459 0 0 0
3951 1 42.6752460717802 28.964076638641192 30.07910371744212 0 0 0
4023 1 42.411477294490254 38.003592796256505 30.241515369232133 0 0 0
2838 1 29.0208445653984 31.233852785804526 32.42508737265834 0 0 0
3124 1 30.719958291764797 31.291771524712708 30.163105518671426 0 0 0
3126 2 32.299131102010875 31.220132298596088 32.53988337815669 0 0 0
3412 1 34.05460662001016 31.141471590362464 30.218492671115232 0 0 0
3414 1 35.69774297013262 31.080048099092593 32.35069044357091 0 0 0
3700 1 37.36472336629255 31.279005156725884 30.091282460850216 0 0 0
3702 1 39.05738621910078 31.18625469854507 32.36730257239293 0 0 0
3988 1 40.6426441615348 31.14901368889938 30.07090022717891 0 0 0
3990 1 42.44738956998727 31.114967748755458 32.24442917321086 0 0 0
2835 1 29.005632263511757 33.53500207367719 30.00711779802332 0 0 0
3161 1 30.732725082165288 33.508552376142404 32.43682298972921 0 0 0
3123 1 32.424276445872714 33.483969463835656 30.009105387360528 0 0 0
3449 1 33.8870506318414 33.39776082423577 32.1847228186798 0 0 0
3411 1 35.85239867934581 33.477965376827356 29.94065079381097 0 0 0
3737 1 37.415521517546914 33.31718414090588 32.313347164861085 0 0 0
3699 1 39.12522123315171 33.45876897526796 30.10325545300023 0 0 0
4025 1 40.91612889854664 33.35648261887525 32.486345073485 0 0 0
281 1 43.971689682194004 33.54561252036491 32.337587501975506 -1 0 0
3987 2 42.29190872285249 33.23406152883989 29.993296172366012 0 0 0
2909 1 30.603668010523855 38.006903664843726 32.62890218120859 0 -1 0
3160 1 30.840715427322223 35.85906699231017 30.097486364547194 0 0 0
2874 1 29.20440464554496 35.752310901492976 32.365865440323645 0 0 0
2871 1 29.134654997393156 38.15632521806933 30.01783919610435 0 0 0
3162 1 32.398938859282104 35.83706141609232 32.4767534059543 0 0 0
3159 1 32.3539060550955 38.13473796767865 30.147153160263446 0 0 0
3448 1 34.0209851544054 35.81707841707413 30.10757889974884 0 0 0
3197 1 33.99721905751444 37.941989412614305 32.58202676177282 0 -1 0
3450 1 35.730370304114345 35.717713888560006 32.44198863083985 0 0 0
3447 1 35.610222441517166 37.97592104001218 30.248674569550023 0 0 0
3485 2 37.451591892665476 37.89308260392626 32.26571813053627 0 -1 0
3736 1 37.4627612676082 35.732564239247736 29.987260737992063 0 0 0
3773 1 40.78554363837442 38.018258165376956 32.27305856934587 0 -1 0
4024 1 40.79392384704648 35.64494151904693 30.185189025388386 0 0 0
3738 1 38.98770942634871 35.57997459388129 32.36426768382506 0 0 0
25 1 44.103987515632575 37.92853701475722 27.907915330205064 -1 -1 0
241 2 44.012778685874466 28.888094547789002 27.718927620334984 -1 0 0
280 1 43.94325135314552 35.56154986192232 30.15099338391831 -1 0 0
208 1 44.02985422891381 26.47453034357692 29.94957052305692 -1 0 0
240 1 44.13839027659781 31.098067042168484 25.521138160417966 -1 0 0
204 1 44.013286570950115 26.8375829978375 25.684893957148045 -1 0 0
172 2 44.097704042737305 22.2986561111689 30.137759323677592 -1 0 0
276 1 44.138772519927805 35.75531250233815 25.72947444426263 -1 0 0
3056 2 30.5392010391531 22.17823020635577 34.71986426250987 0 0 0
2770 1 28.920426571237392 22.129709191871477 37.05348686713168 0 0 0
3058 1 32.445657209560586 22.225860833435746 36.81094637653129 0 0 0
3344 1 34.04115485635954 22.07874052236766 34.58548705634858 0 0 0
3346 1 35.79014756695406 22.192487271233393 36.89581335217855 0 0 0
3632 1 37.59697355097397 22.083199233476464 34.70477544222683 0 0 0
3634 1 39.09909567172274 22.143815120938807 36.93489245724814 0 0 0
3920 1 40.7401960001676 22.147781974981697 34.75933860149394 0 0 0
3922 1 42.57313094255719 22.265247267555623 36.79711388978208 0 0 0
216 1 43.934599858469724 26.632713606735706 39.2711074495915 -1 0 0
2767 1 28.907556929593518 24.536515009047577 34.644884615588 0 0 0
3093 1 30.64574814233154 24.36300281051332 36.905594147465564 0 0 0
3055 1 32.26594156544975 24.40567909982444 34.44237478398405 0 0 0
3381 1 33.9420804204323 24.363631805950195 36.775798930034 0 0 0
3343 1 35.8344657057233 24.33458410152896 34.647720401639035 0 0 0
3669 1 37.53419949778773 24.40896919301206 36.9732670317172 0 0 0
3631 1 39.05875871132628 24.3770495019224 34.68668130834749 0 0 0
3957 1 40.81572453127188 24.384707563495546 36.91506817681169 0 0 0
3919 1 42.52656204096261 24.40149166863037 34.524294678726534 0 0 0
3092 1 30.686656014841475 26.694883099080045 34.61483423840663 0 0 0
2806 1 28.96170636375846 26.570607207247527 36.99293078390839 0 0 0
3129 1 30.640420224885233 28.866399178907567 36.905523646409335 0 0 0
2803 1 29.16998200108401 28.98731745758257 34.646552988594095 0 0 0
3380 2 33.90655435706079 26.51696290020369 34.49219278834316 0 0 0
3094 1 32.31920744923087 26.672135235537468 36.865777531515306 0 0 0
3091 1 32.35802165572439 29.004234855872447 34.81847984745397 0 0 0
3417 2 34.00204630917914 29.04137289264645 37.10220871401489 0 0 0
3668 1 37.344684962142935 26.756607384858047 34.65069928675608 0 0 0
3382 1 35.573202582612446 26.908418877326035 36.951119728883526 0 0 0
3379 1 35.52955443245089 28.8707932849349 34.59571206610342 0 0 0
3705 1 37.428779186456296 28.897227850852385 36.90430680740637 0 0 0
3670 2 39.19340626885388 26.710552779092144 36.92042441884216 0 0 0
3667 1 39.187448676746065 28.919037244386484 34.53564681435388 0 0 0
3956 1 40.97144035833964 26.830577241279563 34.66133959900969 0 0 0
3993 1 40.85348810789695 29.0477810891432 36.90679026933731 0 0 0
3958 1 42.42118989705402 26.778057636845 36.90201016814842 0 0 0
3955 1 42.70425570354658 28.894986325201977 34.570451372547595 0 0 0
3128 1 30.612555136914615 31.349927640399727 34.7653868057014 0 0 0
2842 1 29.040276042069074 31.23305380841343 37.0388583752559 0 0 0
3130 1 32.30690060217374 31.2894483408267 36.869351671869694 0 0 0
3416 1 34.17770331624135 31.265171791937124 34.627898452568175 0 0 0
3418 1 35.8317280315243 31.232423822037326 37.01977103211925 0 0 0
3704 1 37.203560315919525 31.099390766528945 34.567833789396275 0 0 0
3706 1 38.88700312216807 31.11836569183746 36.846520837206214 0 0 0
3992 1 40.887312100787774 31.12679753658312 34.663211585566486 0 0 0
4031 1 42.29355496871453 38.12782907878964 39.2823114026164 0 0 0
3994 2 42.45202211910108 31.37068338091914 36.960294067008974 0 0 0
2839 1 29.05567399128561 33.61019509400456 34.76204011973451 0 0 0
3165 1 30.68314944506526 33.523047874587704 37.01389647029751 0 0 0
3127 1 32.37773542292259 33.560243315204104 34.724799127102216 0 0 0
3453 1 33.997138863801595 33.57110763852188 36.87342554189779 0 0 0
3415 1 35.64583688257388 33.5265868635355 34.53311873535648 0 0 0
3741 1 37.22797095027403 33.54973831896129 36.97936015014909 0 0 0
3703 1 39.09644720768031 33.37038715754541 34.624112062455154 0 0 0
4029 1 40.60232428436283 33.47304659146982 36.88747160967476 0 0 0
3991 1 42.5779274717509 33.59241226448388 34.69792243423842 0 0 0
3164 1 30.621624377892246 35.905241519242566 34.75410155238278 0 0 0
2875 1 29.0223889909252 38.221701433378506 34.65353456705009 0 0 0
2878 1 28.923651881749258 35.78830510240545 37.074778199740464 0 0 0
2913 1 30.694948113844305 38.166398970322746 36.89291212658367 0 -1 0
3452 2 34.13948988122938 35.812415895687685 34.68268247514655 0 0 0
3201 1 34.126972075067826 38.1133831026468 36.989338131845585 0 -1 0
3163 1 32.26701812647412 38.10526247274917 34.69658685935492 0 0 0
3166 1 32.30283671458408 35.955284957004366 36.87348035367569 0 0 0
3740 1 37.434120361328254 35.81349144941277 34.651996745837735 0 0 0
3451 1 35.79735114073298 38.08532033044412 34.68265905654356 0 0 0
3454 1 35.72890252953497 35.859408674845284 36.94007943327529 0 0 0
3489 1 37.38552250091842 38.087483841395134 36.987294533557446 0 -1 0
4028 1 40.555374807976584 35.84711385393395 34.68412048749134 0 0 0
3739 1 39.00503361514023 38.090461932316266 34.47724127873303 0 0 0
3742 1 38.91084583290102 35.62872931517418 37.06993934019931 0 0 0
3777 1 40.6972819162366 38.010536954664644 37.052575938943264 0 -1 0
4030 1 42.49314594092215 35.66613124178036 36.83642821053438 0 0 0
4027 1 42.46369319319716 37.99706493270488 34.55692226942536 0 0 0
3350 1 35.9439646762638 26.761110661445283 41.32459647108229 0 0 -1
3060 2 30.763209192484673 22.184915797381926 39.14332768551375 0 0 0
3348 1 33.994095103257344 22.128034744876892 39.23632314176167 0 0 0
3997 1 41.01063031513702 33.47971217072602 41.34412865567931 0 0 -1
3636 1 37.42579810052917 22.167659085020787 39.0973663857786 0 0 0
3924 1 40.7863110324169 22.211176516144956 39.07914999587567 0 0 0
33 1 43.85607580347823 38.000076629759995 36.88436008775025 -1 -1 0
3925 1 40.786991277972575 24.456000870525425 41.42225299476317 0 0 -1
2771 1 28.92372301944593 24.31210536043323 39.158949692583136 0 0 0
3059 1 32.44439541170772 24.455523686492693 39.10471467883664 0 0 0
181 1 44.063972860746794 24.478899747833733 41.39121681716371 -1 0 -1
3347 1 35.72564957703685 24.591062486340032 39.064959909750925 0 0 0
3635 1 39.079508865990164 24.45948760255017 39.15867344184444 0 0 0
4032 1 40.969870373640916 35.688899364985474 39.11985136491943 0 0 0
3923 2 42.47660158964316 24.386138312841954 39.16558478727562 0 0 0
3096 2 30.67374626960015 26.62898205318234 39.20782348112273 0 0 0
2807 1 29.156479308968485 29.019753926395467 39.24690274796228 0 0 0
180 1 44.13834470191768 22.185096575703625 39.12864907191421 -1 0 0
3384 1 33.995760802384616 26.95369247123398 39.226017283655224 0 0 0
3095 1 32.12326208959844 28.98742503439193 39.428832577787034 0 0 0
3710 1 39.13988650306241 35.586203341500806 41.419926316141826 0 0 -1
3672 2 37.439161799906294 26.762818870654698 38.963476760456984 0 0 0
3383 1 35.88273490069487 29.051463250871628 39.27622966392779 0 0 0
3061 1 30.634519337160157 24.502875097490104 41.375621605529304 0 0 -1
3671 1 39.1154226248918 28.942532403080385 39.17200033282738 0 0 0
3960 1 40.86151427032773 26.619830492954165 39.239706128782444 0 0 0
248 1 44.101553595860565 31.270598252932267 34.63896582361029 -1 0 0
3890 1 42.43980158091744 22.166401643843837 41.23779820645488 0 0 -1
3959 1 42.43190320257108 28.944021490488936 39.231391367974425 0 0 0
3132 1 30.723180915678235 31.315937005136114 39.267351093615176 0 0 0
3602 1 39.22695784331591 22.112071782322097 41.32422129287389 0 0 -1
3420 1 34.02722027222942 31.060666961774302 39.091175944601716 0 0 0
3708 1 37.534836151464084 31.30690201151309 39.21177829675399 0 0 0
3996 1 40.764536754593266 31.295680519082612 39.106616732555494 0 0 0
3455 1 35.70464616773814 38.08545476493259 39.35003046051007 0 0 0
3743 1 39.01844504230068 37.927408691305686 39.329287651698195 0 0 0
2843 1 28.993303972003268 33.46282450296671 39.26329571398547 0 0 0
3744 1 37.31045526352811 35.65230359901899 39.24042816264971 0 0 0
3131 1 32.45884693065915 33.48132061306866 39.216342321586595 0 0 0
3419 1 35.469226191635556 33.43582647814624 39.20805165374546 0 0 0
3456 1 34.0528906171006 35.88280214627218 39.18169795972362 0 0 0
3707 2 39.131243318263024 33.61780321743334 39.236323649949455 0 0 0
3995 1 42.52773607721461 33.49240266439404 39.04635522209486 0 0 0
249 1 44.13376938316944 29.040546083517977 36.864841696264065 -1 0 0
3167 1 32.38094683657931 38.09442385668774 39.147434263770265 0 0 0
3168 1 30.682032123249783 35.790222817337316 39.160843477669374 0 0 0
2879 2 28.96651895920776 38.001003660565665 39.066896833865485 0 0 0
176 1 44.075936522207385 22.009702303353876 34.42217613720862 -1 0 0
3638 1 39.03285994384705 26.739238505229807 41.32410996492341 0 0 -1
3314 1 35.72403499910925 22.029094788443786 41.41016718406836 0 0 -1
3998 1 42.46549429246761 35.7818258395216 41.380290445195826 0 0 -1
3386 2 35.68757585510639 31.18424901894132 41.341201316921286 0 0 -1
3961 1 40.82892408809583 29.046950433169577 41.44428692671694 0 0 -1
3098 1 32.51079575551273 31.034805462360097 41.3763489308935 0 0 -1
217 1 44.101024240869116 28.880945770843976 41.41101847195169 -1 0 -1
3133 1 30.84362959350505 33.564719284757835 41.29980064480249 0 0 -1
2738 1 29.128638722265876 22.3287088005112 41.42474224801609 0 0 -1
3134 2 32.42490470378789 35.78483241916807 41.34269658667496 0 0 -1
3062 1 32.15498790319244 26.743817404800453 41.42138970724096 0 0 -1
3637 1 37.45711769069306 24.467933882780088 41.29941136505893 0 0 -1
2846 1 29.147604483504423 35.82738050467215 41.41203611200534 0 0 -1
3962 1 42.672650655689594 31.221595224823417 41.377939295366204 0 0 -1
2881 1 30.71371395306563 37.96139550988133 41.32839035394228 0 -1 -1
3709 1 37.26212631273101 33.503957649900045 41.44775215656472 0 0 -1

Velocities

1189 3.98925699669056 -2.371519635731792 -0.009684777418023061
1013 2.7470527100335658 -0.5130069690403334 -1.007319887962643
292 -1.141397326065827 3.9309378174999647 -0.7369074425912121
725 4.8191381485616915 -0.9498174099833053 0.6909260428455796
580 4.066237663746487 -1.5255573617114588 6.858716265994483
325 0.27807310963665266 -1.7537560214493155 -1.3416334908843508
868 3.191818331451772 -1.7661126346167928 -0.13461528671802134
690 0.5640570651612383 -2.0241574840238616 0.2319928001020259
1156 -0.2994739726825468 1.2550239101691418 0.6225590872273515
691 -1.433203636952215 4.0852178715460585 -0.5946132840135118
3 1.6018337870632096 1.1157965356726163 0.05049134624127103
291 -5.573581220824795 -0.8421812835974551 -2.3997693183652182
404 -4.578894534193977 5.56523820109057 0.9356359104943923
579 0.9608225657096064 0.8685681018767268 -0.9783098342418365
113 -1.457402965593863 0.43774987560146345 -0.7586467997779743
867 -5.5133470893353484 0.11617328146102715 -7.731649777305325
692 1.226265192219073 -0.43144457890718996 1.8092916915442536
1155 1.2353110884469507 -0.7053015197208412 3.1012516280914575
437 2.8728569578767824 -2.1497491355544143 -0.9103794745009895
39 0.4511098746146183 1.334976947207238 -3.1812919934812376
979 1.9926472936066657 3.773072824150463 -2.2370733350548524
328 -0.10591442538104623 -3.360802247152466 1.4513792230882587
327 5.209912088578336 1.027112493427208 -1.5402285061169387
4 0.6513344347940782 -1.0309528285675427 -0.629527275319889
616 2.364589762185811 1.9717725282718173 4.0275497668712426
615 4.23815613416975 1.670772557605983 5.074748291086702
1190 -1.4723164248721916 -1.291860366125117 0.6506851909840339
76 0.8364897826682526 -1.290434623100639 -1.7668906864320992
904 2.1405726848108477 2.251978558539695 1.8503591383278069
903 0.45968741396392043 1.050455762011471 -0.2670668012138488
2 -1.062811352209151 1.0669063972770156 1.42550364555369
1192 -2.642888574988144 -0.13140399999997238 -0.16737848158196258
1191 -0.6150971166320495 0.9995109876380182 1.9147869197993201
902 1.351747136925394 2.8046036004787442 4.359121370512626
1266 0.2777533892969774 1.7235720302117103 -0.13432156676568
402 -4.103246162943922 2.490025535479953 -3.3774404824465227
364 -3.4095016171062458 0.9585284191290152 -0.7538612312871589
978 -2.4707065639399777 2.449030337545744 -2.3333570343598593
652 0.23896899238097088 2.338337170188728 -1.6206829008001744
940 -0.3754394741688435 -0.9475022694991708 0.8292795056711959
1301 -1.6504068989520544 0.555975927419357 2.057690172867134
1228 1.7104553759040502 -1.2896793864910008 0.19957780979619474
75 2.0632664709014246 1.1579269787358741 0.6158895432999956
363 0.25449355898993636 2.541711822850627 -2.4981157798928773
651 -2.1473226754612695 -0.661169532524602 2.9290629288806684
980 0.6043674464845726 1.7452162074413833 -0.707007705000756
939 -0.46806401623300087 0.23620837351274754 -1.16950055250087
1227 -2.1132669179056665 -2.324467927942306 -0.6886856899456775
111 -3.209381647078369 1.281403406062746 1.003984580510287
400 1.3506355144548707 0.1431343278658922 -0.9437084957988005
399 3.8812910672789322 -4.470805451607241 -0.9917824618536599
403 7.844672901100758 0.9137114448872239 -2.301738876786539
688 -1.5510848797460621 1.9011876024512722 -0.31412363037172775
687 -1.1802457687872163 -0.5364791969556901 -0.5949930286191267
976 2.2056288287508075 -0.13919805819474726 3.3120330689802833
975 2.6132103660539214 1.2114472230749886 1.5992681559398247
1264 -0.3831346382944759 1.586612906956657 -1.615054519522983
1263 -3.1331272084347126 0.6417112038333391 2.6595289157335276
6 0.8535187708738118 -1.5421712895783064 4.024067968675497
296 -0.49607020129897805 -2.279218877123979 0.07832458317038464
294 -1.8568215976659852 -0.6746257376379674 -2.138534983460002
584 -0.467844488359184 -3.655946597501082 0.9016590814719104
582 0.04259399860529862 0.7274558254917692 0.6364625899745373
872 0.6778913457696601 2.7721079995229188 -0.48102208965504384
870 -3.6881880389532897 -0.17726427083761226 1.3563816594195364
1158 2.3047287607394047 -1.7567586753837583 -0.5969953580145998
1160 -1.8953979233730316 0.24909792232667205 1.2846473855520986
7 -7.324532017564904 0.5002310784128025 -2.641863914832371
329 0.041783313227796645 0.06492277923915103 3.8899797357976404
295 3.7385444448001803 -1.2755121178069913 -0.4175703471215978
617 0.15142843208621887 -0.1514513435439111 -0.639503744697785
583 -1.511989579734567 3.133202782607632 -0.3258248302509864
905 -1.8087174036015852 -2.2800127602956013 -1.4199598656802297
871 4.061451447195158 -3.9315677989577673 1.9073345603937766
1159 1.1356091647567115 1.9817964490132896 -1.0549316035363472
1193 -0.3320796312447204 0.7007215295395435 3.0754539202753826
42 -1.0480844377315965 -1.0511969347704821 3.4736467657972496
43 0.6111281258865544 -1.1273735432747043 -2.168991256462721
332 -1.4433457165398735 0.37614642204548954 -0.3312020883344571
365 1.3215862693936091 -5.724306156391639 -0.4664507873134493
330 1.4336949253219713 -0.7597071079438692 4.273299310089493
331 3.476299916232716 -0.7728342467123417 0.5973896901803104
620 1.283578344025012 2.548959509586921 -3.61171634999252
653 3.515287913759221 0.39223724441003344 -1.643553245080133
618 -1.255365803947679 2.549445547055138 1.4239790938641321
619 2.926687868056121 0.4774543115967988 -1.295711505286309
908 -4.183362948187169 0.182179233868102 -0.7246186926350301
941 -0.15533484150058618 -0.6896155656425159 -2.9711676106637577
906 0.19791856013540315 1.5250997244467766 -2.2532234220464833
907 -5.328910035613115 0.6331485786548218 2.6342127272698606
1196 -1.4944561648233012 -2.2188436621268837 0.5344818862167242
1194 -2.6197768078270167 -2.8083054400985765 1.0772910485030915
1195 -2.3655255975861254 -1.0643093350045156 6.038284099878517
1229 1.4483976633061066 2.9236986650782804 -0.016959480364333132
78 -0.6284371806133268 2.4643867812330247 -4.134546999169583
368 -3.0636491868422167 0.8179958406030551 0.5286831604528633
366 1.7164299783841803 -1.0161715241266165 0.1122449177932576
656 -4.165733537137888 -2.0508542244668555 -2.013456446970242
654 1.696106978406652 4.646441565973799 0.8417060788554384
944 -1.2786414883855324 -0.8030502878021236 -2.7115517335999253
942 1.304567117150916 3.0598853558389565 -0.5553496682708827
1232 1.3349347491330956 0.1664539749560743 2.5039309786844397
1230 -3.454622334348878 1.469194360769934 2.260923602409387
1268 -0.383742234621489 0.17749430274320144 1.1411667922988287
79 3.2910344015343704 2.8385024092870976 -2.2351545206121437
401 -1.243655835627622 1.3039712145307745 -0.015447741264740385
367 0.09548628794707857 4.550853762032432 0.8401542853676032
655 -3.757068173827278 1.0522775249869638 1.0351272666447413
689 2.390186589080088 2.305586285704417 -1.140464118478959
977 0.3275355940269488 -0.5314280510932741 0.9515977880854188
943 4.218251581807526 1.7905996789975431 -1.6653749705948346
1265 -1.9296373053490463 -1.7103685321295483 -0.8757652560469015
1231 4.542759355056334 1.5245966080854159 0.8656968903598472
8 -1.2536607565409201 2.6948160809893515 1.1098948244034759
1267 -4.041923317085118 0.7992487244243162 -0.7858058294024762
115 0.5574973117625607 -0.01258282399433605 3.174802944677753
114 0.775317956722241 -1.6749879212128655 3.5440264132718458
613 -1.9893849602664677 -6.503212272856034 -1.7454039620504305
77 0.2741257049465721 2.447783084628368 1.293572546409393
116 0.006034255291246158 1.0698285263619411 -1.6954555808044296
361 -0.8976787687143876 -3.3910000690487583 -5.973303494270542
1226 -0.3876752596997288 -2.302872237472718 -0.8979505367992556
1225 2.2470042978535214 -1.5189354455516237 -3.8553323658389154
938 -1.8310545603212038 -2.9139567144578384 -0.37313880854339293
1154 -2.0415557112613363 -2.026185145881517 0.23051499653463317
901 -2.6047501912557043 -2.301357448493187 -1.4649107461197366
38 5.319135532862233 4.085622454115902 8.067789795802245
433 -1.044130607246816 2.5348426813062273 -0.5531575710964198
686 1.5709895518971226 0.027712742621050012 -5.061758294932075
937 -1.1190556918173344 0.34740970687983647 3.056136368732946
1009 -2.679115875903581 -1.4403353285249387 -4.960851127472313
290 -1.7381106059797122 3.8204525436086127 3.696484973314131
866 -1.4682402655984315 -0.7954938043912304 3.7152421522625065
578 -0.7483591168529815 -0.2075313072845722 -0.034984411586149344
37 0.07655526954870731 3.281673183226411 3.1793024557152085
685 0.745454765069016 2.0096758975535343 0.8762352805901309
10 3.8007226778569354 -1.5327721772777756 -1.2875703806465186
300 -1.2738740465702552 3.730125868583731 2.5635219336896293
298 -2.7710392261598082 4.505709562107159 1.7710964342383264
588 -2.031817677804308 -1.7425808508242202 -0.3114397244107811
586 -6.410714614423872 -3.1246796879323053 7.432474181169555
876 -5.740155377825943 2.2455739847515135 -1.07349468315276
874 -3.218845640696738 0.004345133500463579 -3.4378225058813903
1162 0.008155387764750312 4.508972645467365 2.3420870370217473
1164 -2.2530645132091895 -2.315196131502765 -0.029646435253481936
11 7.962173369312566 0.4810189682253974 1.6930225043102676
333 -1.7328150482779132 1.6112497526569174 2.344687647597745
299 4.862849090692133 1.2370647629305533 2.849728398209844
621 -2.8603497671232048 0.3875226815756681 -4.245158334478132
587 5.955025833794991 -0.12684329344849038 -1.5236687352551697
909 -2.3856402554649647 2.2329952865111506 -2.590336305281682
875 -0.5800103019811048 -4.573407240474285 -2.9838176026357766
1163 0.6495105483798764 -0.034014587355673545 -1.9901844853226984
1197 1.157761086751299 -2.403255056358117 1.5338534901194023
46 1.7575448639082585 0.6868905633830474 -1.8342397247177409
47 -2.765488762986823 1.4097570568118174 1.7810437767096041
85 0.09961608548122866 -0.09604915761423652 0.8795778419552434
369 1.9859224741757944 -5.544062230568011 0.005410362098897711
336 -1.7627372308898195 1.239189295885693 -0.3889586467849845
334 1.91254223023277 -2.076657407682032 -0.556113831830988
335 -3.2928253154814646 -0.37497061597666587 -0.9297971732228401
624 1.1034240250613851 -2.4601115862189356 3.5774111836644233
657 -5.433283608565183 -1.767674244669086 1.3613709156484564
622 -2.097920288331088 -4.045793724687765 -2.6576689234196715
623 -2.479354374914073 4.791757907682886 -4.881914265050249
912 -3.0883746834863386 0.9304962428447896 -4.437574372101896
945 2.9328626165748344 -0.47909111394476045 4.07088175178497
911 4.150454561964254 -1.5731902426326663 -1.7815473888270605
910 0.0348506305678826 -2.5192007431038284 -1.1391857709183004
1200 2.2592966699812997 -4.098289202463476 -0.24296579886663117
1198 -4.1072143206621154 -3.6503991931392075 0.9809003377413965
1199 2.2572755586256448 1.3380097085063825 2.666796765259563
1233 -2.6299897214708587 1.3599881034161083 -3.155783028681228
82 -1.786843713990716 -0.7262158153599371 -0.04279218154492413
372 -1.018963703681981 1.4097895871782418 0.2507076909146657
370 2.2349196308130757 2.917390897140986 -2.1004325547134894
660 -2.3832284160130364 0.3556115891504637 5.99190542490844
658 4.414134843017648 2.0002004947850742 2.575080716162891
948 -1.4074782986013255 0.19111599342966373 -0.7129573309262061
946 3.2312894993653156 -0.8985870239435201 1.3995600026052382
1234 -2.048640630408124 1.9640373306205192 3.2119428220640844
1236 -5.182208910509455 2.6268599680998572 -0.14207696789210533
83 1.6250362204215871 -1.3085179374059854 0.8138295882717903
1275 0.4461766726743292 2.0739403479609546 0.16922260971025563
405 1.2669681154076144 5.000507984217111 0.37875219323939474
371 -2.3617241126540893 1.231226053696966 1.4554429635057355
693 -2.168296813921087 0.32363936451057657 1.0043646099986692
659 -6.893843114985733 2.177863689555257 1.0150373572040678
981 0.8594297428782224 0.13975990181449652 2.8050792838110175
947 -6.2772651879089025 1.7470744328800698 -4.60233647571407
1235 4.7859959824100144 0.9748629917730568 1.4964248278985814
1269 -1.315517534920929 0.15286481614151387 1.6545953706836132
117 -1.2116715036849244 3.547527379823782 -0.759592120211433
119 -2.17836830160067 1.4089165110518889 -2.668110085011942
118 2.4732262779372345 1.1965715787521047 2.7507195650542937
408 0.659659061895891 1.9995982165043582 0.6766881295882397
441 0.6229363888678362 1.935444739833977 0.21898504624713014
406 0.9910144883910634 0.2312852979333998 2.774371678880791
407 -2.846173776532367 1.3747589789168118 4.201968645463055
696 3.2685130174951937 1.53185849909294 -1.1545186989716976
694 -2.4661626722907215 0.010987492821394615 -0.022579150303539325
695 5.178733294856364 -4.0737543147173385 0.1321925750719973
729 0.6942310092406874 3.232346854404124 -0.4858640779715691
984 0.43914177422900946 2.2416041483607745 -0.9402567542422564
983 -0.1864183700403007 -4.0443702447745125 3.2134843840224137
982 2.481872551262799 0.9952875687738488 -5.0703750024602785
1017 1.4341814347199857 -4.762528704296064 -3.3577196007589376
1272 -0.2024988755352157 -0.8270128984426568 3.16683256806019
1305 -1.7310073498753298 0.7989419799754084 1.4738601782738596
1270 -4.654635883339663 -0.2627444351817109 0.3866363615906668
1271 -0.5009280269009578 4.241797489630259 0.12956384202266272
14 4.249743136200481 -2.150670390659248 -1.233048834668669
1276 3.2883608598137015 -0.12927585284543036 -0.9852145089971248
304 -0.532706416604323 2.9177718340780032 -3.754268633588512
302 -0.26267584440626157 -2.217077166160404 -2.9368760278690424
592 1.9809270256050218 1.0409923837538542 4.871837823331251
590 0.23305871228647645 -0.530305404458561 -1.09004158195064
880 -1.9085912106263498 -2.220522896288314 -3.154799591261059
878 -0.6155290918247316 0.3123486206808464 1.5237999408769096
1166 0.09888177344136954 -0.5502842481725513 1.0621457178380227
1168 0.6643772954531476 1.1711416074844285 -3.472950976628182
15 -0.6222149025991156 -0.022474845910338395 2.406463113986101
337 0.0867162433616239 -0.12407733390081349 1.1237909549142497
303 -4.4256055647180155 -1.5737416836914033 0.0429178158227284
625 5.490838007618513 -0.10392674069823415 4.5702308553535005
591 -2.4013046407394794 1.1393443308442845 3.68388931107496
913 4.307691243391988 -2.338125548988014 -1.8001399388095212
879 3.6066175732361754 0.631825622744386 0.5618894777625563
1167 2.7834860540217656 1.611183238857148 2.6592953904162
1201 -1.489133798586587 -0.8710233272791423 2.2785371111070556
50 2.894704484105815 2.655972413752212 3.09080422367299
51 -1.907606191565641 1.4331083936795745 -0.36105024234838584
1309 2.3672393238905345 0.17755811716231037 -0.05512739211944509
340 -1.4040657477595235 -2.6734460072882786 0.23674784234121743
373 -0.10854883969106609 -2.3992664314307497 2.1569011714327764
338 -1.3857985896138343 1.292008870333823 -1.9135215781700186
339 0.15719402266025276 4.098306968404803 -0.7942639425359518
628 -1.043663865391177 0.5612406327636944 -0.6260022028067782
661 1.328365899449782 -3.3066208304911253 4.008963170714454
626 0.6614064072460861 -5.138973732556653 5.223063442167661
627 -1.1283228506872232 -0.537347779103102 -2.9009315200603103
916 -0.8023337105097924 -0.7714255289959171 -3.1939332218639387
914 -3.1626750999122413 1.213449960604534 -5.658358996270731
915 2.572609949931745 0.450959328831071 -1.156548635718465
949 1.464986095122352 -0.1363878951638137 -0.9984707721566981
1204 7.533419145599502 2.011139832699804 -3.4938298981281304
1202 0.5885716928394833 -0.9421210215957054 1.527078517034149
1203 1.3280954757297716 -2.2494963811156445 -0.825287710852033
1237 2.3810185012985468 0.19915897261821927 -1.8879641096411666
86 0.11936873380331918 1.628109573881156 -0.5763755177276068
376 3.733121782417778 0.02038271854429972 2.275924874745041
374 0.06468538006604392 -3.5174188039278205 2.2321353168506453
664 -0.9190343987973615 2.420688664369695 -0.015375152525822855
662 4.28244381696948 -0.2508246929544102 1.035563433243338
952 -2.497348323050261 -0.33510481832654154 1.4408323074586837
950 -0.6720832114563562 0.688351722567465 -3.870053642788222
1238 -3.96196422706699 -3.164004901931005 1.8587309921081945
1240 -1.4623960263079636 0.8675229545974884 5.193656721357627
87 -1.3158526423942811 -2.924443017029868 1.8177951400444425
409 -0.8812047905337398 -5.453190002565751 -2.7846095950691736
375 2.3529003889415683 0.011140542370056263 -0.01707302804269035
697 0.015621249301291024 0.7788701259021666 -1.9458459197877238
663 -0.909607937121349 -0.5849066318553692 1.1177559422717163
985 -0.02480818754541184 0.20997119089196636 0.7986127717337484
951 0.081520021425567 3.937590576092629 -2.9798137651956877
1239 -1.7233908062066674 -1.6044968223325538 -1.0128009243794192
1273 2.7823631446535875 4.628794864954281 -1.2677826427044565
123 -2.2207930629250647 -1.816098840414695 1.035406082090058
122 -3.6023504691458688 0.722163655895577 2.6956189490928515
445 0.9500127809121244 1.8938503094653671 1.8688752349516855
157 -2.239949542356576 0.37999979687493257 1.7629686974626113
411 -0.5432362618460559 -5.49371515387417 -2.7515799925129167
412 1.3496375096458484 -3.178181937925026 -3.922854625846831
410 2.172674945709399 -3.1979371551024873 -0.9796035499741312
733 -4.263005660537801 0.39511919251626243 3.644082849537433
699 1.0927969820562375 0.47993859847144804 -2.3815136011994555
698 1.5121039078863097 1.4913835343428483 -1.770520666081037
700 -1.0731551150819418 2.0070431310445547 -1.3508884416781664
987 1.3542878974388974 -1.916983880273804 -0.3307646717899637
986 -0.04751959074658973 -0.9230713337880571 2.7946319778309197
1021 -2.904065784366931 -1.1433745283843886 0.23946580494393718
988 -2.3279872960076418 -0.13038620081242921 2.8661551975012376
1274 1.6849736805151054 -0.6804524912034081 2.4010028524611373
45 0.2002066694682065 0.5773734187674306 -4.769704412278441
124 1.2075710322046618 -1.3591429102391372 0.6297297610756403
18 4.9133143659535214 -2.056730715740538 0.1826120131043875
306 0.24551783522757384 2.618925251055048 -2.399294355943515
594 -2.265652194308229 -0.30997977825059886 -1.451983392646608
596 1.7072181742784842 2.5491939885680304 -1.6121102181024147
882 5.228490260663943 1.1205901778102156 -1.5525105234088297
1170 -0.739927260769198 -1.795638473367903 -3.0337321325262026
341 0.09823830768253462 -0.32873964098887243 -2.7469919069316378
629 -2.0701115908988483 4.264458087914393 -7.331323112225651
595 5.82395858292906 2.6060374224800613 1.4099650795209537
917 -2.0440923198707073 3.5317358451768244 1.8543202691054295
883 -2.009597999757712 -0.8582119839821463 -3.3089652284321214
1205 -3.98309414403778 -0.5381225848813738 1.3210709147290314
54 0.005063876178546977 2.5329317110615466 -3.226059966645033
55 1.6050915683557752 -0.6711103548384282 1.1248450278699589
377 -1.6182200362792998 -1.9271432976021545 2.909372877621659
342 4.022171422531527 -2.2555997932014007 -4.137812694733357
344 -0.9352617101894141 2.1116099888414173 -3.7272687391215276
343 -1.11400044474916 -0.1004833456409483 -1.9312424823208196
665 -0.018696158345357417 -5.351437757120025 -0.7543020547125232
630 0.08920428183611473 -2.1793403156965794 -0.994731101312373
631 -0.8227550840305615 -0.4851177441298748 -1.8531898258894974
632 2.405988793399285 -1.9985775445027119 -0.3107142921375053
918 4.466226400896305 0.1421644406263342 2.449938687263512
953 -1.6597330178909293 1.754041927714433 1.9060066518872916
1206 0.7921242392221882 0.690808153128587 2.3677766561320746
1241 0.8476101689615345 -2.6096494032258075 0.3222218005379231
1207 -1.439732643290922 -1.7663435877513978 -1.7038152930782953
90 -2.4348057795463114 5.598417170478722 5.7109427022987145
378 1.4219192311840563 -0.9240328854695181 4.069823913469569
666 -0.5141025820776984 3.2049984618377385 0.17806745980575375
668 -1.386809013307298 -3.585439989451223 -0.9150621764064848
954 0.564418878910913 1.7719438867176065 0.5286079079642695
956 -0.9255256177861005 -3.2831122609997796 2.5609313096824695
1242 -2.247344809445404 -9.071893642791137 1.4209516685551056
1244 2.900532188974166 0.056902910244946744 -5.224894789897166
1317 0.5145064024082364 1.2787359735235082 -2.4774974765191264
413 2.2007133315583545 3.7595413234363173 -0.41348224563314817
379 -2.1471624412129966 2.737923861119574 -3.2843884187521106
701 2.431706194842857 4.734655861800017 -0.4335127566818469
667 1.2005613718782486 -0.35804068247374177 2.346432887338318
989 0.5683843708725654 -0.9977053621170484 -0.8436626215112396
955 -0.32944971686683033 -0.1325296057524473 3.7187263718766785
1277 -2.181319914795926 0.44132151346562615 -0.871496257423454
126 -6.392972186935493 2.451607624133231 1.2475210390984572
127 -0.3558684077844529 -2.471887203611433 -0.5266145509204636
449 -2.188555448060562 -2.1986386666562914 2.3858957438408823
414 -1.4364341828079008 -3.2655060208898776 -0.3511527389054202
416 -1.680827177317489 -2.4496655129693146 -2.906124028125443
702 -1.372722495099816 0.6767889135168648 1.1381072504904315
737 -0.693004943929624 -0.03140852329737254 -0.833232960065053
990 3.580971864688862 -3.1667003132900704 0.9100641150126711
1025 -0.4465559278684746 -1.502940366661463 3.128724303401996
991 2.2405072859795285 -1.8100515196603135 -0.20308017536645204
992 -1.8576206872130667 -0.6445363884541527 0.7145707647157168
1313 2.73702664656003 1.133411321355533 -2.5334810137445603
1278 -5.538796616799407 4.356935351634917 2.5212672901742503
1280 -0.19643036680724324 0.0006805528437682399 -0.10320754018530988
1279 -1.543052786970043 1.1214338842523361 1.1767412257670162
22 -0.16014124318200793 -4.368518240499494 2.563531047658943
308 -2.10935463133019 3.7640113461395948 -2.168529009880378
310 -1.295184408898751 1.2552698838259992 -1.018265002004956
598 -1.5439948425015715 4.315922725909584 -1.154330038822901
884 0.412093596207151 0.8916728101770253 -0.35604795640876347
886 0.24864382975771565 1.414356184743613 -2.300546377161935
1172 0.5076859325795098 1.2371923579321604 2.057718681524839
1174 -0.9255364155614084 -1.6498319583284846 4.565735015443403
19 -1.46340135521174 0.30778130269430326 1.4653071794100259
307 0.7149504955857875 2.2781504002558357 -0.7254628301816367
345 -0.8671179300273159 1.0882755223325016 -0.2750840400513406
633 -3.2079117062564557 -3.2572309550059626 0.2789163520421634
921 0.7715371794042483 2.3237884309262067 -4.75554709883898
1171 -0.7294437538027165 1.3608806648117733 3.9593893154721465
1209 -0.04332951588959798 2.2209203368148644 -1.3067560091297448
58 2.1078110074733667 0.18183740136069926 3.0241901883926596
1282 1.9713179672082557 0.2870019120359191 -0.48137809447139673
381 0.5276124639419935 1.2393281099992726 -4.49811403996892
346 -2.073094525903601 -1.365261174085838 0.18091818379332347
669 -2.489097849789549 0.853858937781953 2.8403795312229683
634 -2.107351750028717 0.7704628338667583 3.3724996232926956
919 0.6260699657586821 -1.406448571020394 -1.7742768000128937
920 -5.936827845812781 0.10671536915401575 -1.511042911034429
922 -4.340074540758814 1.5120836573268897 3.7683549627746027
957 2.2691175414761915 -1.668282264633584 0.32723229895055056
1208 -0.05318057386326537 0.04533908995849669 -3.063032066543402
1210 2.6512332764610336 0.7336843626367532 0.09379017600188197
1245 -0.9297143337798527 2.5224382663840186 2.293183331315152
94 0.2151509154046751 1.4867588557775535 -4.797498826856641
380 -2.077543552298254 -1.066343335605468 -0.5220239250751099
382 -1.4712209274332628 0.971199564095433 -2.168235720231259
670 -2.5632851304266113 4.131391043863303 -2.7298074962076115
958 1.0831743786649766 -0.3220500761480613 -3.542113404037765
1246 4.951318377285525 4.302887707530977 0.23155630612699213
91 -2.0623790490521907 -2.3319177049058695 2.7725152470782453
417 4.222068557195969 2.205989116981735 0.9080959150973537
705 -0.1094139056378483 -1.0171624169833036 3.0539149609352747
993 -0.9512646550294941 -2.8167091180874473 1.551751772862737
1243 0.08892216229803658 0.8242216125627306 -0.5054767309362934
1281 0.06368991605487062 -2.3044688442997203 1.3211164620302578
130 3.373958162037044 -0.835159358595535 -0.842090369329989
418 -0.8338351942307305 -3.3739045163164705 0.45300563227261414
415 1.9957920795641033 -0.5474485296467516 0.6668211678976508
453 4.8135672676539425 -0.4005158632620213 2.714671814085604
703 -1.7133366735092939 -2.1285637821621903 -2.131834389479527
704 1.470510073557929 0.2506297291600478 1.4701707770838812
741 1.8000798724136808 2.020670274900469 2.8730015043446056
706 1.5176128550638412 -0.8730112862885034 -1.656676061109814
1029 -2.629767314591818 3.8201933090609934 -0.646449696351977
994 -1.0195394081842337 -1.6267820942590017 3.798757768385729
20 2.0531342619133275 3.5077791336487896 2.2534649820234476
26 2.61436571094187 0.5403261031418218 0.07900561575332876
312 0.6682137138608957 -3.9727384424789616 -1.8037417665384679
314 -1.4405272259958541 2.4568354711388274 3.160063030650206
600 1.3087144307576655 1.1491533391361317 -1.4697182699335367
602 -3.0152039096607175 -3.0164999214144737 0.7037486719652192
888 2.5822073146548146 0.36994377509306825 -0.8166789913105241
890 0.37375775213241513 0.8734501721326464 -0.846181730454452
1176 -3.3942322470847555 0.919645730324216 0.2204926624753849
1178 -1.7516014305971277 -1.9523252721090842 -0.5496160169738495
23 -0.7062534842166003 -0.1429943353760611 1.2008258129652043
28 -1.213865917116264 -1.1845042970506978 0.9338426029814505
349 2.3532808886098326 1.7125010336787705 3.239955189377784
311 -0.7666948562608601 -3.7581284279721014 3.1253951742864445
637 -1.4815219907035788 1.1324633340557206 2.7752678677472975
599 -3.624314531982266 4.944137222907663 -6.289863977855728
925 0.9604633580172204 -2.615064990271258 -0.29943335809958094
887 -0.6113629920170165 3.5051898139659765 -0.25444371218155476
1175 3.4754919570050995 2.7200079520517364 -0.022949605713103758
1213 -0.23848490337264408 -1.3522629863928228 0.6528678413867696
62 -1.564263358208778 1.149388664091875 -7.645649150760057
59 -3.020009988182887 2.824632250380493 -2.3522410697661935
169 -1.0269524830648915 1.7407524122064697 1.7503244653036016
1037 1.3326970664844464 -1.269938916753581 3.4380007799063685
348 -2.7026469270253406 0.2208930265136208 -0.19780156932632276
385 0.48207723485031156 -0.03161288248055416 0.4661516159605304
350 0.445741195806452 3.0496786759218124 -0.26122952109305464
347 1.34207575620089 0.25390291589729824 0.12596716670805186
636 -0.7996777869202351 0.7684300238818284 -4.6650228440269235
673 -1.570643245749216 -1.7779573281409096 3.912735542068583
638 2.566580224529637 -2.4808556885294224 2.3032703985142313
635 -1.1291746362916726 -2.9760178279221354 -2.4864770808509107
924 0.9915418982872356 0.7502283842988259 -2.3026128290322787
923 -2.6639416786249455 2.5243437367773867 -2.666643839218547
926 0.053366962519226166 -1.7633277549043815 -0.7640034996345398
961 2.103376194982066 0.905661449190826 -0.8727399155750555
1212 0.997543034941816 1.0116002771492993 -1.8419211161084332
1214 -0.85183981678173 -5.844210191050663 -1.3693517716197312
1211 2.482592634506661 -0.8240428072155696 -1.3483800634934309
1249 -5.080049978583154 -1.1540546653365769 1.1695783801343114
98 -2.0790569211622922 -1.835891246371995 0.19804081542881938
384 1.7162358164794984 1.6914059516385538 -0.874200911110746
386 0.8102133154564868 0.6329535678437896 -3.117655591189229
672 0.08068708532460382 -0.7967258137056983 -0.7149317177380418
674 2.0261233267347443 0.1213923845709083 -0.5070087606878011
960 -1.3881496960295128 0.5346984924827727 -1.662488505224017
962 -2.6262473009941614 2.0703257620119353 -1.7476945158666815
1248 -0.3993367220502346 -5.077492801298212 0.6207282916591803
1250 1.8423979572390758 -1.9607128231204507 1.6907497898275543
95 -2.8025701056901533 5.03349742613749 2.9780300784263147
421 0.38697426186204187 0.7913848207930047 -5.299293616670969
383 -1.1553277347055153 2.117459710936835 -1.2716861438803848
709 1.3151327223881684 1.6657862888757027 -5.928751658337143
671 -0.7846446285191239 -0.05634657786557705 2.6002113664496447
997 -1.0798361302543613 -1.014390933143123 -2.331776757841145
959 -3.4021297587085106 2.118479982051 -2.236752925210119
1247 -0.17168882395417936 2.6615288832526796 -2.6997099803363214
1285 5.193495130720522 0.6811509525517133 1.7532200210698614
131 0.28708689154472733 -0.3977415837494539 -5.005536442222717
134 -0.5197531057468322 -2.9366939884028467 1.6591379272562603
1290 -1.6659260516264554 -2.0884129283010027 2.696128651135081
420 -1.6505111050364012 -0.5831940389041301 1.548074576569443
419 -2.1850908311679156 -0.41719994197356713 2.1333654704660225
422 -0.3161279041124695 -1.694918103081198 -1.717957302814778
457 -3.467703248175209 -0.8457485457768208 2.7307929043210795
745 3.5362193313561177 4.042665857843618 -2.336181831112612
708 -2.307694406095781 -2.158658798830923 2.357612248033785
707 2.8122004290896725 2.6263660562479356 2.237318798513036
710 -1.0735623194149573 0.6887398120667967 -4.676335301685896
996 1.3210251742645165 0.35717032950399746 -1.7947949419266773
1033 -2.238826072376581 -0.5008722066066879 -2.81437865117613
998 2.9611288358779704 -1.6705465786767346 2.8946818009176787
995 1.510485294541579 2.834154657055153 0.20121311392151722
1321 -1.4600289155904573 2.699443320174923 0.7443577988953548
1284 0.7960238039441166 -2.4019049709528115 -1.7660121099080193
1283 0.13379723987273756 -0.2560852386194716 0.15847271263052237
1286 0.7127313320539053 -0.6108634138424885 -0.905863915805313
173 -2.38273413550243 -1.0311008309878793 0.5411761801485501
30 -1.0326419774339926 2.1273504212698287 -0.47140998773341497
316 -1.3257307369512885 1.0509044703426857 2.362147268970721
318 -1.1369815517846813 -2.2114760581620896 2.3999630097430438
604 1.7053682548692115 -0.653939241812197 -3.1996898861224508
606 -5.6461811308272365 0.8884782023728622 -2.746289369393481
892 0.13264262587536793 -4.316715254179973 -2.825685089729792
894 -1.4729639000479458 0.5697662818122718 4.505225944802518
1180 2.197389088996226 0.30117746709680515 1.9075979203587787
1182 0.8850786863533411 1.9848169871517212 0.36812371067568456
27 2.1302387140853876 1.347020289951566 -3.2510249513141964
353 3.1365558829314875 1.6643128641374203 0.4107644446808975
315 -2.2515520303144476 -1.5008571632611274 2.5925281880815185
641 -0.09867654011463271 2.0111210880501464 -1.4687919639328102
603 1.627957982749575 -0.13515224258502076 -0.39642013622940575
929 -4.489287956076387 1.885431825096697 -1.3706535180688777
891 2.1473767233649452 1.1583273198775577 -0.2592623451164729
1179 3.987349088962799 -1.3425902897401354 2.807977967087616
1217 -1.189336276467408 0.3083084996961034 -0.5916130989881915
66 0.3715861866454974 1.0674033956416666 -1.266818828822268
63 -3.2173835846653174 2.402884776263222 -2.6841322673790016
1288 -1.8070866736146474 -0.00034649537624173167 -1.2458678754252055
389 0.8590755128286046 -2.4007762104601866 2.6623428535204896
352 -0.21214910047814747 1.3758388100254084 -4.331237367579347
354 1.0737678160328923 5.3575933288898065 0.5694718567241263
351 0.5299583842861212 2.1283633145049636 4.655322879564072
640 -3.085230997678332 2.8956835238482257 -0.07754067115424292
677 0.9689592917707175 1.7816631093653628 1.9596356174294358
642 0.6941209411283988 1.0367644103260851 1.8203789178683594
639 -0.8663853059832414 -2.46205946436519 -1.023604762371583
928 -1.871239347946937 1.2632494024637695 -1.4868282162458337
930 2.9800368522490515 6.230436346188386 -1.5311051152736996
927 -0.9536722172144761 -0.6123619413425989 3.2877745425792066
965 -1.513079925630911 -3.351156040173075 -0.4060099043508462
1216 2.442223763992393 -3.8570778952997467 -3.256585463209368
1218 2.905493452745414 3.96900114329934 1.4436269177066627
1215 2.7821801857031683 0.7763195761476023 -0.13364556707182298
1253 3.594202574737195 2.751038560130543 0.24175857788584007
102 0.9643562941762861 2.1973922266500168 -2.171097772561797
388 -3.1483001136640616 1.5478782668932591 -0.42876344211107537
390 0.289649048444728 -0.8169782834870253 -2.0052649293907177
676 0.75888930137436 -0.6604091904714368 -3.537534282645421
678 1.3444553901325789 0.9535849229580244 3.2439235871997045
964 2.4264371271647067 -0.12524429828758338 -1.2255451420640098
966 1.350439841607464 -1.825848786701296 0.7849063275228448
1252 -2.5338647334168547 -2.0478738515062345 1.1329491038377546
1254 0.9976001677139933 -0.6414153201531461 0.0055245679439485315
99 3.5239909908240987 0.31967086023677355 -1.7782930132399377
1287 -0.4447976423093468 -2.4308328010565843 2.123181170708035
425 0.4244952911558599 -0.5691524238889366 -2.0997182438836677
387 -1.5857636551356875 1.461382501880235 2.619665504735804
713 -0.8488031137023573 -2.996991719273083 2.6677063439561
675 0.8489296044791393 2.436112199656572 1.9045340315476107
1001 2.4864345825997103 -1.2325846110222127 0.29185109502930506
963 1.5619059702299962 3.171345286912137 1.1595973760055946
1251 1.2077928124687183 -2.443897744475552 4.756588819246608
1289 2.2830549587029774 -2.989612011119393 -4.0185771443920215
135 1.0174981562245664 -1.4952380117167015 2.250435181606535
138 2.624293389934291 -0.09995425901670076 -1.6260224134113677
1325 2.9092209426783615 1.3589737346765518 0.7375139483945253
424 2.738794431350464 -1.063897561224185 1.0065604779619903
426 -2.9849500594594316 0.5124223338854832 1.123839561631997
461 5.455964081212981 -2.859838137222228 -0.12586097156659184
423 0.8866847921269504 -0.24208485968834492 5.008707697367593
711 -2.349588946279539 -4.645616064104925 2.285663765666905
749 -1.0932641161073806 -1.156051853797992 1.442944438035025
714 -0.19604949552165163 -3.4018326053000956 2.6063636872518723
712 0.8218835913977425 -3.511335485580004 1.841844573799091
1002 -1.3464845490364064 7.174616994631266 -3.958504019655549
999 -3.008005037216773 -3.5171707126520007 0.16512451322231955
1000 0.360675339385749 4.577289196090746 -0.9341452008563021
136 -2.423863367047101 2.323740762242635 -2.658594135903882
101 -2.9267007310202224 -1.3923829737431634 2.5818932118853013
133 1.0427452399246195 2.323914893654711 3.9273924936900615
34 -3.5267236303454457 2.5909746479857505 8.491094036737717
320 -0.31879278499931846 0.03976221773278911 -1.0725248477518181
322 -3.5013013062357863 2.512089662435012 0.06868701191084137
608 -3.696702326170187 -1.1383229542213866 1.5289282004984375
610 -2.276740242641498 -1.637386367492029 -0.6490200693813586
896 0.3434067053959847 -0.6317139625035719 -3.0044121572081575
898 -0.027723510366527086 -0.4155970363766649 1.5182109019667351
1184 0.16334477088436342 0.17545681366393592 3.398700916685646
1186 -3.3352201625263067 -3.6582203556768156 3.210410054770525
31 1.1137740862229837 -3.3295807231313783 -2.5904642100873074
357 -0.7125282863045874 0.6267795756087556 -1.0527264732692936
319 2.4795777934439256 -0.6250999255232907 -0.19003787056069746
645 2.1965723326178233 2.6278090349526786 2.1502604019711433
607 3.7613133582304545 -2.4198901029849313 4.175897001913112
933 -2.34320334028597 2.949867102978804 -1.6592680073227555
895 2.0452861769896735 0.25026036946181396 -1.621319948389362
1183 -0.7741843373042683 2.331462195852455 -0.13434807579280278
1221 -1.1858270291171407 0.8353325578372105 -0.8199129931079708
177 0.6647494252632459 0.6006605079639237 -2.4392448274032557
70 -0.5353377927857802 1.1447737555706659 4.272118994693407
67 -2.9123085131901685 1.1734643305927381 -1.0276516708112118
72 0.5642343030868714 -1.166822891237318 -1.2559908353769644
393 -0.21176864174742752 -0.5144846461020897 -2.911006681613221
356 -2.670377980217562 -0.48051213872846593 1.0838710296212306
358 0.07360032632978501 0.6324463330919734 -0.5222269801800697
355 0.8863269360350058 -1.7932497632035493 -1.72440239217988
644 1.4131763861473663 -1.2394595404956101 3.360869995836385
681 -2.7313873399558557 -0.4358358434352182 0.021934343449241337
646 3.9651409984719614 -0.9267474428217871 -1.945760206189886
643 -1.4814001242553139 -1.5020324844089472 -0.4524928087205803
932 0.27956057494746256 -2.9966489299386487 -2.279666402307143
934 -0.11529230067010537 -1.4531277249872632 2.3201145138670065
931 -3.575370889285432 1.249224831066722 0.9569429304596581
969 -1.0121331811714451 0.5950365679018069 2.683978289799419
1220 2.646495297459109 -0.2688157495193287 -1.0475002672413476
1222 -0.5312653259841397 3.3141690875674974 -0.7339922309887021
1219 0.8270586564373865 1.930141431048052 1.7648175223067892
1257 -1.318471420152457 -3.2206809767776132 1.925349951930583
106 3.433994893723835 -3.897330377761854 2.3827393714803344
392 -2.610288373362442 1.7050444916553125 2.947068508075411
394 -2.0482552157889113 0.5874227164483075 3.2745618559369807
680 0.876369594580581 2.475492716617102 0.8371308862714744
682 1.0029939984813907 -0.48284638660059603 -0.13304377979414017
968 -1.7440104681992736 2.255441648937808 2.1834418347203637
970 -0.2901457375585434 -1.2862824284381664 -1.5249422996399267
1256 -0.6797978338898246 -0.11301394307892826 -0.16461516713397945
1258 0.9773587780319846 -3.1277546939893006 0.7509088216778301
103 -0.8267411311271078 3.0977238379589154 -0.34771636970646996
104 0.2956146769927878 -1.5704373385464239 -1.0424087534799984
429 -1.0810299250663538 1.6956933059867871 0.5399391892266308
391 -0.330452562898119 -0.8690032440986074 4.057850921369294
717 -1.6340704589741846 0.9608757363642095 0.007690699735573453
679 -0.24826854759874867 1.4159284449866425 2.4469685382264306
1005 -1.5763052654224776 3.159259579810785 -2.779761232831052
967 -2.788127503695672 -1.8703830237468246 -0.0697114364869104
1255 -5.030758884306685 3.64436862000166 -3.406440114726911
1293 -0.6057157568967427 -1.8176878991114178 0.21043759969055637
139 1.1295132179362832 0.05548796951416221 -3.771574971355268
142 -2.6392996340167345 0.3883193235060974 0.8932451187146078
465 -3.2561849089547814 -0.7713466909581997 1.0886045428187956
428 1.6459766003063838 -1.0344699920043856 0.9145394161268152
427 3.3165192698446915 -1.9438459330407574 -2.951534337803207
430 0.6838716039723665 -1.5682596292311166 2.2311764454697025
716 -1.9722598472523276 -0.6550666267883005 0.4361282244015879
715 -1.5381605730494368 -0.6224749115209379 -1.594157690999545
718 4.153522130226763 2.2182896751860155 -2.878420980225585
753 1.3317238020259061 -2.1763372610386376 1.334498614509164
1004 -6.5607188955555165 -1.316843434827693 -1.5058301835594137
1003 -3.810358211124988 -3.417777017005404 0.46762801348330807
1006 2.2183053270342596 1.1820235888408166 -0.8309913266242765
1041 3.9605987946535306 -1.2953716512893914 0.5703324686030282
1292 2.67619947615613 2.9656063711980076 -1.6964968368202145
1329 -0.3147315214386852 -1.381331805698187 3.1660048563941956
1291 2.120693442080344 -0.08836941254574064 -2.998588323606909
1294 -3.7007466945130996 -1.2854388383768611 -1.2121948922908046
324 -0.37710422476012767 -0.22197421668505776 -1.285058289887223
612 -4.683732022844449 -1.92110746522872 -6.0367517077101756
900 1.4451401901353522 0.7896709639778815 -0.4522904284968182
1188 -0.7344108799992353 -0.9793079355799327 -3.281360296538757
35 -1.5137147080177211 6.059566770994999 2.3983859782086654
323 -3.226988470085976 0.3714182032599103 -0.5542639787951444
611 0.7536790957492935 1.8057924221024941 0.7367210338668021
899 -3.8360151155566977 -5.2490423291388275 0.6949741294843836
1187 -0.7392316513115924 -0.37913408211039173 -1.822442672157806
71 0.205737952915699 -3.4419312381590985 -1.2457780465168218
720 -1.1188373296781708 -1.1966426807329935 -0.2336820271248697
144 2.353561800381629 -1.466137324196487 -1.664085218715187
360 2.461747352539905 1.2898396221404578 -0.703489156793735
359 3.29294313997508 0.142480532544466 -2.2964045091471137
719 -1.137208235190609 1.6906874380918582 1.377924908303134
648 0.2587098936949233 -2.4026057099861275 0.9435363624840296
647 -1.1214507241962348 -1.5324114529637654 1.2846954038704865
1296 2.0184362935310824 0.41555267477763985 0.09959475359531185
1297 -4.1935088430516 -1.6684958434674806 -1.36350164791144
936 -2.4899395379509883 0.9644961042035048 -2.8461211147294554
935 -0.8396700962414799 -5.3451560132192295 0.17729784253341768
1224 -0.4840475743368016 1.0697290943463502 0.42203580517221584
1223 -0.3246844751825811 -1.9777074327131041 -7.1604791554613225
432 -1.4245520122086004 -2.0550245427496487 -3.3803421256249897
396 -2.392091205633496 1.592099095831221 1.2978039363979834
431 3.556393529272202 -0.7313986296679958 1.5438309617897026
684 1.8753388993233382 2.6479739469344867 -2.2734821188033782
972 2.3767688793151796 0.06468907776654345 0.9577612997220885
69 2.779198800565123 1.0368527068324191 3.540994268877022
1260 -2.7118939884837863 2.1543581132957073 -3.532770419970769
107 2.392158262512324 3.6131424375875367 0.24452317439079926
140 1.446675498638723 1.762021595657628 2.0176720365569687
649 -2.809477332897268 -2.244220391645155 -0.04291364327614571
395 0.7945726375229957 3.0227893406664252 -0.38968041541362747
683 2.8825439383847384 2.219708166296791 1.2690175879735102
971 -0.24717168296389677 -0.24109945952861914 0.18040653385655836
1007 -2.993975663461442 -4.4191691519326275 2.700407615084215
1008 -1.2592059157012967 0.1400134938285924 1.7180779188819477
1259 -4.4568542559486275 4.014124533433905 0.4212452368262486
143 0.7034798683916175 -0.5824678621537934 1.0575670930352703
1295 1.570921876344156 1.0534810110660995 -2.018179188350427
1261 1.8737711178751733 -2.382282138536976 -0.41385664507376574
141 1.69775053430349 -1.491981489294674 8.171955562141378
397 1.9330267457477839 2.8703073142460505 0.6864078732607523
326 -1.0145166651872302 0.4603039666975531 0.010659113912688672
650 0.1598834377375806 -0.2764113645318008 -1.5317025634496508
973 2.135394289132861 0.42616282024097046 -3.24728781432911
36 2.8883598920097744 -0.16749438273779127 -0.18680269137404035
109 0.9166104175790158 2.768578469411853 -0.9944946331306747
68 -0.9747273332425412 -0.5200126588656587 -0.36328784135748043
145 1.7192671295743298 2.234588202080296 1.357740573491468
398 -0.8968826592670455 2.6911070784415134 1.8308020761195503
1262 1.2488884046348578 2.8642802167678307 -2.1929638926006794
974 0.5437637566645972 1.862598432032678 3.2580300357887064
74 -2.419601448052864 -0.8544383181744138 1.7019751511398313
110 0.6970888702086754 -2.6411675503250844 0.11555377637794818
614 -6.694168407401558 0.6526202549308693 1.5013299363716395
362 0.52720269333431 -2.2087097412763086 2.701076543461245
721 3.2411844935372076 -1.4642569741411817 -2.3779458152480637
1412 1.5421719085587648 0.44382972959656813 -3.182722170603776
436 -1.338011135349177 -2.2459886507486444 -2.806522797664919
724 0.41934368271197664 0.271829938215952 -0.7492472508471631
1012 0.7802617310528072 -3.7315493269688487 1.7382450649692145
5 -1.8791209873042989 -1.6063085477204526 -3.3348928411144088
1300 2.944697766057149 -2.781236132724387 -0.285462715271246
147 1.8685232013211588 2.3499221393372673 0.9240195160759416
435 0.11726903237539303 0.27010724689851734 0.5358133996703801
723 -1.7114207977487037 1.1223282610354632 -2.107916011504894
469 -1.6045605702086223 -0.4009797571644767 -2.759505364237142
1011 -1.0565418854369157 -1.5331249264536515 1.6829849718840206
1299 -1.981140697413882 0.4704457823290305 3.616917901476674
256 0.41347718364952374 -3.8739767648239716 6.22239360895923
260 0.917982011239195 -0.11776595622456082 1.6534217062212515
183 2.0222408283679068 1.8204807699049685 -2.1301418736513855
472 0.9726620056239653 -1.1812204543225897 5.434421669588577
471 1.5716766135992417 1.8046970813675043 -3.268648801334582
1123 -1.4099587974956787 -0.326112294021347 -2.1234146439240296
760 -0.2708127204090246 1.736332904805727 -2.5126809290149406
759 0.9748652987112715 -0.6269314410134698 1.0978049182678475
1048 0.200156832373403 0.8494133013158619 5.490427642318283
1047 -0.5953009967129592 -0.6023771042324648 2.4053613571724735
1335 -0.922222765642918 -1.8081756422631674 3.1958706850683436
1336 0.6308520373488468 1.4190935460401746 1.1975505858752626
185 -3.4132858655198643 5.615863284112796 -0.15508571770029927
146 1.6876809560945163 -1.7275009737417943 -3.4283977173092812
1411 0.8923995817902568 0.24179439177067788 5.694876115001252
508 1.5129761235981576 1.0134823016724261 1.6418196859338279
796 -0.7133662990851559 -1.065026821396992 1.5773532135588602
1084 -0.9564190482259237 -3.104940877800398 -3.031279366019929
257 1.8635454591648881 0.6763892483683828 -1.1437841644444728
1372 0.002346955869085689 5.800394628065668 -3.583271632934848
220 -0.7752781598536191 1.9991422572772946 -3.3551988083174895
219 0.2268236537158626 -2.969549030918281 -0.44955342483296595
507 -2.010934777288409 -2.84845174329406 0.9121301131652975
795 0.270719852555509 -6.104568153098089 0.5552556009582802
1083 1.1358378781838214 -0.9914123366056805 2.0646371516935633
1122 0.9851353051041345 -1.5591433147485418 1.3073547743830412
1371 0.3044867545485674 -1.5003605248445224 1.4995148248687458
255 -2.5147405474416327 -3.2260936854315805 1.2850925381508227
1157 2.2491340232901766 3.1337049739030114 1.5871612662982433
544 0.9739336477339139 0.5598948113614642 -1.4547317645943802
543 -0.12472261974646252 5.155136137827667 1.7482664954754983
832 -0.8031456486101862 2.4607215847878914 2.0132813278763866
831 5.138543193089071 -0.9016578148193342 -1.6510871545592127
869 0.5564286639787979 -1.4380859638575174 2.6879208164010757
1120 -0.9406849778051759 -3.6270262087640033 -0.6496303537961826
1119 1.1723606018581982 -3.5400006429046513 0.8408579461745794
581 0.31534137570980797 -0.9757972247504196 -2.872633821075936
1124 3.0739855565453866 0.058963877162910565 1.6451140964152866
470 -1.1714887309714244 2.0501959868997646 -2.0534781617047955
1407 0.7922061515943645 2.6854712209610754 3.4643754376256406
1408 -0.556741047098694 2.7843712484381022 0.18945358880532664
835 0.561124993709211 -1.6148235501452894 3.395941600082193
150 1.3009676059093578 -0.6294355695587919 4.241359711104846
440 1.5704734982667108 0.19522327635108205 -3.463928391860387
438 1.4204445380761126 1.4695349819888937 -2.057067035542237
728 0.4543427945737179 0.5474538476477209 -0.40118346450603964
726 -3.371613437157631 2.12800378851949 0.02731860527723054
1016 -1.2990595427638871 1.3272887351665377 2.81048262231491
1014 -0.8082289950766148 -2.3231448551339637 -0.8280578400076253
1302 0.534605512431071 -0.039721566339660785 -0.8306725721091776
1304 -0.9915490204703037 -0.7152311396315787 0.1086777616681626
224 -1.3365593824942166 -5.016534745667903 2.533345989815475
151 -2.523251698167675 1.9254379980977927 -1.4606419428448816
473 1.5436440424194873 1.7178255174640442 -3.008235677792646
439 0.5586890557983101 -1.7213130578406686 2.531569012053852
761 0.2671693040994955 -0.3671147828876321 -3.6748561903752908
727 -5.871357527553634 1.203009226111137 -2.4786278348989925
1049 -1.6241012778762864 -5.425470432819859 -4.753046886646112
1015 1.8218780450934684 0.5534810071459936 -1.251767340998634
1303 4.3093703250463395 0.48962565628049703 -1.057782204673375
1337 2.519921986960625 -1.449540327901296 0.4208197871326209
186 -1.5847551982213723 -2.8408215634965677 1.3876943498401328
187 0.12941250851465094 -2.6516291743096314 0.44857213101368515
834 2.4298782906277907 1.4168202050729164 -1.1287066328367126
476 3.504170783560008 -1.500425862665875 -2.039952845820004
474 0.2730086359817079 1.0527933968355518 1.762986064698223
475 -0.8020534755687837 2.6916735385189243 -0.8406091873899072
509 -2.5256544673198573 2.0376655393456677 3.3551701191771244
764 2.1447978245396992 -1.4667324930205932 4.443947370708742
762 1.3786987706725087 -1.0730399914237705 2.542221743312819
763 2.989189935513346 -1.9954699496707573 -0.3833357369660854
797 -2.2279598573819235 4.7324139175345765 0.7010959623150871
1052 -0.7146924895539402 0.3202683495098715 -1.212288032454806
1050 -1.6585553628940162 3.018836011736485 -1.334837689361202
1051 3.653994019722893 0.9912807094539877 2.604071614309925
1085 -0.051828349350628855 2.2296859579163555 -1.4278516570261341
1339 3.912956059327641 2.3840239374423824 0.13221221253733348
1338 2.803386516922689 -0.2626204942208139 -1.8397957002264975
1340 -4.192303153161205 -1.2928108531423352 -1.2811822608982877
1373 1.6793117524346712 -0.08099729354480711 1.1358928574023308
222 -0.08801440504846125 -3.8748159845920966 -1.1817286427677587
512 0.7812522855122623 2.1940010352000567 4.124787498713615
510 -1.5385376266799282 1.3410783980240915 -2.6491823976830644
800 1.7327672661602251 2.5323474192564404 2.784140396614977
798 -2.7047556769549184 0.5169300499030087 1.791124409837984
1088 -2.289234524827464 -1.8441782862315446 -2.102072165795431
1086 1.954555394089165 -3.791644101959898 2.918879933150419
1374 -2.6266278635776623 1.3288711964322117 -2.3427598942230476
1376 -2.200580899394135 -1.415965824518928 0.7675794922449791
836 1.1468662798806013 1.6051411996970055 -1.6721331642884316
223 -0.26750329342591744 -0.5257235107054933 -0.7865607682158569
545 -0.2022409393569399 -1.121055012101501 2.0089672047617593
511 -1.6686172638422372 -0.21452315256419333 -1.0783085950519729
833 1.2203932081054154 -0.8291116081115912 -0.054068861660581675
799 -1.8305619462068765 2.7935625286064205 -1.2456319318263247
1121 2.677810437099328 -3.5440680874861235 0.2645069474167641
1087 -2.941525754419367 0.5092821745477134 2.0344952187438654
1409 1.9930906402293584 1.12977658062775 1.2044604210083456
1375 1.4292028076360934 0.8467806249719136 2.2290136536709717
1410 -0.9878626086642351 -4.275230259570971 -1.5945781875700766
259 3.7603412665003066 0.012443772818784005 -1.20588115819046
258 1.6808803177756961 -2.8300550654606136 -5.352469602847573
546 -1.9642918279733945 0.15426452568886342 -3.0380723607175484
547 0.07152872162241215 0.8192702039865346 0.3652672504162701
293 0.9042080659180167 -2.5678117428078595 -3.014204817482079
548 -5.261666319327184 1.7910584430063075 -2.125731953164103
1082 -0.7194633078501491 1.1205132401328965 2.1276131647016303
830 0.30596836964568247 -1.005688611900785 1.3945320519043147
184 0.7475706672588446 -0.03572032684416132 3.2338102947565495
434 0.07252317374320795 1.4163628180294436 -0.8319925283721793
577 -0.48503614170767306 2.1282902894143945 -2.4802150017233258
542 3.2949157996274128 0.2632571347654269 -2.0693269185334993
289 -1.4415414718539348 -3.6392932543564482 0.7296027240000084
1406 1.0767298454328944 0.26641107105434986 -1.9118442818727044
1 -1.1483263798412875 0.9767265147966403 0.4697997191533263
757 -0.9318798867996815 2.5457431193371467 2.345508602794067
722 1.1222779245606027 -1.584777683022472 2.3646303352056184
1117 -1.3097838981019987 0.5065151835259241 0.9812302363457274
758 2.3864409416449246 1.07622471532255 1.134068522673792
154 -0.44462068038645775 2.040781526952623 -0.31313889733037864
1420 -2.002671760865445 -0.9466882597898895 -0.15339816974824913
444 1.8732139776773273 1.1559356356952393 -0.6593704624329294
442 0.021920859863713976 -0.8697689756740989 -4.153747215149234
732 -0.5667945903504611 -0.7096242269404338 0.24908218316094893
730 -1.4024227915132133 1.1927680634142888 -3.732067797645344
1020 -1.4462386500350857 -4.013419579055162 -1.051909337610946
1018 -0.7113724130700733 1.4824310936358152 -2.1020053315491576
1306 1.1811717043816468 -5.19541531269806 -2.231844574946534
1308 -0.6286029889197718 -0.3463646605296548 0.22888680924049395
155 -0.6353458165783248 -1.4186427163052946 -0.05586581433687905
229 0.6836262183961306 -1.145592400048608 0.998058104094404
477 -4.879181875571271 -1.6261753128649674 -0.09820159170845733
443 -1.8895182422026948 -0.296364705600889 -3.3336279299674376
765 1.4363815067485075 3.069153960788371 0.8573500317503917
731 2.439590261206346 -1.3100248053081343 -0.6746004694666478
1053 -0.3919040080592077 -1.5592403946339817 -1.2165908817008546
1019 1.0952247461603406 0.00738450911588744 -1.603691224808427
1307 3.818671919778681 4.45646558775818 -0.5780363259621945
1341 -2.939229190124958 -0.8113116744724875 -1.8382344422011396
190 -4.537981540312619 -2.858516864863744 0.6127214594086117
191 -0.00550852721536294 -0.840429566268797 3.253349965389266
192 -0.02365444089519908 1.1897824743313425 1.4284062841903271
480 0.3604061736731796 0.802969106051824 0.9759297951002709
478 0.42265101975388536 -2.8003721602956433 -1.3556145515493208
479 -1.9299431976953163 -3.451420892587489 -2.7269275977191145
513 -0.28583870062785055 -1.4992280024883513 2.290559912366485
768 -2.792466512291762 -2.1169807774767926 -5.7791046308388205
766 -2.8380023769865956 -0.2600590854497701 2.486673357596195
767 -2.3193482541179464 2.3170360653984967 2.537351613181709
801 -1.23777425841495 1.787110909125588 0.49947734957252066
1056 1.740410345306284 -0.19607817038413844 0.8473685036041761
1054 1.7272943234501823 -2.714679020278104 -3.3836274444479564
1055 2.930846762117403 -0.602139896734167 0.7006561788332097
1089 -1.992535684045175 2.9146584836853715 1.655890711466145
1343 -0.3152608740341504 0.1891236062945887 -0.9081171593194408
1342 2.248416805477745 0.861203321171581 -2.209127165429035
1344 -6.972355251398817 1.374757044664118 1.7581224180946557
1377 -1.8983186385739876 -1.9935652866881972 -0.10849351105164878
226 0.029882413493502666 -1.2292546271527571 -1.7986643895978445
1130 0.2019253852087118 -0.042799988824137984 2.57093478241959
516 -4.115068687106855 3.7525247209404253 -1.9668639461837485
514 -0.8642348712087145 0.23598349902688392 0.6758244213811493
804 1.646623772437688 -3.3648992540973484 -3.1541574668316
802 2.9640777243800183 -0.8620713813824007 3.483360144992931
1092 2.535936058883205 -1.197222261288275 1.8823330044565687
1090 -0.9153873079692324 -1.487434577226519 4.24526900861919
1380 -0.0555230650758989 -1.0051547994238226 3.4042190056543262
1378 -0.8363357929147814 0.8350652142906929 0.968007657728769
227 0.6574381153769236 0.7048754172945925 0.4324474112271184
1132 -1.729093525568571 -1.7725016272873713 0.35426493451643004
549 -0.01264817185069372 -2.8237878521756787 0.2825776339042073
515 1.4063829742758418 0.47500706876976856 2.0987635995051206
837 3.8893208774094967 -0.6775791490422005 -2.441573218898272
803 1.0765449252645196 0.03464499172750613 0.4057265294744109
1125 0.720188884613041 0.48679262209249596 1.7082328362702517
1091 1.1586813247692729 -2.900532220353657 -0.6873959724186289
1413 -6.713374156254209 1.6537472469072187 -2.8911650721247066
1379 4.4969281663130936 3.255308025861089 2.103131996572722
262 1.998999239707068 0.8625685973282498 -0.059195398144024684
263 -1.6251755413240283 0.5119027843671281 1.7995564345676178
1418 1.6754575968881789 -0.34058301518819983 1.6687888377321534
297 0.383364502985996 -4.246345228287601 3.3786552283004796
552 1.1844088962297317 -1.4147644958006045 -2.9537802446547596
550 2.7046476454172472 2.71174148969013 -0.9270696649020707
551 0.6889444212140443 -0.23728243524476345 -1.309786777989295
840 3.325432203605551 1.7708523630352668 1.1448032996438413
838 -0.2409545417881366 -3.012102056182923 -0.35487244467747825
839 -0.5382020655464279 -0.7412084479083493 -1.7261037956056835
585 -0.44390325619278853 -0.27543308902762853 3.0215180750764463
1128 -0.2529802989839582 -2.3511304575261103 2.855976915208715
1127 4.67164181799656 1.9939390336977854 -2.430700827104784
1126 -4.39468583658014 4.757327628399279 3.9267227595566845
873 0.4848591827311517 -2.0825930218568196 -0.32529225094558323
1416 -2.5655390137604073 3.5541403343724296 -0.6401586080609802
1161 -5.709818812108527 0.9371799621489884 -3.058533424085083
1414 2.228815881025145 -1.5628239249032854 -3.6397590598001184
1415 4.75889596283437 1.54669843990165 4.244016281290095
158 -0.09588904000778499 1.316362671044167 -0.8869132237909984
1419 -0.22356704525388346 2.090068826278846 2.5856845684938374
448 1.882950039358307 4.305163177231689 -1.0416421370446929
446 0.377318999874461 1.1469288026896525 1.7942314494552942
736 2.455739582813613 -0.2013710374699948 4.255683338492911
734 -0.15776034198711267 -1.0317177723343551 -1.2975315686475641
1024 -0.7926393559559778 0.7974112306720714 3.518278236289733
1022 0.4812384921685137 -0.7226510018982192 -2.8234278051922486
1310 -4.2371414235578815 -1.288017592129223 -5.645456045031123
1312 1.3200643909352285 1.096457887738897 4.165790492819274
159 2.029915044431954 -1.1683079444299629 0.5487966318039511
481 -1.8371218074618645 -2.8076015697549845 -2.734756646455924
447 -0.5726060021220332 -6.205447769731806 -4.875958139987079
769 1.362344528318696 -0.6809310894471621 1.84012107309343
735 -5.388681406029902 3.246067573210455 -2.6713351521557467
1057 -5.6984858695687945 -1.2425073430527231 0.5612182357802706
1023 1.961721370985143 -0.5544468165196087 -1.1088207866273043
1311 0.6563018267791658 -1.206850618096393 1.5048918562093492
1345 0.5247442693745722 -2.956350453772771 0.518579610308573
194 -4.268030873407218 -4.291116771717864 -1.577502631214797
195 2.124826251354215 0.8116972013944218 1.6706486875508781
196 -0.6499368725759288 3.497760521857743 -0.5634270610766374
484 -0.17713990823951822 2.499993436580603 2.0600439766709346
482 2.34887723251894 2.445951348887256 -0.773263675167447
483 -1.796740755119097 -1.4591558147080803 -3.631088501007223
517 -0.5269405753167776 5.732689491835424 -3.7934596819425463
772 1.543829713353499 1.641808092232914 4.29112113498751
770 2.243972360277089 4.49283610743092 0.20652878798423202
771 2.0751338162416544 -1.285776403863491 1.7237020086504922
805 -0.199452450988125 -0.9911443142028779 -2.3535386364582855
1060 2.654205079218055 1.2725033154572094 1.2175354029979377
1058 -2.4378775615034813 0.6805605051655208 6.591459392252822
1059 3.374553816318322 0.9141658951244259 0.3760203724967938
1093 -4.47185228635872 0.5383068943940771 7.338525832676949
1347 0.694229539881025 1.246600188783811 4.857153264458898
1348 0.6387574460378569 -1.7604279675716386 1.0575810883981835
1346 -2.068302791182023 1.2687065296024154 0.8338501755631177
1381 -4.188032943698144 0.8761213592823286 4.438306181879458
230 0.38840660472630234 0.47212921184759093 -0.20422237101546287
1131 -1.4406122429956516 -2.5652317264316906 3.067835631878063
520 0.1681098236675763 1.7062309305426206 -1.0579726347567404
518 0.1850280838653792 1.7407574660871095 4.100779550189772
808 2.483308932221717 -0.4665097179379018 -3.8289058508767186
806 -1.9136156923459497 2.8504752031276026 -2.917254478694758
1096 -1.9807454548472405 2.503953749486364 -0.2804727474533228
1094 -0.18700043269270727 0.30487180381890827 0.35140468532173813
1382 0.12272839863477912 1.6425673489229926 -3.1714106994438334
1384 -0.0927867291830588 -4.532897458004239 -0.4042069111021365
231 1.2116707501324462 2.4521675934250102 3.1799394509973773
1165 0.27931675530361394 2.9266356632199675 -1.6243985616678842
553 0.9634806351475491 -0.35520178765009813 0.7850010384434342
519 2.0847685153245488 -1.8368404036937054 -3.3411284524119687
841 -1.9857927613479331 -1.2179218439968225 -2.393490224266037
807 -1.0531219490003099 5.026125058764807 -1.4096648502128641
1129 -3.2558388211684504 1.618765360192523 0.9120163170528905
1095 -2.656244332488591 -2.6274980474048104 1.5678332478502712
1383 1.6300265859445646 2.3854128779965897 0.856543689965764
1417 0.5140403656948028 0.39309168795546007 4.458800501031444
877 3.2739449946986623 0.9023552922933112 -0.20401022433756646
266 0.21126561753792092 1.5371232231135539 -4.467679161287368
267 1.9518298369902154 -0.38469117009698606 2.2146690164019365
301 -3.6021862176737955 -1.800220219419539 -2.1967553088120195
554 0.478464254777952 -0.057155464658720026 -1.3902954542128585
556 0.7097331694293929 1.7550459332817148 -0.5431556209394063
555 0.21556392051775855 0.07851255174025062 -0.3810193657934022
589 -2.0041651554231015 -0.444002233725019 4.253585943995231
842 1.512331744487434 -1.736202595916914 1.9445272262466828
843 -0.7224666500608159 2.198523776787824 4.9182809350772265
844 -1.882604748964701 6.630622768543634 0.814860295533743
261 2.789587477374425 -0.7154181862568247 1.8130662522951453
225 1.3014737601489252 4.675375423513492 3.0524311204814674
228 -1.5645503491173454 -1.5016500549930776 -0.5825750584107201
189 -0.6801573286899155 0.30523398699733983 1.7618031336654068
265 -1.9214482512433861 1.9036923268999426 -2.372521225907688
160 -3.44638057215275 -3.9526577799225584 1.0598637208957775
232 0.8902944542879856 -4.752294196205221 2.021929171537232
162 1.3227445770978756 0.4793218523382092 0.2529667772733123
450 0.29870046673054734 -0.6038462920216221 2.8397350733494675
452 0.44341160245238265 -3.533955921159924 -5.929863450325308
738 -1.629388009457579 -2.284114423569023 1.359128056735144
740 0.6450821484336359 1.6059229241556756 0.679443565877414
1026 -1.6622653978128454 -0.17827908109620696 0.4197341465999599
1314 -1.9976884502443932 4.195980702642905 -1.303480392235333
1316 -0.14541955503865256 -3.0874810830933272 -5.843111947737247
485 -3.134614523946971 0.9679376822339839 1.4738649237083317
451 0.8984923356260817 -0.5901653518224536 1.37874315346069
773 1.9746837036545695 0.9716311854608044 -0.196961382460984
1061 -1.709795824041734 1.6073568142552594 0.6829806292663944
1349 -1.3136115759221272 -3.443051385925436 -4.36157828666957
198 -0.12856052138221177 -0.19450169228621597 -2.7577284499839667
199 1.4046557297633753 -0.5012711930587175 -4.481363801856275
486 2.3039663396899157 -1.9733038927816446 -2.7641740893434097
521 -0.27649565007493704 0.831898198571155 2.931085053183191
488 1.6239084718896597 -3.3286048016267875 3.7571907468789747
774 -0.276279016412892 -1.9634351415554372 5.723034671636797
809 -1.4978067188473763 1.76532155377493 3.2863509441151018
1062 2.3200009271031585 -1.0998187380618927 0.5854801480759249
1097 -2.036355032456557 -0.1478218747416909 0.2977326535818419
1064 -1.014866423190789 -2.4468367833816007 -0.41300877000634756
1350 4.559772178188473 0.8046910425083766 -2.9799019020481183
1385 0.36143475658493934 -1.4172538862293222 2.459632886156296
1352 -1.391482152025841 -0.1212929446606231 -2.17700144800767
234 0.39730058659243617 -2.952741428498883 -1.3733175223325118
522 2.933705467278853 0.27392554672035135 0.31627212845637465
810 -0.7919179613737877 -0.954359470954849 3.112168561685347
1098 1.546821115894348 0.27839484719840496 -1.9634880200241578
1100 -0.5208688421411475 -3.232484393195803 2.4879804258182725
1386 4.026011845004499 2.1363029166845333 -0.3114683722394503
1388 0.9363301298863698 -0.9735608307391078 -1.2469599524280082
21 -3.6853290552623696 0.3482576056253316 -2.270180077326587
557 -6.8678146313878035 -1.8812786019639611 2.2110982197734916
845 3.087446757009431 2.624960901580075 3.947984981231136
811 0.837869898612037 1.0779431336368985 -0.8155140786813113
1133 -2.8481324764342144 0.2392161537828736 -4.960155928035745
1099 -1.2308798856171068 3.51583070039036 -1.0377455144694627
1421 -2.617167516408313 -4.614138112966353 -0.07351981100798044
270 2.747097022412238 -3.75923501197826 -1.3774922805301122
271 0.03488959633256515 -0.040773726319028196 -5.013409763007313
201 -2.5967478851035333 2.7127034605127935 -0.7827228679692205
305 -2.9425302429575577 2.041078558379976 -0.6526909399563597
558 1.44626783620556 3.25710939414267 -2.3319148446952265
559 3.8183360582553525 3.5963409463326306 -3.7968181802702072
846 -0.49813454837528015 -1.2226827764368076 -1.3169677181495298
593 -1.5885879528103597 2.806242155010276 1.3370609201628199
848 2.076775526913104 -3.7474898287440737 -2.2325996537334194
1134 -1.1321737681917456 -0.5620417813022298 -0.1545168827886294
881 0.24243164824830077 2.1148195846085467 0.8440410143680463
1422 -0.41035960149016937 -1.8006062467934503 -2.2104881688170233
1169 -1.8325940516257153 -0.2775325063196872 -1.7009475654396118
166 0.06141526590945053 -0.03813966635850827 -0.2900031509448506
454 1.691017476204511 -3.636929435329096 -2.660721891274583
742 -1.3151286636468509 -3.2527176604352133 -2.583386352854716
1028 -3.0191075866735257 -0.14948885923346 2.4320137706494203
1030 2.481757998000261 -0.356791250427233 1.7881580585453376
1318 -0.7233358807089464 -2.6770102736586896 -2.7153139383144653
163 2.96312408180857 -1.2934675841344283 0.48158949579674926
1424 -3.934929960700256 1.1474821050197797 -0.817704608541811
489 -0.866168030516298 1.0086375958328495 -4.7588126178377115
739 1.1464571622688875 2.910427375265351 0.5374703498961774
777 5.202155350823925 1.671321234537468 0.033523972100190605
1027 -2.846949954793804 -1.645339160557785 -0.2826511652791723
1065 3.1354885461655346 -0.5592532373817849 -0.7385854835800033
1315 1.4954144051083273 -0.8521786671765224 0.3707349471813222
1353 1.319222059441278 0.3388805640064679 -0.7739903031860838
202 -3.594092670420519 5.798622985446407 -4.8432576801116065
1423 -1.872325240050134 -1.3488953955760283 -6.372233504668144
1136 0.9264081852690712 3.408498128728623 5.940972832566982
487 0.3401104350474986 2.7537469088919697 -0.9618511970443271
490 1.3502864856282977 -0.12675172623314376 -1.5247480580522277
525 -3.8495204022780243 -0.7678060229438641 3.1542625014286427
775 2.42769576350293 1.8586555142884007 2.0734197192954316
776 1.2699304373721625 0.33147946957866875 2.185668173622101
778 1.1212348861120263 3.842938206023899 -4.820410868849514
813 -2.0921938749339932 0.8100473766522086 -1.9401269934644447
1063 -2.4703327019251113 -1.6249255933745756 0.44974884109548613
1066 0.49981049241330894 1.7227313383489973 -4.939202273779521
1101 -0.5151917618466723 -2.768937761451912 -3.2772240817402
1351 -1.5057287264432546 -0.5801981510805442 0.3222328367045662
1354 -2.76677786567355 0.02151451071594102 1.5068378026193427
1389 1.4614395432854694 0.36830172305880193 2.02004674064002
238 2.4578394021104923 2.0504716906864506 -1.2578012906991984
1426 0.6014367987476668 -1.5468629916852124 -0.13174723310442954
524 2.4171116130127626 1.8857310247049515 -0.7969800863466275
526 3.5461289309786714 -0.965669859462396 -0.45261039756522264
812 -1.7872241881062694 -0.36420226700438185 -1.1804730940793762
814 -4.896297859162461 -1.4275274677240695 2.222137706611067
1102 1.2426642645216042 0.47066736577122015 3.5972661822157233
1390 2.557160854657219 -0.013032220676502053 2.8846349859781637
235 -1.675066910914108 1.3648793483804702 -2.8970415486122008
523 0.609845840145367 1.883149106513548 -0.9166154212929867
561 -0.27411402002275187 -3.001422020663206 1.1972192197599525
849 -0.1750416642641944 -0.40884326961827444 -2.2110227482456843
1137 4.057823924208511 -4.1232678412100086 1.0533516761845103
1387 1.7743254887988091 -1.533787598901035 3.0735272093575086
1425 2.8066962638008905 1.4539352575679285 -0.2715454554418608
274 -1.0552170600518456 2.5686904747066888 -1.311889263729699
1173 0.6550361739550085 0.10133059263935469 0.05897712570338303
560 -0.6049084739587302 2.0699744920731344 -0.4497794570458422
309 2.1794562714537813 2.9410193618834257 1.295623755652557
562 3.550818315053681 -3.656430871424125 -2.0149616030486066
597 -2.4159802889087043 -0.46114873871110845 0.6480232509121903
847 -0.7480963062913573 -0.06937516886772808 1.604378745034733
850 -1.782590500626008 -1.2913958254368925 -2.4635351079406025
885 -0.8379254818229459 3.90477998801197 1.6412061481327154
1135 -4.3219317133573085 0.1824029262320037 1.902105221847667
1138 2.2050109482691838 4.933892248310705 -0.5660997294527302
197 -2.221436444100573 -0.1805823627840779 -2.711773024470835
237 -0.21553676060956203 2.9141977863862705 -2.445423066229358
170 0.43349492395005623 1.073769145002142 2.3086592140977755
1146 0.10021145046378736 2.2999567120670075 -1.6769197105569975
456 -5.541487408002204 2.21715661060273 -3.3817801055334518
458 3.2766477785768973 2.6833761384525894 -2.5029993205589203
744 0.41911088880682984 -1.795073546598068 4.2867016168979735
746 1.4207994719477763 -1.6319432851985847 -0.32528225049867027
1032 0.2928336670043564 1.9142933973726102 2.079046351674972
1034 -1.162657416576076 3.204478531819315 1.1882575172162673
1320 -0.9980644075096535 -8.089322653628608 -0.46590052084558836
1322 -0.7099040584683497 2.278523853636909 0.4435527559518832
167 -1.1938181380102182 3.1105776142201935 1.0702510599205957
245 1.6160889934569431 -2.31719230468157 -2.8369527811386948
493 4.3603847645338245 -2.062737473432022 3.1966189150455873
455 4.067310847607445 0.15818888078932358 -2.7208175812166036
781 -1.9319864407471847 2.0229628799031993 1.6871459249347263
743 0.6785322663091323 0.06129768529393942 0.6718473570671125
1069 0.536032392036066 1.1732100292332908 -1.0402201425423248
1031 -0.5961625314966226 -0.8894448381193474 -0.19452261328269285
1319 1.7222055476104678 2.7943403188832585 1.1880637926005433
1357 -2.2975755386288235 -0.8270802792986482 1.1413973054569508
206 0.8690677758412823 -0.3532013588272139 1.0399386870071896
203 -1.0115693320764287 0.1576107591823624 2.409260172472794
1144 2.2123754138637763 -1.2779668982826209 0.7689399450830963
1432 1.8722405794506591 -0.13061386279062276 -3.296269589161119
492 3.839463928048149 -2.9780816545075113 3.40823639015736
529 1.7129290973755984 -2.8678879907550336 4.023509825118039
494 3.2218898699350524 0.15855371359861484 1.0434025040100976
491 -1.6329627809697282 0.6534208413937976 -1.42190811574436
780 0.5174754470891362 -3.4668250010592674 0.5992955981546287
782 -1.4565922107564309 1.9748035402046706 -1.5967964590145596
779 -1.2306446539509341 0.2653019594723345 0.8774471758269117
817 -2.648903346417685 -0.4382819016417529 -2.858485982012422
1068 0.9011798978062793 -3.5918294832777713 -1.4384248282553167
1067 0.3036922794480061 -6.640682169014815 0.6743093965096532
1070 -0.5925133885688076 -2.856016417534938 -0.02531646137503568
1105 0.27736723266811963 0.8264912242767479 -1.0482834113959423
1356 0.15373453267160442 0.4858527821240897 -0.07998908097237409
1358 0.9622374934416424 -0.29116152742783913 2.9687674728336075
1355 -1.9684626752673067 0.7984694910931999 2.9486484413518133
1393 2.1345562396470683 -1.0924178080656726 0.539709172196172
242 4.77502748149051 -0.1890724912277959 0.08776089053520833
528 1.0084475991146642 1.2816495245171895 2.4083830222163374
530 0.011136153495340513 2.812107943848448 -1.2795778556598312
816 -0.3945209826911801 -1.2103722966702752 1.4267476040905003
818 -0.6023274008892539 2.534637396234659 -2.446302277414639
1104 0.9258792425599006 3.0925656574024276 2.5546876695929894
1106 -1.4211251132278238 0.16346850009298164 1.7879250048824538
1394 -5.176691196466584 -0.4989922938148319 1.8407677220654266
1392 1.3487323329229794 0.22491492845123487 -3.957751124362815
239 -2.9952608391278526 1.0353492613833328 -3.308265673763769
277 -0.5047258061551207 1.0465806705832335 1.4271783406103773
565 0.7237280496379649 -1.492544707187989 -0.29093756238226454
527 6.267799783494507 -1.9359898584064033 -3.3615699302967963
853 -1.0052983262578752 0.7518961195502949 -1.6039386368181772
815 1.1899887524100854 2.056264787571523 2.588035095615855
1141 1.6249340662870475 3.548164453472444 -2.929234631946547
1103 0.80088016688293 2.1318282310299987 2.589862360133373
1391 0.599140072276005 -3.138074170247111 -0.8204351790873213
1429 -0.697389581956602 -2.414391631157552 2.34513402145029
278 -0.3699630344878233 -3.351185812270969 0.9037351182443907
275 -0.306886226657833 1.866938845170659 -2.5983423852236873
564 3.701708592235648 -1.8890636583301945 -0.365284898879021
313 2.123859506681184 0.43519418128459103 -2.14163955563142
563 -0.5643817519149253 1.8946815090127527 0.9801138790485263
566 -2.293863051960031 -2.174376467885488 0.12581965576372328
601 -1.4386845530769883 -4.663048955903711 0.5529748523969085
852 2.488415905700987 1.2491840875495213 2.4898615910950044
851 0.6597748101005656 -0.9526469033293691 1.9457694127597336
854 1.8399936254390226 0.6951868267458339 0.29519292162257926
1140 -0.3604119999836722 -2.3849471157337567 -1.3927377560954624
1139 1.7947082272105612 0.14626511350588198 -0.5350927311856238
1142 3.9278776519143364 -1.4102875942174646 1.425637626183711
889 -0.05521616060370696 -4.529780049679143 1.291854727873956
1430 4.40956259976743 6.98159784620406 -0.7424426010876938
1428 -1.214448447434269 2.994534284314624 -0.29639055744145687
1427 -3.182050955899784 -3.196876862326925 0.24188269702274376
1177 2.9676463134069526 3.37836659129476 -4.0511178266452
174 -3.5676812121371677 -1.2490106657835047 -2.352379391504758
1181 -2.075438035525892 -2.16917427438412 -1.7635295695635396
460 5.323268267641172 1.6022270233194378 4.7242935206963015
462 2.330983767531155 0.5512608726407322 -1.1093259443914707
748 2.984501856740449 2.8848070214604595 1.9620195088237125
750 -4.853664106102359 -1.104698023100979 -0.22566626281249066
1036 0.5138007403252843 1.7989823519152093 2.3028039370569537
1038 5.609381449356509 -3.732563414997605 2.0347385983764
1324 0.24120596544537354 0.7732851152304604 -2.0617474783655543
1326 0.7107497619309874 1.1509014998577274 1.4783249489722627
171 3.5058556913735113 -0.3698315373854162 -0.6891141497101352
1434 0.10721509738267741 2.253811498119262 4.622271779535981
497 -0.9826762561942892 3.943941926670024 -3.6198785920522805
459 0.39949700323191906 -1.9906818060725386 -0.4974191791295288
785 2.918671847224831 2.170877579407147 -2.9981352018846583
747 0.8208628434446986 3.00008063184017 1.6360548322907187
1073 3.3007475252131973 -1.9534725293628494 -2.345898031883224
1035 -0.6062688208161982 -0.04483208280687726 -3.4071906665926313
1323 1.1556932161358016 -2.26229853748017 0.10947285430044086
1361 1.3394769108446698 -0.05231610753611744 -5.099006678711978
210 2.711861320320472 0.4767003449206346 -3.7029686524392607
207 -0.9277004552677787 3.8808188146516738 0.2860013492028457
1431 -2.6834680125171664 2.1561663353863776 0.09903430770036084
533 -0.4713847806423998 2.251536447710928 -2.9091415889528323
496 -0.6975411949937352 -1.9840662719256084 -6.329414916733514
498 0.6941543926754249 0.5991371436185924 -3.185986701314068
495 -0.00758708519965117 -0.8026591101727759 -0.6957884143579056
784 2.097128372608188 4.660072673956887 -0.3239206850562059
786 -2.1322451009967263 1.841934186675675 1.5602582190311478
783 0.7108222987099763 2.838749284879934 -5.324241977659556
821 3.097740413524635 -0.26635664261865166 5.339073533992898
1072 3.6506697995980897 2.673609485617911 -1.0142500022908651
1074 -1.614237488923597 1.052046876517765 -3.2249881487149357
1071 -2.5662888814069227 0.5692763133508809 1.3766048659331556
1109 -0.47331032866385525 -0.6718130985249866 -5.081522459785199
1359 -1.9284371127708453 -0.6976734081188847 3.639197049617536
1360 0.6868390549361013 -2.455027687521366 -3.7033696456229266
1362 -1.2363856105981814 -1.5329232080918787 -0.8705555324332145
1397 0.7377591469006866 -4.296525278551161 -0.873704611649227
246 -2.0378577570763214 -2.4048775484347042 -1.3879073670453526
893 2.5767942437639513 2.8198465472395156 -1.2897620257641593
532 2.4811518228799314 -0.5209773424247913 2.5053913322962615
534 5.828654282652295 0.494415717690256 0.5442511584379283
820 3.125784636011802 -1.187233642850016 1.1447744611143416
822 -0.71720873869246 -2.5233425631842863 2.250820736606017
1108 0.9926774329018437 -1.1478171874332994 4.671532431207955
1110 0.3233316968995802 -0.07210301205637534 0.6583572791357626
1396 2.521598012285976 1.3279917487553068 -1.380501624487055
1398 -0.5253100046274617 -1.9439731367111526 2.163954131797854
243 0.582480488579496 -1.1980605637352082 4.157526541910981
569 1.7992507766451589 1.7573026729169057 0.984129838341581
531 -4.102205583013714 0.830670539639691 -2.823016577634494
857 1.2476222310673326 0.1986613941303714 -1.1664543795363773
819 -1.3604393710333775 -0.7869483650302941 -0.8173694400026954
1145 5.504525203446204 -5.052059126153478 -2.563179445084818
1107 -3.0140265057224105 3.4619778495973086 -1.1279226500994957
1433 -0.6282198181359638 2.145991167088684 -1.7455668907041881
1395 1.5681918832589898 2.4775587229328973 -0.29000385958611347
29 -4.197797997845878 -1.9505578580578935 -1.8315103375791706
282 0.02381642776003477 -0.714055312887247 0.7421581249747949
279 0.11072969609352361 -3.7324545050253333 2.7946068541973546
568 -1.1399040341659716 2.2613495424532566 -0.8889677720816674
317 -2.7895240243418837 -1.4609077011319078 -1.624561958149547
570 1.7637442992732875 2.5111086912957603 1.4144338175807847
567 1.4294612438219707 -2.497208809622021 -2.915351663825412
856 2.2322892240917502 0.33697834299613166 1.7851817636297018
605 -1.3192395712755125 -2.7893893306231874 -2.933085240502135
858 3.0243236103137434 1.1436868661708037 1.1118532300892447
855 -2.7445907201244313 0.7231767199149866 -0.20343246248114122
1143 -2.841003583154122 -2.2680240556409488 -1.79234776868445
168 -1.655032837178303 -1.9369828756534506 0.4086591223263444
244 1.9862007932734294 1.0438349850396058 -1.277200261404754
209 -1.505952081887467 -2.5071507869951355 -3.5066517830189685
178 -2.5174338966704353 2.6504764178719187 -0.21196731111746242
464 -0.1385065225915402 -1.8748447465883147 -3.4429277542792294
466 2.7805266966909166 -0.21475468441502857 -0.6008750172906248
752 -0.005306576490909589 -0.2468263723445774 -0.08978602070848864
754 -1.6064671492820737 1.0147416709977761 3.8805256195333175
1040 -0.686575970002948 -0.9236833334335468 -0.8491652592682171
1042 0.5736501042050399 -1.4261264418398991 1.9300757982792696
1328 1.9781043093574913 -1.6624187152103536 -4.606986322099836
1330 2.1770742116264596 0.40733956277019395 0.8051106156633632
175 2.0583060206991792 -3.4132937462513704 1.5867517905107018
1369 -0.5958170703049461 -2.7641346788555343 1.3267334806316071
501 0.8732536779467542 -5.397495997754728 -0.1524528034563876
463 0.8685323299718265 1.9602636066104493 1.0461296024793576
789 -2.4191485550239387 -0.523854324952938 -0.2325985955298133
751 -2.071182937299902 -0.3275636700680452 -1.974352559738127
1077 2.9976755574641185 2.0232662817677003 2.769582018238328
1039 2.7434818037490123 3.2506820827500773 -5.858404485693831
1327 0.5512681629248432 1.4642999399225232 3.379726285151177
1365 -0.35850595313376804 -0.9010120498383472 -3.413454847172133
214 1.0142959642114546 2.8913900211955226 -0.624903078363018
211 -0.9688428861258688 -1.8039079490540377 -0.44806113272755244
212 -3.6763238820712485 2.753922851047168 3.082119410230549
794 0.5944110917428647 -0.37334288887154676 -1.3060488544004787
500 -1.9926612527748826 0.010221923954717695 -0.9220096039567998
537 0.05177917992969469 -1.7660233742389253 0.7475214441949384
502 0.9619620703607458 -2.2492714609561406 -4.687311061272082
499 0.7044247904164984 -0.32361952984505327 -0.008902891258908037
788 0.3496792126089807 -1.471972012180652 -3.0041651391676965
790 -0.08790746426085295 4.300449951169722 -2.1680334567144897
787 -0.1423830602278138 -2.669522370348551 -0.34980315959105773
825 2.210519621110213 1.3200401362052154 3.559100652150061
1076 -2.523005390774136 0.6258136338422688 0.779369068123862
1078 3.0642220030135805 -0.1753978431150268 2.487465784128976
1075 1.489065684957157 0.2060381287955201 3.6802753273629207
1113 -1.4559880015776123 1.2591460509075618 2.9561938295487917
1364 0.4992664055277076 1.1599245659145037 -3.20123369092784
1366 3.160969848173042 -0.46469895978647097 3.1477662587605195
1363 2.521545434443261 0.2939264172437086 -0.5570137295628108
1401 2.1944417824726545 -6.162110346024981 -0.2767053070697086
250 -0.3539559950732516 -2.574131056245849 -1.9136122031008442
536 -0.26009709850065216 -0.5793485954579822 -1.2561080610447686
538 -0.8447459190251686 3.0750092414218315 1.0059481302962168
824 1.4618365569511367 -4.28133624566487 -3.8583573153049873
826 -3.091136677590712 -1.75084516051976 -1.8896779653306917
1112 1.9257215303708046 4.796773782034485 0.7463797481455169
1114 0.6355202453119261 0.29834446088885425 -0.11865195405261315
1400 1.5489643086417986 -1.9033587148550395 4.336152949039988
1402 -0.351436368489496 -2.3392247981482654 -4.9875666719830445
247 2.190490803853358 -1.0082026030900693 -2.5746297336020603
252 -1.371686073501116 3.9518722556069603 -3.963317417458296
573 -0.4959338268726556 -1.3061494110568972 1.2658452200478318
535 0.9291537421678734 -2.1167762516454647 0.8413592377674276
861 2.3118514420945715 1.8958358692892958 4.8139824099077755
823 -1.8674886556714894 -1.7812018526037132 -0.8246089441959465
1149 0.7128404597829495 -2.2160368992593145 3.7711879176991654
1111 2.110208606090434 1.909690666644091 -0.7781578229883452
1437 0.7300153669804719 0.9059515463114793 0.32871083356139486
1399 1.4423603973629129 5.188915345306391 0.6323065954285613
283 1.9144743294444366 0.2897303130229395 0.029018145053550673
286 1.13802203303638 1.5583132184453048 0.6298381811773258
288 1.0710149443837569 -3.759062385864237 7.492176048698757
572 -0.9872327548037437 -4.047312008572544 -5.120060404691799
321 -2.1248390466747975 -0.2262591836656012 -0.46669268693538835
571 -6.757120462244673 1.5605232498321044 -1.9126709702822793
574 -5.278736309216179 0.2225129777355784 0.1008298743679906
609 0.4970273013391366 -0.2586009063521932 1.324312256017056
860 1.1110057047310924 2.187067549263118 -0.5105261287614589
859 -3.247968799493411 2.974919914496425 1.9564803573518454
862 -7.704524778732075 -2.912432504519328 0.2859072862477441
897 2.540166812108154 2.1134119529171294 -2.137199895221016
1148 2.171779976969858 -0.5766914734743421 -1.356134874902419
1150 -3.1930421031944887 4.33134405403785 -3.6526202191472645
1147 4.446699016688896 0.4798657650776657 1.0078736792484295
1436 2.2049057277789634 -5.785122491174045 2.2321082798250824
1435 -0.9576625126034395 0.4947766750928616 2.604204431563218
1438 0.6808802347850352 0.5251470102987458 -3.278968365227867
1185 -6.640761936678675 -1.6371243626700063 5.5185300453404915
285 2.6432529114296837 0.30505427159066034 -2.6600866935814764
1439 -2.124475083058379 5.561188055885281 -1.32708501073703
468 -0.5548724417509586 4.159005007420349 -2.937889818672692
182 4.249900178281711 0.950490510943918 -0.33777752517588916
756 -1.8509366614880736 1.7511441897202658 -0.053471362932248856
1081 2.691940648359302 -1.3690658691121431 -0.1006156040602362
1044 -3.332856207174492 -0.3357285094407247 0.6274882100783536
1332 4.335697884002888 -0.6078272183224358 -5.342270484210351
1334 0.16812580330552182 1.304738753890446 2.008272937060336
179 4.110072838404693 3.5948089074849165 0.09077530194647718
467 -0.08595957418730316 0.8050774768583941 2.3934574942721185
1045 -3.9800310046744802 0.7438563268976067 2.036150596440663
755 -3.414440688263372 -3.1192602651522803 3.2243397521732056
1043 -2.1448618515634426 3.8183020538750165 -3.6242298065575485
1115 -0.7228607325269728 5.712771478730142 -1.805554018350804
1331 -2.5152520513544627 -0.4145786941109934 -3.6762553498768438
215 -1.8019607666317174 1.563880801454907 0.02704347225037642
1152 -1.5117178832422011 3.2995660819575807 0.7149617256670197
1440 1.5061883255761959 0.9804824830138853 2.8876004900150014
504 1.3493132615309495 2.822908265392091 1.8242658886310872
503 -0.344626616461848 -0.3147688181355825 -2.3526643758266834
213 -3.3701862640372777 -0.3577636810920788 3.116973770335832
792 2.6914048267443014 0.7814606569290228 0.7957028705615623
791 0.8957288099722853 -2.9475564000716785 1.956545829220815
1151 -2.4406974189319603 -0.13979397456550963 2.071973976048153
287 -0.365450844939588 1.0983078911368722 -0.29569823543115376
506 0.38721383220707223 -2.5160264249481257 4.89574489130736
1080 0.4796387072655511 -0.7170653331701504 -2.229449898686088
1079 -1.1536252250350771 -3.914579332788179 3.194016652575618
864 4.780182340264339 -3.58685913788551 3.381877525617271
1368 5.198984192249891 0.45693473076631774 0.5571601035285633
1367 -0.7413999088970289 4.3103488517537025 1.8085883858749863
827 0.003821687272225314 -2.675220396727394 3.0128254506842356
863 -2.4040052891580603 1.9570673443840993 -6.286161609106479
540 1.24266974927632 -2.0901091211343377 -0.6397445071547471
575 2.5666411877215305 -0.19521200859028298 1.5420847572638845
576 -2.107671490948726 2.3602311337226802 1.9911641956944832
828 -1.8623106310876731 1.0066718785472586 -0.5808328254591034
1116 1.2315706963910835 0.012495341675830652 2.177530624835231
1404 -1.0300477718227194 -0.6511601703690503 0.8993888661331265
251 -4.016323067521329 -2.531961347191624 1.884270580177059
1403 0.24631766035744956 -2.869355116933145 -0.8075881375088395
539 0.0018677700584596982 2.9791084043801823 -1.1532899673278334
284 -1.1699969546986069 1.9150844859073222 1.1544765187889836
793 1.653052940969844 0.4200363374719919 0.26876215187397456
1405 5.280041813768472 -2.51769155562491 0.2602041674118076
253 -2.0246304904148866 -1.3432139103697895 2.5680041153314432
829 -0.858906145079861 1.383707552880428 1.4154448478762907
1046 -0.7594627294296126 -1.0742448750746538 3.546331810511308
541 2.795294185262781 -0.846308173336627 0.4613595678992425
254 1.5523034864262155 -1.1566837702991617 -2.67392293082099
505 0.2788894512920822 -1.3081835381005409 -1.4275738584294269
865 3.539572306699958 -0.7375204028288558 3.346159143266628
218 -1.6145108730675417 0.7442010781866988 -0.6845383302946062
1118 -0.363900586204347 0.631115375421044 -2.365722060665519
1153 -4.093746066579029 3.041053459562103 -1.2430196743769173
1333 -0.992876354667841 0.08000840139815034 0.325569469896245
1370 -1.9664069433448075 0.5179412219875158 -2.598792881200506
1298 2.7587442551656056 -2.803845273785138 -0.9858023619963614
1010 3.094128126955721 -4.680594954864987 2.1996967836440993
1444 -1.027508155081173 2.0575526721406656 2.9166517020372837
1732 1.2685817114734415 3.2592107325569004 -3.8720791472657687
2020 3.8179970409536796 -3.9397266760780116 -4.32215785839816
2419 2.7574669402373564 -1.6029530081812378 0.6503428659460251
2308 1.0161033451857526 -0.12222123072074666 1.5841336577466953
2053 -6.547095777111691 -1.983630765843467 1.9266100858881754
2596 -4.272371261871751 -1.3676493045569047 3.2899228414933135
1443 -2.369074914922333 0.34373074632369166 -0.7412209675725848
2054 -4.717776182802007 1.3097668588239737 -0.33025745889653224
1731 0.9736626121983423 2.9311933587265004 -2.8244860223714103
2341 -2.8344086698280826 -2.7705037956354954 -3.690177551174807
2125 -1.1251511205981084 -1.493172044052844 1.574738041545984
2019 -3.6068306107137285 -5.770741047091999 0.4829540152522503
2307 0.4349385631989443 -0.6369906756601869 -0.5829705397621219
1480 2.701821199276492 -1.009839061169928 3.1287854562134667
1479 -0.4006747574705718 -0.6361371098519358 -0.9505711174574123
2018 -1.6544966907811078 2.642343064300107 -1.1217888321123954
1768 0.19065191126538675 0.5059968052974059 1.9373532131668567
1767 2.1940065275049925 -2.4867858265961016 -2.713400046375859
2741 4.17155491690426 -1.8677000991766184 -0.29225300774620555
2056 -3.2692318105420575 0.46468346763522395 0.4510721928592982
2055 0.059329740562764376 0.7585267011975038 -0.6994301135503126
2344 0.5624366534250073 -2.294783751537351 -0.03184349820725677
1514 1.3270848578526098 3.339871289945948 1.3060522787626407
1766 0.8965730372669523 -0.0503645094392466 3.198148557904643
1477 -0.3791218326711048 -1.6024306004704236 -0.38314605982824856
2632 1.896825099418382 -2.0992800160261686 -1.8865949747039332
2343 0.807198759320922 1.4540500303734256 1.0168986371503794
2418 -0.14697778324993183 -1.0354076709787476 5.18967108117884
1516 -0.6132235222783798 -0.12889614137983094 0.7033179341756418
1804 1.6779689069562147 -1.264060874281237 -0.26631869413464576
2092 -2.0136662582774103 -3.0000394301660727 -0.3489747022990195
2380 4.6152370460805985 3.772542144895674 -0.36850331090301913
2668 2.4692395027372642 -3.450804721016835 1.9381396914567988
2130 -1.0557594872637166 0.31980112923957804 -2.1707963971733615
1515 3.2656857318893144 -1.8349124811202762 -0.26244581087598473
1803 3.523580906602711 1.2000025606375173 0.16923172537507666
2091 2.2323508777178436 0.9090003622630562 0.9392188613683281
2379 -1.595103292717122 0.29728854131589666 -4.364700107022235
2453 -3.1260438145069736 3.653087189019877 2.12085372255666
1552 -0.010609553099153918 3.9364924572192947 -1.822522698699559
1551 -1.6210616944321037 0.4805747778559952 -2.984365766500892
2165 1.3199678066731648 -2.642545915900321 -0.7876471376531577
1840 0.6164077041321051 -0.3308868618948989 -0.5130240591883258
1839 1.7357378065569136 -2.1177790050306062 -0.1443407228224673
2420 1.7596810801266176 0.44379735905723144 -0.41969063982910515
2131 -0.647097647793853 3.57503658821066 -1.5098548263591811
2128 -1.0067678543715672 -1.306366105562384 -2.4542719622434763
2708 -0.3961744504841212 1.6337441584293575 -0.8975349523163464
2127 -1.7538717812491411 0.9089032057660855 3.517947001548446
2416 -2.6643429915779544 0.22729177655547275 -1.4443673224300269
2415 1.1361384336665943 3.7507193051298784 2.7058373507846243
2704 2.651092569835167 1.641278675732154 -1.0617230235061412
1448 3.5343811571102157 -0.8655418408071746 1.5201503372930303
1446 -2.635263412804614 0.27562565148430773 -0.48936475219157494
1736 -3.303002630001987 -0.6928088876553857 1.913873576794181
1734 0.05579933699131558 -0.6346141715795925 -0.13721892188358198
2024 3.2995325257393042 -0.3926336219495679 -0.5100643994786866
2022 -0.8866230700764851 4.3041492921298525 -4.070934799135434
2312 -2.7456191269110213 -1.5676535937925955 1.814445589507232
2310 0.6772160626040516 -1.6176850225364379 -3.0796253290499362
2600 0.672277050904316 -1.4262249879322169 1.0614706982755722
1447 -1.1963001959799033 -2.85706164823541 -2.947667607913712
1481 -0.8610004599286335 3.6198793043029984 -0.642311000733878
1769 0.4966698426270446 -0.28559472090236404 1.5474004503782053
1735 1.9133671478083878 2.0655548963988877 0.6557844385612714
2057 -4.698176775936913 -4.763456199552828 0.4755529002554709
2023 2.5664474278914438 4.103710308124898 2.3008180514222625
2345 1.6877665213580306 1.3728781393335996 -0.6414674813503785
2311 -4.656230132167261 -2.620620177244647 -1.020582512891029
2633 -1.9260334204914988 2.101008575455365 2.381501115904491
1484 2.574684448264551 2.163261456348689 4.085824062384569
1517 5.073228706396377 -3.406145859291881 -0.16116478612518811
1482 0.09876592499193992 1.1222967143947984 -5.211218435664728
1483 -1.7545228905328403 2.67705265478691 3.7385178008843933
1772 -1.4108368529242348 -1.6762427262794106 -0.4613602054692514
1805 -2.24285872461782 -1.5757968200267185 1.4281797929375029
1771 2.3032712508524913 -1.7699510108988004 -0.4835582286567971
1770 2.147305073047225 -0.6654293899170279 2.8498053449391616
2060 1.335554086401907 -1.6697024761851378 2.3750044323363073
2093 -2.4404549076420037 0.4412074687937114 -1.2689579933048576
2059 -6.443086020038194 -1.1566458492743246 7.547565709246655
2058 -3.345634699136465 1.2145461027059035 -0.9253381711400068
2348 -1.329781414696497 3.18362042628381 0.5740912840478223
2381 -0.7279926026253417 1.4259186242340676 -0.47063337023639396
2636 3.96537545345111 -0.24608741096994616 -4.791491582258427
2346 4.006565354184206 -2.1697388828380677 -0.5727593478844322
2347 5.478519793600742 2.4329897366959368 -3.9500486210186847
2669 3.9690428466703462 2.65112733016219 -4.474764114267612
1518 1.2395571808044246 4.94959782571964 -0.10654377970369154
1520 -4.609656947877798 0.5756279739772052 -0.6790656624784324
1808 -1.198581593895128 1.2129908929675115 -0.967247133600965
1806 -3.6296406969454114 1.4596645353647943 -1.6856756931722292
2096 0.021734267705023767 -0.7853079965904811 -1.3838972630701447
2094 -1.2987152272752118 -0.37101240482762393 3.7378235871199887
2384 -2.2680210214808265 0.6139236455340463 -1.2990084355031108
2382 0.9387876969495769 -0.9347679984414327 0.7452915641201293
2672 -0.2557937370399362 -1.4855125876090902 1.7538065154577547
1553 -1.47816758588417 1.230334622194103 3.1162391246739864
1519 -0.901805568756993 0.3146397884254339 2.5887219155245105
1841 -2.460599274323461 3.378919968087782 1.0327201989872545
1807 1.5831841400105475 -0.5745752055049663 0.48436894403499264
2129 -1.3891193510728383 -2.96953219630407 -2.6816870206573373
2095 -1.8379510857445094 2.0475468859437633 -0.28353626365468815
2417 1.9798081434814632 1.5965206169375592 4.538516141904931
2383 -0.5526642091678047 1.1479302809381275 -0.09879089602815767
2705 -1.6113796871793036 -2.5623712169392228 -1.0473984470367255
1556 -2.650311716038061 -0.5332164986688307 1.41420368744709
1589 1.9383259365993815 0.41735823351903845 -2.31888252875551
1555 4.689486707991372 2.5727379600173292 1.8536302777464169
1554 -0.4293015518993645 1.0814497127961809 1.1329915505495156
1877 2.68573315141229 -1.5655145641032517 -4.326658861916473
1843 2.252053276541752 -2.3415907738688952 -7.03143544250022
1842 -1.069364966147222 -1.9402199312437873 -2.3542612223966075
1844 -3.103171549369421 0.38634172421270135 1.059605608411666
2132 2.116817223737934 -1.2976147152451207 2.5888728322919454
1838 -0.9401610689410346 4.611072477789256 -2.36486277563513
2377 6.221015804125472 -3.0961840751168928 -1.4521691523931166
1802 -0.9193542098695261 -3.7037496381569293 2.0100195966165106
1765 -2.4890192272467186 1.6074096936908544 -3.6639833703853064
2090 3.7749019041912475 -1.9832063231289034 -2.189246758199734
2126 -1.9676877463384113 -0.27650692458762033 0.6802605089097811
1549 6.463771653155949 0.8509836455701674 -4.050159293611183
2089 -3.7287927862631243 -0.7840073966748125 2.8804216148331627
2701 2.058894488965239 2.2601081712102395 -0.4270389690691673
1478 3.5117211553495005 -2.8519460107265635 1.354678792976613
1513 -0.4540097924355475 2.5233543488713543 2.3767284589044007
1585 1.410133275851444 -5.553774334190058 5.866640871490671
2665 -3.2584546363347275 -2.2452751362878485 5.421118983044164
2342 -1.896961987082756 0.963999206085183 2.348232020934539
1452 1.6161494460340378 0.9927233740254621 4.456585022868784
1450 -2.6923749778229684 0.20794239413241752 5.391993209987056
1740 -1.5679392322336965 0.5698059450748997 -0.6144783641404141
1738 0.6558013304394203 -2.9218374986257962 1.6171445010948495
2028 1.261157007995614 -0.06525070236895243 -3.917803801432212
2026 3.5679896731875878 -0.945682608393508 0.3311759836255437
2316 -1.0554636314117034 1.4396844399261515 0.38578870879927785
2314 2.315078537552966 -3.599129459425736 1.2342857941450305
2604 -0.6607705311120524 -1.8060527151190562 -3.1452708118533788
1451 4.809876862899221 -2.33359324806341 1.3693913795592834
1485 -1.353090821569576 -0.7026924565252239 -2.2985599371926866
1773 -1.3761686758596545 0.0058256499726098195 -3.479776641480973
1739 -0.6947584628395159 0.6449015156010025 3.079295558459743
2061 -1.5341514823171856 -0.4099582053136095 3.3742168376697803
2027 4.773192532271758 -1.294522227696944 0.632503684193058
2349 0.21059770425254298 -1.2820595005963598 -1.0821907619440694
2315 5.710882514091523 -0.6016772487219758 -1.267845069686562
2637 2.088181373621753 2.196019171161959 4.042609377243042
1488 0.7814199938181766 -2.1718510520600183 -1.1136072068094747
1486 0.7983114482182299 -2.7818663784087745 3.528847627913466
1487 -1.5442234639665398 -4.740733514898328 -0.9559745634313467
1521 -0.7855607984128007 -1.8879657912678283 2.8179640786838185
1776 -0.1456530218893218 -0.830862529350899 -0.11516260106868777
1809 0.6014273395477314 -2.3352382446431856 -4.515420194551099
1774 -0.16742796155906003 -1.9138295517979411 0.42232696912244466
1775 -2.7808557080420124 -1.460235223978618 1.2030762844433587
2064 0.1101681986119521 -2.9038138924415535 1.4386988194221306
2097 1.1286973514628982 -1.7652398835072984 4.329136302998105
2063 4.720452251731344 0.21041864598215573 -1.059314488139059
2062 -0.13587754333268787 1.137406018959252 0.8453062069591853
2352 -1.3027527355327992 -0.8121463669350562 3.730236695293203
2385 0.11398184050903332 -2.0474726569276562 -3.4339979344028766
2640 2.280595094099337 -0.7321514247084535 -1.2620767696519433
2350 -0.18965264880098578 -0.49458427468408267 -2.0856309500112116
2351 6.053929080478003 -0.7068774543076353 -2.678715607533496
2673 -1.744461972995437 -0.3672503218343199 -0.473695550145663
1522 -1.1503030693498342 0.21106739192895382 -0.4912939440718074
1524 4.463532003253039 3.3677116372957316 -2.3277265382090695
1812 -1.147084505402627 -1.1274437414118559 4.386055727027676
1810 0.32981875476915823 0.15507017279246693 -0.44429452222400245
2100 0.7519908685024685 2.0485484291796667 -0.9000016334952098
2098 2.30272276904605 -0.8268696889054961 -2.833693890875097
2388 0.942518486929375 0.6030609075555972 -0.5519593583853302
2386 -4.943409163167975 -0.8653863017678161 -2.192930279481824
2676 -1.0009805943118575 0.5072470654159424 -3.7882669528030104
1523 1.4204998688985306 3.764436592576934 2.6822551469209013
1557 0.23448739504827762 2.3485549782098616 2.0662660528794317
1845 -1.0110650307019455 1.3535043848218469 -0.16890114417164714
1811 -0.2968819677419748 -3.044962382983025 -2.470981190705257
2133 1.0676097277825012 -1.1817139610814427 0.4977641284752155
2099 -0.3224784311215218 2.9966995421099054 0.31331555995647886
2421 1.4789100036047227 1.4690133249204897 0.19658936853579675
2387 0.28852449997042956 0.748070298152951 2.3241339261453478
2709 2.498762321262568 -0.0680574508749953 0.01013318167547564
1560 0.8671173669254465 -0.685765173547381 1.247071097100863
1558 -4.217852605761602 -3.7176656745888073 -2.7568123333563634
1593 -3.08576961694235 -2.1090341848630794 0.9549319271331804
1559 -1.719998348263369 -3.4707630859094296 -0.15135221102091992
1848 3.996171236836694 3.626031004526567 -1.4771421115913992
1881 -3.8825921676992494 5.904165165430504 -0.6405681664932276
1846 -1.9425350522458997 -2.2417846732404114 2.6382843469278545
1847 -0.5511286914749667 -1.9164115574894032 2.3017026955845985
2136 1.545461305381778 -3.5762232575086093 -0.18369790561830304
2169 0.2492538810186393 3.6841968602780573 4.151839779195489
2135 2.6231779017791994 -1.845943267859736 4.193721161563331
2134 -1.1340646639624228 -2.215404250058578 2.5734308997351483
2424 -1.1331489720991619 2.5338234012704253 1.4279149240911553
2457 -3.1278800124595616 -2.7737327419719175 -2.9814792594648254
2423 -4.066282537137417 2.3268729365979017 -0.005569576059962725
2422 1.8431976878400456 -0.32182795216895566 -0.6415200567892549
2712 1.8566763382882734 0.21682086746680512 3.3551442371435027
2745 -0.2417221827352431 -5.156775744826657 1.761783065669187
1456 2.654739661304424 2.3935868552032336 1.1247618820758543
1454 3.3844961554638093 -1.899586673056224 10.320139244652966
1744 0.5729758204365352 5.479226462959489 2.0188647675338602
1742 -1.810536881715602 -1.9714375325804208 0.32653268952889036
2032 -2.722509306631801 0.5126577267549327 0.37299938653472503
2030 -0.2980993327406521 -3.1335353654731977 -1.9825314637748928
2320 0.9817722932679079 -0.7094906619895505 -2.0444376189341824
2318 2.302271453894805 -2.5316717999273615 0.5149163400218184
2608 -2.1605559520208306 -1.8714332793995712 0.193014734690345
1455 -1.596712947753937 -1.2884987503151843 0.745496371380558
1489 0.3417622646170389 -3.7651111822812355 -0.9231743075612358
1777 1.4593259943445227 -1.272240338763707 2.8413018675474535
1743 -3.7399224716185895 -0.5897038260418851 0.2097657867289447
2065 -1.0733649310182314 -1.7065090663262938 -1.4132002367309178
2031 -0.3947659549900067 -3.5886103370954268 1.4631042272933064
2353 0.8289802592376289 -3.4050574559884947 -4.173220096131705
2319 0.7817212276060435 -0.1730242823125487 -4.470148218126433
2641 -2.719012899050104 0.4138551209812598 3.5201843542763243
1492 0.7274174468045357 -1.4430046570434925 -3.8997410671367856
1490 -1.7793968577309216 1.4567342826888876 -1.799257433395897
1491 -2.354937923969851 2.783480190284131 3.8951816576134823
1525 1.134429373593072 -3.9925198512533533 0.8340261547373958
1780 1.868627231289252 2.3357328313931554 2.0394405786617322
1813 -0.29774617889952326 0.43324181716274535 0.02908205269157183
1779 -5.096467852693475 2.769205050574005 4.768208149762334
1778 3.002645614429823 -0.22588730720205627 -2.69342276255344
2068 -2.7431811092870584 -0.743373614632154 4.24163674099153
2101 -2.986450860707037 1.1907052819749353 5.261423342696208
2066 1.5035413393420651 0.7488025010332591 -3.5642633124639977
2067 0.12756110201936133 1.829182103768553 0.33457472553922424
2356 0.5353873260026969 -1.8744366460217172 0.3799357079241624
2389 1.7050156297215175 -0.5219313079528795 2.2368897878078777
2644 5.829668976606296 -1.434137591269252 -1.9645868058367393
2354 -2.3910470861419006 -0.048257778884325225 -1.3891643389686223
2355 4.502549604585952 3.2542889892966986 0.5045829190013957
2677 0.20860428392266975 -1.1537722649016717 1.797345879072332
1526 1.8729530534598096 0.6137701231206503 1.1144592471859225
1528 -0.7443197340325813 -3.648453364213046 -0.307082672080221
1816 -1.8910734469383608 0.14266120604279486 0.3490418886583508
1814 0.9837575599950074 3.2781065454801492 1.9038259585498438
2104 1.178263986912727 1.4504438944596936 1.9274011681913217
2102 0.7777358888548751 0.21894042382070866 -1.0625190373502111
2392 -2.668572260564937 3.0928411486447955 4.239242638820851
2390 0.9333333417247617 -1.057176874532839 3.298428662225773
2680 3.2250765835974096 -1.4114787135497167 3.3286726516930902
1561 2.5224536492534964 -0.8198794383770295 -1.376922473126606
1527 -2.300621028349227 2.193252973829843 0.3387604352176679
1849 -1.2277355590534391 -0.04931511062122051 -2.6114972903881926
1815 1.2980721497941499 -1.7828576940369056 1.2998270566438979
2137 -2.2589724474395547 2.216884981964452 0.9522101286160345
2103 -1.9096049087844027 2.323113313816092 -0.46849031583582756
2425 2.9780536021288264 3.339946734864163 0.8434733056006684
2428 -5.742954498366694 -3.0780875085581156 1.7695851915804892
2391 -2.6554421993136206 -1.8874480418952038 4.254689566865771
2713 1.6006183835815497 0.7114428300410243 4.896793179856208
1564 -2.469005624712454 0.5890877286822522 -0.2682538327108207
1563 5.384839515708675 1.6268722498731902 2.567575333792448
1562 0.5143411243441007 -0.3900679675924484 4.2749496003472025
1597 -2.0757746534714965 -0.9431750049997232 2.6506190299920647
1852 -0.11517247276627506 1.022849130362751 0.2541099548359408
2427 1.7900728514662376 -1.1897121357420402 -2.3220157704416033
1851 0.033208514349630895 -3.6932074231699694 3.544067039504346
1850 -0.2418057850343628 -3.760358704501811 3.055191139253943
2140 1.951626128679729 -5.235580383723416 -1.726212011664726
2173 2.1207102903004 0.4083406713383357 -0.002963375903007412
2139 0.038309177361121945 -1.6915660264038639 -0.5969354219893432
2138 3.2676628381652932 1.6530075839412233 -1.355555324673037
2461 -1.0906355376425132 -2.23275040530993 -1.6830817745544588
2426 0.8096924052779721 -1.2305916316748082 0.9486110127274467
2749 2.2322685784984926 -0.3642101722164116 -3.603819709192397
2716 -0.9750348617028893 4.612930859956473 4.136401638089877
1885 -0.22885278263336847 -1.479173324540109 -3.096836891108228
1458 -1.1183612799851192 -3.1012227983812948 -0.13999108905123864
1460 1.0213516962464646 4.194937138073656 3.5306216721540844
1746 0.6435550812000898 1.3696344974793353 -4.954494622387843
2034 -0.9275508443732262 5.8342472156787 -0.6456773394882813
2324 -4.004866344996131 -1.7746720509885678 1.5450097267810736
2322 -5.855712491300514 4.782656994726498 0.41599308962861425
2612 -0.6077879693318001 -2.70483111888269 1.1996697992596033
1493 1.1914041866025198 3.991018313635473 -4.348288637991018
1459 -0.7712276025526977 -2.1959904694336108 2.8907256177095517
1781 -0.5650621918234208 -1.1903085693335356 -1.9209083310855648
2069 -1.4325079368124296 -2.8188219355962376 -2.387217481441731
2357 -3.5038081140570116 -2.986202922433533 1.4446677203721727
2035 2.9163460120355467 -1.235815153477062 -2.741595579830687
2645 -0.20038684190912162 0.9985857886920828 -3.453960128530693
2323 3.6651402451265507 -2.2577199625328803 4.492591468412708
1494 1.5096461966386228 2.917683026167772 -1.7190461291205328
1529 1.2032974618810517 -2.4033676565753006 -2.600467211028547
1817 -0.5201240372075824 1.055426529174396 2.4106418128472096
1782 2.055738592700713 0.5222798525974364 2.8562523768951547
2105 1.9447488625304383 1.7003150189137772 0.3338333376831758
2071 3.4392634337655097 0.27960175870295034 -2.084785489828135
2070 0.9779348843486965 2.8368359329004282 0.3846096653503885
2393 1.9211630368359771 -0.8138623676944362 -2.3126900281733955
2358 -0.2826422730313062 4.741235518897007 0.609813589111263
2681 0.08918922205759255 -4.880073240147806 -0.4116186069724783
2648 1.6394284854031538 0.805898788262481 -3.075632386208465
2359 1.9365291315244 3.444016916415907 0.03743722401440682
1530 -4.438176310226864 -0.2937071460399015 -1.3076469182851211
1532 5.038835912828144 -1.534655233421941 -3.227782332390893
1818 2.389759183893687 2.1341749372817316 -0.09968117155625211
2106 -1.9096361938272217 -0.0076313109894822415 1.216264996470892
2396 -1.641523422541718 2.313129491710788 0.3870896639998274
2394 4.041612894428536 1.0098260965176513 -3.090037019821535
2684 -3.0841440784643455 -1.1563041562659324 3.24889294436955
1565 -0.16723760861838216 -2.002194520345566 4.016626564424769
1531 1.2343251265888167 -0.6792479753814775 -1.8447629237915275
1853 1.6477046009303755 1.4152627384325964 -4.183556596873439
2141 0.16081347452941477 -4.151038360550958 -0.4925442389452767
2429 -0.13460567967202441 2.415828339167845 -2.779700857457096
2107 -1.217023645407081 0.6205011771046298 -1.5453191751746906
2717 0.8430119077434394 -3.0579320349223726 2.745913121784926
2395 -0.37142308068995117 -2.416914790869525 -4.7004052886817576
1566 -3.7358306638312277 -2.0217149242580263 -0.4978600091596889
1601 0.7027955674331869 0.5191701328801993 1.6705793112221492
1567 -4.89931810080848 -0.9145088059789007 2.070632684840728
1568 -1.6881574183538433 1.5545998187175811 -3.93998823581989
1889 1.2247321390373134 -5.516231702132945 -0.06630019087113642
1854 2.4214245579399316 2.636576515490825 -0.07688199923492844
1855 0.42791215618092343 -0.1836782252515945 2.367213192926393
2177 1.08462481825223 0.5487141979336049 -2.1166759033499924
2142 -0.25457183335481876 0.9530617145914809 -0.015059323171029138
2143 2.755141475326076 -0.7115287629805532 2.46095532599968
2465 -2.278629990345626 2.2348481469687673 1.8608156854344198
2432 -0.16040491360337839 0.07860714246397923 -1.9258037540439725
2430 -0.7432367779056217 -2.9646385200572287 5.684205813335703
2753 -0.09615265193930174 2.082635834035826 0.7471007024804397
2431 3.196113110001807 0.5575489844564779 2.003614265345467
2720 4.0046014524790445 -0.2173232815305715 -1.4336166964615293
1462 0.8848477163090342 1.042600057977947 0.9491868934997602
1748 -0.26079062103499134 -0.174047241350514 4.1761132929903
1750 -1.7715457697161194 2.057544927834011 3.353393603663942
2036 -0.33621113478820575 -0.13668173393094393 -0.907903097027553
2038 3.7473164704362283 0.14434299915589907 0.4616821443110357
2326 5.9096530810617045 3.8495821426966232 0.7178176793800047
1497 -1.6817927785822555 -0.0121340072576498 -1.4752686974592004
1785 -1.3238559001806256 2.399133360008774 1.193746800788118
1747 4.013743510005917 1.9610721866258256 -4.939595799229868
2073 -3.0440287071650447 1.5381124352897262 -2.2475553469745178
2361 5.140816040127016 -1.8492649783472992 0.3080985386624527
2649 -0.0015404349399679058 -0.6615347856710991 0.21117286343249525
1496 0.26782875522733784 -0.7854051635284469 0.968216907989728
1495 -0.6302045923642181 0.9645962769428962 -0.046224564572650576
1498 -0.7880270206110359 -2.687892078954567 -0.6000913545357858
1533 -0.38720165049263955 0.76310573195868 1.199962802072554
1783 4.80268936503233 -1.501343528930591 -3.635650451772418
1784 -0.19133331712507892 -0.6606954313728335 2.2644885520211826
1821 1.92670638544678 4.3008708202384875 -0.828676270381614
1786 -2.5335115722819106 -1.910733080044703 0.44067253569147957
2072 0.5663173653223986 -1.7745927952765943 -5.465715708345861
2109 2.9306011924884023 -0.6159143489960464 2.7149631475980374
2360 3.322393953666152 -0.8960155175147059 0.8723395053607242
2074 1.9544905963828392 6.081760408596666 -1.0875524882951757
2397 -3.4945115088657 -3.872028423265724 -0.7332745184149123
2362 -4.625912178803626 -0.5490970422450193 0.08285355612003313
2685 2.638413003146514 -0.5215693709137473 3.589855909606438
1534 -0.11648849086483778 -1.0829708873224624 -3.886444524252545
1820 -2.663179802474121 -0.15965953707311897 3.496550093236766
1822 1.221778745435597 -2.652648861395398 -1.832162116565804
2108 -4.30438903393043 -4.402587953596511 -1.3951805638418342
2110 1.1760274346253596 2.238146031839245 0.4991498986713778
2398 0.6008739947531421 -1.8662699077116716 1.507219928672628
1569 -0.829657204728121 2.1946649488277226 2.793290575002851
1819 -0.14092681859266323 -0.05460866292552692 -2.4357766699325025
1857 0.18847685332105862 0.7752951081174972 0.043590798265927634
2145 -0.23830488100480607 -3.0521725262305393 -2.509643329022811
2433 3.5826315870627345 0.40930118707550656 3.496202119770161
2721 2.5885436217300204 0.8865634300461124 -1.685612275590523
1605 2.27898592103584 -0.09728946369114651 -4.851734772359937
1570 0.31031125080860855 -2.101414308778935 0.07045604285521902
1856 -0.6822542802484016 -1.2352979195238907 0.3325328445542346
1893 1.7629618457959106 1.1409431323166028 1.145042128508959
1858 2.3515167099029184 2.0774695866486037 -2.5497536398678062
2144 0.8820582575565806 -0.25167142663668385 3.014963764963084
2181 1.0491221780785132 1.7560766559260417 4.845427959176431
2146 4.067100221809402 -2.8096464470025095 -3.7480926565983124
2469 1.9926924518461924 5.036435579684149 0.1709818490102297
2757 2.3321333833735216 0.26006272490398025 0.27520517602558947
2434 3.522674164053539 -0.009391664071091469 -2.01643658017691
1464 1.994769387798564 -0.3021321918583134 -3.8982564822955372
1466 3.248640444552311 1.8761976937653182 0.10587035815674443
1752 1.418711111049299 -3.4561531094646343 3.1849760282814144
1754 -5.359632946125172 -1.715835674889701 -0.88955056609188
2040 2.4886062010582877 2.150259357180181 3.869348369167531
2042 2.2619604707587264 0.6960770391989396 -3.3592449589455757
2328 2.6365874101064786 3.026853154814869 -0.5608117833627988
2330 1.1940150501843345 -1.6759720257307835 -0.9593101947275506
2616 2.5726411402266547 0.38638524100786925 -3.7299149476105207
1463 -1.5141068145300822 -0.6798053412424656 -0.5688509308027937
1501 0.10988372579702678 0.646292531677523 -0.3176963635045653
1789 3.247135320469271 0.6840662373771668 0.9491469257526676
1751 2.264657739590987 1.5603060820841832 0.7059718054219739
2077 1.3667274639212252 4.879342523483214 1.5138724240287011
2039 1.3619382531959374 -3.1839032414546593 0.9395766027524395
2365 1.637666802714637 2.4812112016875862 1.3382547283329145
2327 0.8039692230031076 -1.8710925506972935 0.060582839843091006
2653 -4.502172444636804 -1.4412973727469973 0.034833834219911104
1500 -4.064500112516462 -1.279719980817955 -0.43738562860271446
1502 1.4799846689074705 -1.1627793851243995 -4.633483144932075
1499 0.44677579738555817 -0.2879359534206961 1.7988086224320732
1537 -0.20760023857549903 0.6596835721537905 2.3413051838746974
1788 1.081432788892187 -2.550504987275518 1.4489829078545342
1825 5.74929396643365 -1.7539856033253414 -1.239089555481433
1787 -1.1703522901942227 1.6699817911336645 0.8951331712601797
1790 -3.4766627393424465 -1.840560399097174 0.555854351383586
2076 -1.2138379749276158 -1.522616034388144 1.8537161410405736
2113 3.5350229150834998 -1.9489334527756192 0.40666091356685985
2075 -0.14985130459695845 -2.534811087489315 1.3228271522189514
2078 1.0671150832395757 -4.633283671543566 -2.5717174350406014
2364 0.12074214076153994 -0.5505809302488976 2.469746020281867
2401 -1.3333380432701785 0.4742937898712679 -3.8391507851621975
2652 0.7362730373782361 -0.07993059537612628 1.281581093085049
2366 1.861779348341059 -2.9350808128572905 2.7866871260458845
2363 -0.5562231998519049 -2.950053291121465 1.1201552105436514
2689 -3.4867109948328943 -4.833148325621267 0.899684003259836
1536 3.592788270529363 0.004873705382282046 -1.2419302134049652
1538 3.2352112637193864 3.9249085889207542 1.594049295242145
1824 -1.1630229828626124 -3.013551464536508 0.023485057602720762
1826 0.9437524365582083 0.8923947356701678 0.9494334279205974
2112 2.775959150173541 -2.7789057573474927 -0.03938139861887052
2114 -1.3390367604970261 -0.9113686229550576 -4.167376369098839
2400 -1.7435016155165899 -2.9701681850562274 1.642331394166994
2688 1.832387339018434 -0.7944584016627156 -1.2257048920502065
2402 -2.0420356208836914 4.944469146912186 -1.36399326139222
1535 1.8986900602673888 -0.722785873580471 2.0318706462237106
1573 0.9500958977997837 -0.7062416207872554 1.106041017031105
1861 -0.2662672301069184 -1.0508979226670654 1.0857710359355883
1823 -1.0857407957853562 -2.4581876248842827 0.7110812536762491
2149 0.2052429781101913 -2.1253532116598826 0.920448750396248
2111 -0.8233742706011652 -0.6038578439579563 1.0994059027334337
2437 -3.4300296713006957 3.5576469268902713 -3.344244117738877
2399 3.0548285438026803 2.8796884124721114 0.21685480015356493
2725 4.127674210234243 2.5630454120133352 4.89741080918685
1572 -5.607342862462888 0.751308214690948 -3.1149225700919048
1571 2.0087452582415755 -2.529358687819501 2.1983339020505306
1574 2.0434338013121796 -2.235981916661624 3.566999904889617
1609 1.7564000285402737 -5.2660733569540055 0.503381112198877
1860 -0.7869038763851336 2.280715980360775 3.4836631812382355
1897 -2.355346019586073 1.8983322111620164 5.853845076777898
1862 -0.08269044354263676 1.5939764292056777 1.0503584248556177
1859 -2.1167290929475984 -1.4499248487979413 -0.5452285977325161
2148 -1.7692574254677276 -1.0094334822565423 1.7571367777357534
2185 2.97675862911697 2.5386295206973593 2.444951858203667
2150 1.2873944713387178 2.7310808176474572 4.325788874930635
2147 0.6034930775390741 1.823276354851356 -3.006312718065956
2436 -0.8769593360859845 -1.5066724047627658 -2.0158908772701403
2473 3.344541860081882 0.7662540365560225 2.281280895257816
2435 -1.6809819008261475 0.5572289290585349 -0.18595528870778705
2724 1.564151652818889 -1.5277538942598683 -3.337947274758106
2438 1.0943622775199227 -1.4289013148022789 -2.0268519162290373
2761 1.6163329614332969 1.0908567712227217 4.266904005496774
1468 0.37230248287954315 -2.462702722565088 1.0579498602005029
1470 2.477277361227669 1.3946834197935227 -0.2483352459559761
1756 -0.9728363138590378 -1.0125888088307278 0.9674642719738489
1758 -0.20274095212479634 3.3090931338405425 -4.1354796290549265
2044 -2.9464605127555434 0.04785463518548626 1.5273952553623136
2046 -0.4067454190961228 -1.574295915374841 -3.188972153168289
2332 8.036402551818446 -0.06401302771625682 0.9589564328914738
2334 4.196967124261061 2.8205841371087854 -0.7203860276380403
2620 -0.6660943361573728 -0.7111298205142889 1.3782871410560669
1467 -0.3396991264445013 -5.541557653224247 4.196182713234283
1505 -0.3958526151395857 0.12545122126816002 2.2898121924439225
1793 -0.04582927437437579 2.3808708847081443 1.2974839930536182
1755 -0.5732673769960565 -2.5346645043712326 -1.865846412372331
2081 1.252594607406335 -3.0244185302900317 -2.741580404615216
2043 -0.11784228038657171 -1.8488210580589541 -0.2647247328134474
2369 -1.4077714243629347 0.8629802570135935 -0.42193032336744013
2331 -0.5708679292083055 1.2841194985885354 0.15738458569320415
2657 -0.583469940657363 -0.45454810818039265 1.333821304133039
1504 -2.199282204508447 3.4148284710448302 1.186392644529843
1506 0.8839256772326289 3.768193810057303 -0.36537135689190114
1503 1.0781065485931114 -0.8440360678046533 1.4422015266136308
1541 -2.3985100035993203 3.862210765651733 3.7410392513874746
1792 2.2622815600938972 -1.5290328289261885 2.3045455964926727
1829 2.127996527449002 -1.8538927489160717 0.10435448921070668
1794 -0.34273889834103427 6.692852999192166 4.440556024812434
1791 -5.271867069344959 -0.7878671669010925 2.232760499594979
2080 0.94798147368161 -1.6265982049385228 -2.8872003373672173
2117 2.339679351862606 2.1481771264761553 2.662453655448449
2079 0.5980141140115677 4.18987601167632 -1.4066793158954212
2082 2.117815438326375 2.5565191730509986 2.8864178537700482
2368 -0.32541363419994046 -0.12557219595828809 -1.2856553596806084
2405 1.2119757858736686 -0.39646526339890736 -1.7931681885792234
2656 -2.9144830122720555 -2.608169240527276 -0.7419955796392829
2370 0.8879169713050792 1.8996550914218644 1.9019670151652408
2367 -1.1216137748827804 -4.187725211699769 -0.9312103329569275
2693 3.9837676969879476 -1.4835980356199525 -0.11449580085576729
1540 -1.0492090405488863 -1.5322227093936216 0.7164050442441843
1542 4.02456444204242 1.6615911666530134 1.9651444675663092
1828 -2.114907014394916 -1.1077857421926105 1.9558397739623241
1830 -0.5134183353331052 -2.7396082234956194 -3.4141188156409497
2116 -1.8692648857617473 -5.61520529559249 -5.804028608888066
2118 -0.6991377044692865 -0.9849546065110133 2.583556970127781
2404 1.756762017833961 -1.0504519387658844 0.17327392522011206
2406 -0.037731456497264296 2.6456273253630127 -1.2958733627682928
2692 0.9685813797729875 -3.735203782907131 -2.6721550599225594
1539 1.0614772309309444 -0.07502307079701376 1.1530436950786884
1577 -7.062043422654879 2.855326293530567 7.329180687844961
1865 -1.045543639063089 -2.048345620440003 0.4565395579688484
1827 0.2675529781359674 -2.850335718229396 -2.2870646947766864
2153 4.673868466390866 -4.077260012528388 -0.28633208217540806
2115 -3.278865450503243 1.030035472908643 2.670844746152429
2441 -4.714308919829336 -3.030018270988413 4.385050924841459
2403 -2.683604467286607 -1.192149955809178 0.21392143862646226
2729 1.0793081826616804 0.4377305946246937 1.865534178663844
1576 0.19468877828691625 -0.42043860482452483 -4.971374284575295
1575 -0.09052512662480519 0.7077306395424287 -1.2209587858324291
1613 4.134160146247405 5.638704987679685 -0.01741623299153657
1578 0.9162107019161279 0.4604161998928006 -4.463316525924779
1864 1.0771483623220053 0.17341051001949687 -1.2106942980492366
1901 1.316466437377205 -0.38159665206988347 -0.15795328114548493
1866 -5.684303772421036 2.055477214591628 -1.6861920214708475
1863 3.103709121048808 1.565662696399358 -3.79061527608898
2152 -3.8623565715558525 0.04976605212042444 1.6768137513913315
2189 -4.716677063714347 -0.24334543730354338 -0.24193842217649675
2154 0.5801845876758004 2.9359002331751896 3.542208025763689
2151 -2.5528695606537375 2.720788682487625 4.0098729467123935
2440 -4.5959331862485575 2.4503526575807855 -2.03244481378307
2477 -1.9140964540428027 1.23021829364254 -0.2598707282569105
2765 -1.0712914998309526 -0.2666016326764715 -0.9495373713429833
2439 -2.235214510003162 -2.3791718264755906 -1.808399909399124
2728 -0.6306681090468671 2.334895145080254 1.335394490439743
2442 -3.6744093762410777 1.5044942487272563 3.9211728445434146
1472 3.401951259924773 4.249381998737838 4.2255395362538835
1474 0.061645427485523686 6.082939394879467 3.454689852754321
1760 -2.3350787970320517 1.1734787535320976 -1.2633821674129198
1762 -5.231203790829855 -3.4816549677922293 -0.16429604355801905
2048 0.986869594980694 1.755191696472085 0.3454215141353655
2050 0.8584446451191887 1.5323818857348885 -0.05424661043312106
2336 0.974509922995672 0.026851027338990772 -1.9321099178652783
2338 -1.5405197758721898 0.35876267941863793 1.7769825390324328
2624 -0.8767634699599484 -4.795712381714546 2.8099122828116436
1471 -0.5816089890371022 2.539964741680023 2.3378641548535875
1509 0.5350965932547871 -0.25994205059557723 -0.7094633410730994
1797 -0.2157152487551189 4.474259065861882 1.1109924297742075
1759 1.8096450050003445 -2.684923547686412 2.119062373124348
2085 -0.9119943076722717 4.153342675249917 -2.0140795943335035
2047 -1.6145185597451344 1.4766054437723424 -2.693727621362395
2373 4.008116758411282 3.1258924966286896 -3.4641853487504615
2335 -2.854481623505143 -1.0479852314621907 0.7456356690539353
2661 1.5370543278387914 -1.6002513758029933 0.2484195393410732
1508 -2.143904617961248 1.4206812587827844 2.7874104042644268
1510 -1.0910499554095927 1.2805219584354712 4.8303310497644
1507 0.5173653162461346 1.9952514269186499 0.3116951160737077
1545 2.1516018465610496 -1.6184872880746852 0.7730677954693406
1796 -0.8645646377166987 0.6364218534688254 0.36828546036907994
1833 -4.5397258346963945 2.4390878783221948 -1.4410275857278187
1795 5.510303501790794 -0.7256354410629724 0.9262973772312008
1798 1.2381685944849246 -2.786176074960953 -2.355675022955617
2084 -0.06884315139548562 -0.9359579037699878 1.6014486945774917
2121 -1.3418515617632545 0.35503285137839985 1.9619722665644572
2083 -1.0818715505223917 -2.701190052175905 -2.432890323418016
2086 -5.206020864465272 0.12326967016683396 1.428988129611496
2372 -2.086999777210614 -3.2132401984029513 0.5019524146871315
2409 0.139255553932425 -3.2432606475984476 0.8633331818379313
2660 -3.2883871640332947 -3.2637595727357422 3.4091021063818907
2374 -4.041093737428824 5.079292165698681 4.746443251565914
2371 -1.7633794065218866 -3.786263980859894 1.2449964323727167
2697 4.874491139052042 -2.86292409750577 -0.8647542097907308
1544 -0.5905875577481449 -5.885543931234398 -1.089481746811588
1546 -1.738783843556229 -2.7406530888002285 2.4801386633613327
1832 0.26608514271937983 -0.7926187136688652 -3.9840311858670105
1834 0.41106381254432167 -2.315831631260522 -0.8915633060973462
2120 0.7474395413902412 -0.39076957785180005 3.9491866362575547
2122 0.7829407873418771 3.0187512058399 -1.0439814703538786
2408 -3.5253655330997677 0.34266465298854865 1.3597026227058493
2410 0.720151889719143 0.8385842381918671 -2.4838473722750325
2696 -1.5584336917651649 -0.19603557126395665 -1.013598490044733
1581 -0.777607511919371 0.41541788006213454 0.5890754635219149
1543 2.1768331056762187 -1.6670967808478356 -3.297691112020146
1869 -3.520767971070957 -0.4788948218181072 2.810846916172544
1831 0.19317652432174867 0.7694100439474391 2.794640013345846
2157 -1.7479621182147784 -2.885356928912703 2.5310694084115943
2119 -2.1566411664225114 1.4155394324830242 1.6038526447833419
2445 -2.4780450860503147 -0.2716699990919886 -0.8981147508602165
2407 1.4314960936547314 -0.42864585215957246 0.6736553005109568
2733 -1.2248740534932678 0.9435603867629745 -2.552862697938276
1580 -3.370877174744018 3.2810419074291257 1.8633041803883232
1579 -0.2695473970509127 6.134689144531415 -0.9447221322190643
1582 -4.3036233182901915 0.7296669249848515 5.956901801389459
1617 1.317110707580958 -1.626462808113716 -2.2697240594784076
1868 3.208959436432434 0.33479607929181254 1.0101011630020778
1905 3.7727878965718618 -2.229654136673746 -4.1931579731554365
1867 -0.9514289144843592 -0.15387552470735064 -1.382643920518571
1870 2.929065111439729 -1.8453244623884175 3.7617131319485484
2156 -3.2928695381659696 1.144443603574713 1.6648069807807893
2193 1.6595984772778543 0.9450838416426085 -1.0677073169608595
2155 0.2658980548705152 -1.1315533700533857 2.8814714084069335
2158 -3.785708885736326 1.6377439243011653 -5.3799665281390014
2444 1.8461385548160014 -1.8492563986604884 -2.04364816090955
2481 -1.0446386284514968 1.8962322994682386 -2.0763838917889363
2443 2.6709218786023543 0.9908026650192149 0.8759984789988275
2446 -0.35270051131943875 3.3513682530258877 3.6990451991999667
2732 -2.4221979603303274 -1.0411848391241152 -3.9927253394058484
2769 1.0130607249368837 -1.4536084861375682 0.5777888935455534
1476 2.184703994780479 -5.037886977425452 3.342391980454706
2447 -1.6300258784621828 0.8087803968579146 0.6867988618099117
1764 -0.5090298735635281 -2.5553325980978574 3.0016668271620714
2052 -8.392176046320918 -4.049831736058277 0.16430285246118653
2340 0.4531687005563016 0.6522963223695164 -2.571128403260512
2628 -1.0115202571071036 2.6740494525020546 1.9620764173002667
2306 -1.5071905697749979 2.5184178921366027 -2.8240778501805304
1475 0.14188703948136966 -0.9491132307283527 -2.6849535011094257
1763 2.3370636281685346 2.3027021539349595 -1.8909427626084967
2051 -1.9842641922265993 4.966795433267739 0.6964115138604069
1872 -0.02005583093318729 1.8234475118375657 2.2401906442770265
2339 -0.2605539507774969 -3.773088406536325 0.7769434394740834
2449 1.7232793276583573 -1.7738666450891283 1.9711625132981039
1512 4.347379212243034 1.9520086865383282 -0.7037447262997724
1511 -3.754715882632475 4.126189713651226 0.7868144267571704
2736 4.962851486735714 -4.467054821109892 0.7227581602949991
1800 -1.1253409705669881 -3.3640771867374966 -3.2241985088779415
1799 -1.328650145566742 -4.380976910209246 0.7457745511185385
1837 -4.070668197015447 -1.9596958039184005 5.139590951694683
2088 1.169068331636566 0.22677667411182295 -1.351016778247331
2161 -0.8983188956182306 6.022139070723824 2.384494385754167
2087 -2.2793123147970222 2.4033741522953447 -2.7627814504337262
2376 -3.404445355562611 -1.1644488419045516 -0.1300132346701805
2664 0.42908352801224 -3.4550181717082387 3.7189674344523738
2375 -0.206187762352508 -4.804236664625166 -1.3327292475050034
1548 -1.4383855780004513 1.4833424831133029 -3.1825549034963543
1584 -4.994393869946543 2.455990565348726 -3.4389484047548957
1836 2.002304949349228 0.8092046108732056 0.4638920102068764
2124 2.0734119989629294 -1.0683738216993384 0.10644110765432013
1583 -4.199197160501023 1.4236916836616191 -0.5112086039884631
2412 2.3636050080018447 -3.4312109499550982 -8.462985015270979
1871 1.790367363849139 1.1106330444424553 -0.34906592498427563
2159 -0.04909703818233583 2.2141456253635345 -0.7509509145738056
2700 -1.1182845073660896 0.04714562015104346 1.4980700766411457
1547 -1.6401835600006225 7.9865766736001165 3.2502508886323636
1835 1.337500577464117 -1.5126551629091471 2.7121837304029643
1730 -0.08848362891193721 0.8401752773085411 2.224031245335258
2448 0.730425505107113 -0.5294917158953316 -2.0269813112630777
2160 1.832187007587181 -4.035710467587079 -3.0395014508161564
2123 -1.4292934820403467 -1.914527275311173 0.029377772734106904
2411 0.16991790761181516 -1.8504280484485158 -1.2042503479804498
2629 -1.9669356740280939 -0.40477205621524776 1.0005492088844594
1550 -1.376209647945877 0.05677237444478124 -1.1743065809359603
2414 0.14164866771265738 -0.022019351246387202 -1.125801323950945
1442 -0.6071425921779627 -3.294427609189381 1.8114543318292682
2378 2.028222561028879 2.2651038164571187 0.6696730317878169
1801 -1.1289466817323628 -0.9487982019614587 -4.695003880602531
1873 0.5814625022828761 -2.1947944170117197 -1.4101718594795403
2737 -3.273510785013595 -5.515774620996532 0.8010698318449716
2413 2.1929411123757356 -0.20235891354719027 0.12491929188757134
1588 0.4676459576453236 -3.0871534592616126 -0.18442302145963535
1441 -1.4272405064510336 -4.2383933235107225 -3.9302130203240857
1876 -1.5859770275934257 -3.1796149504409383 2.537920756648705
2164 -0.8788506491797397 3.1024465991173416 -1.6180469191820959
2452 0.5111736800987702 1.0764929069845588 2.575669210146672
2852 1.8305954128999198 0.021945101004602837 -3.2122504190012897
2740 -1.0161990027590349 0.23021481843316774 -2.523072101321115
1587 0.047984465814368965 2.988341674921995 5.487558900626956
1875 -0.8191707157100617 3.986812324593489 2.662878911428268
2486 -0.6678450714801148 -1.2849893446740328 -5.439597813091908
2163 -0.20806105957750812 -1.5401726129166489 1.5710069987831412
2773 -0.4604926509490983 0.4532471316479805 -3.53506253967618
2451 0.008913591477689218 -1.2009698878888158 1.5949747071403297
1624 2.749028268460892 -2.28239357489274 -3.5593220734580244
1623 -2.2845567135191986 -3.852759049832303 -0.5101190147185363
2558 -1.7873718058367511 0.28025220471151857 -4.516817459368169
2162 0.10134706436409065 1.0708343566993015 3.461933591619064
1912 4.7954466100260404 1.2354317091084117 -1.484500604839676
1911 -1.2020887089879866 -1.250700177599934 2.14764886690327
2200 -3.2501106112233127 -2.23999302287982 1.9737413160196178
2199 -1.632783483178976 -0.6153547207318307 4.7713405992752955
2488 2.6923880684174297 -1.1150159229296022 -1.594267775243822
2776 2.7442623729838425 -0.13048507517590124 -2.3131669502118033
2487 -1.388171737552812 0.622023416124075 -1.7763954435445946
2563 -1.1301145496530054 5.018056120098054 -3.183093979274018
1660 4.8424730149979265 3.362574525821159 -7.321916689824632
2564 -1.230576049731363 0.281800183929176 -0.011144200232772841
1948 0.47785498129769755 2.0530527046374734 0.3678989712296583
2236 -1.5272626852884474 -3.343467104173196 -2.094638369943765
2524 -0.26446468602804857 0.07221402203253106 4.708523946962691
2812 -4.0868749953352985 -2.9186629305829657 -1.780818172770099
1659 0.6778314072521182 2.122362039216456 0.13570293707802542
2562 1.999687936250747 -1.2336665717379665 -0.8719692899742663
1947 -4.158121503048751 -3.1965215397616045 -0.713411914460052
1694 -6.326481314739893 0.7245064083280495 -2.293980526003077
2235 0.3024900579445662 1.1086287949687939 1.4280941348296923
2523 -2.999867767733405 1.5752543798250165 4.224429290330167
1696 0.7930133311001586 -3.664149645590918 1.4595104170385718
1695 2.301631332605068 -2.9014417570351427 -2.300586980715158
2597 -1.6744897522195363 -0.2669644384595099 -1.2881174388904155
1984 1.8654255323179605 -0.3345393744287444 -0.7927575337775981
1983 1.388219148619444 0.7631639029860361 0.7295718419456433
2272 -0.3329274200103963 -1.9911412538484954 -0.21711717041289086
2309 -0.11738146655323775 -2.6977449119388153 -2.4963822387308334
2274 3.978569966430178 2.178091534045657 -4.0935399845891
2271 -4.195180166364339 -1.5087505416036007 4.482042990319465
2560 0.8843126831145808 -3.6603697948639535 -1.6051056705713522
2275 -6.025945125117166 3.287145710605375 3.5356140797029214
2848 -1.8418398260542128 0.43367067830014094 2.097674870133002
2559 4.094794235806939 -2.5830005306561725 -2.107287995757135
1590 4.918795785297337 -3.2511489190152543 2.4821439344920964
1592 2.0512912236918357 -2.8530762465992465 0.7489480392633185
1880 -0.4104285405132096 -0.5747340672331284 3.9759095255794095
1878 -2.267861393897814 1.2300454267340841 2.9589914048426653
2168 -0.8277219757012336 -4.536773981043742 2.5371100702111797
2166 -0.04725513290471617 -0.6127523681326358 -2.900830695176809
2456 -2.403274849589361 -4.7123930012968485 2.121854564393008
2454 1.2586059557982001 -2.04238498384267 3.2308860369144177
2744 1.8939624798611534 0.6896612339667928 -0.6711225083843383
1625 1.2315730986740365 -0.9308726724845962 -1.4590942978758359
1591 -0.5656154343565339 -0.27297846535597975 -1.1960557891841261
1913 1.5657097339558221 2.454484564510591 -1.1088804232226943
1879 0.9528823217832291 0.5677983656596601 2.6190986948660804
2201 -0.33022463541173297 0.6480278519344727 4.156839376957968
2167 2.5466674531605165 3.9344076654629565 0.8825232148107451
2489 -0.41404129991461874 0.4307395726912394 1.6243902322999793
2455 3.0112789692079804 -0.30803176019162193 -0.5950494357251639
2777 2.1249973430466884 3.720482097770375 3.120016136183353
1628 0.4766233081441597 0.7133337233907252 3.592280206678836
1627 -5.238223326989187 -1.536592373776557 4.467397159608309
1661 -0.19840666933972978 0.8215455694636589 -0.8963039754743765
1626 2.4447396316963745 0.30740057464596765 0.8448108725837793
1916 -3.1243343958489054 -1.8384467943981015 0.219983689755209
1949 -0.20713994024008583 -2.5436366216345596 -0.28227886319089296
1914 -2.870537041614209 -1.0073792760390934 -0.7411449788220992
1915 -0.37429375960333294 1.28672911431306 -1.4880675459726653
2204 -0.21286449123763931 -2.0552608380355686 -1.9759439002253245
2237 3.057612351407156 -0.98989664572688 -0.5975972538539883
2203 -0.4051774246661107 -1.941737332033266 1.4855880643854564
2202 1.0862079763461654 -5.396418502934551 -4.071810188705094
2492 2.9768746100461487 2.831680964736156 -2.6335196940689363
2525 -0.7754259677696892 -1.959392470923358 0.9240360495656228
2490 -1.2108144628389803 3.6957843916355384 0.624415962670848
2780 6.0398424409408 -1.6373402400416395 0.7883305076126413
2491 3.723377979375413 2.573893272076212 -1.9032327202611972
2813 -3.5890269001712505 -0.6759808002094564 1.9975566071990556
1664 -0.015342312217427637 -5.19987001264162 -3.6932208976080414
1662 4.351718244736695 -0.5361905586787254 2.474159158469904
1952 2.4825123881097646 2.662715343240223 -0.6691289574612326
1950 -1.2492886769364875 -2.0106872939215776 -3.285452739929253
2240 -2.2866402121641314 -0.9511839705005262 0.6080184260645004
2238 -1.7389750872853662 0.1189113110604543 2.133381107774684
2528 3.8622527238585835 -3.137177254885261 -3.5649406419551206
2526 0.28523856172268214 0.32061231645903254 -1.0339128601227185
2816 -3.427939878430812 -2.929393929726265 -0.024128356272294867
1697 0.21271305325251072 -0.2757689416397377 -0.4173591816435109
1663 3.8549005822540057 2.4874393456189403 3.066483961706435
1985 2.337257110080045 -1.4806077703369471 1.635869439719383
1951 4.281574996952443 4.198045504666401 -7.230029882287094
2273 -3.5132061497859954 -3.0849837940687035 -2.161381068678307
2239 3.645622640681524 1.6363233769349619 1.897695852057356
2561 0.7910826473969498 -1.4412879496082454 -1.2298839314516437
2527 1.231448927919663 -0.07604772240537588 -3.3758854011551445
2849 0.40241342664077057 0.22288222629840693 -2.5322776267257727
1698 2.692295672375999 2.5595716693242996 -1.2972832202979152
1700 3.8834353056275943 3.836909458447408 0.1697412799085885
1699 -3.0384639732236898 -1.1764822989822745 -7.646401162208178
1445 -0.672785158729395 5.377133382503986 -2.9029541579249347
1986 -3.239988836370685 1.0199389382182782 -2.089516726620876
1988 2.4795637482449466 0.8076692421358067 0.22496619928973322
1733 -1.0919327006700565 -0.5268161898395902 3.0917557375113107
2021 3.429281426662682 -0.015699718115531523 1.8135377668636516
1987 1.8275478568533012 -2.2461621504018634 -0.7395200986375382
2276 -0.9995489555302539 -2.7022614714021307 -1.894138783157095
2450 -0.30110941122983137 -1.7356437552885893 -7.004040570088095
2845 4.544695636784731 -4.662280998270909 -0.6876445062821996
1729 5.072444994100427 0.03295403849938438 0.37110306167126417
2809 0.9567609032052787 1.5803215678668077 1.0244548381645804
1982 -1.4395407468951575 -1.2131677189630419 2.0654265156985248
1621 -2.4477048880204912 -1.1773808303220044 -1.5036777056804407
2198 0.7891597033910114 0.5003495513233223 2.31810429106746
1945 -4.490984885537525 0.08188258285847728 0.7234871816470027
2522 -0.2723035852503074 3.1588779811921555 1.397546408358519
1594 -5.876863188895423 -4.762404882214684 1.9596181887892892
1596 -0.7102727150571507 -2.3713250523122293 2.5484997485719463
1884 3.1223382992545514 -3.2652601431425947 1.9292077604510518
1882 -1.6099086010473145 0.7956979976896108 2.4039781853527504
2172 -2.6543277167861317 3.708770435509047 3.106620071291622
2170 -2.154581425325498 -1.3147512122371663 1.2644948583473368
2460 2.9807372974051267 -2.419356392242312 0.48185565910870204
2458 -2.306801432304835 -0.5691916672551784 -3.9762848193275144
2748 -2.340960551695213 -2.1251627645209306 -0.36069774582675485
1595 -1.313132929160128 2.910513926143004 -0.5863842130014583
1629 -2.6657395699156248 -0.5919983463752 4.805184253808932
1917 5.660851726659285 3.4203940652098095 1.2516645375157596
1883 -2.321759616587365 1.9997409062940827 -5.071563150294637
2205 -1.7686406775752532 -1.2799364109939586 2.1864583233028774
2171 1.60505541611682 -1.5279298416976177 2.2584488185152223
2493 -0.023166658902982792 -0.005189105920354337 0.7960253348505542
2459 1.3423768046217703 -2.394029492408457 0.3485415201686955
2781 -0.6420603682478437 -0.5855007802484562 0.06466057888251579
1632 -0.03144609179043323 1.3523400316347347 -2.513132551592649
1630 0.6513357178540345 1.0361779879325517 0.382829087532388
1631 -5.17141998200283 2.0324822799841833 0.04648273371632844
1665 0.5564509761680738 -2.315991561924909 1.3517866137701955
1920 -2.9917476055146137 -2.379403497236312 0.4129473670190784
1953 0.21720568802080933 1.0397393226027014 1.073068905589575
1918 0.7309237813436729 3.1483666741047136 -1.242436102323498
1919 -0.34775778790583417 0.259818486904617 -1.8335132903172193
2208 -0.36675365824611883 0.41726785402430083 2.536338641063889
2241 2.2920546211863435 0.664924646607592 -2.680535299575488
2207 7.487117997589605 -0.09039190857427218 -0.12664379704579987
2206 -3.7308529218451083 1.0080129698974214 4.336395269636786
2496 -0.17007934030744343 1.875803276795629 -4.174923757543924
2529 1.3028975108956165 2.3157359678181253 1.0382239496853543
2495 2.8874587027905982 3.64786080951083 2.441163347375547
2784 -2.7325437943924684 0.4704144282602456 -0.7736976572225719
2494 -1.6951546461181912 1.4181325385681744 0.8298136457520088
2817 3.2428077415319376 3.5450449890067706 -2.0099486939750397
1668 -2.845442691927776 -3.925971460661616 -0.5912926820683864
1666 1.505059270198511 -3.3167450466290673 -3.441105240129316
1956 -0.16732923356590337 -4.16599500086212 1.443769794914138
1954 -1.0768750084131296 0.023181876350533922 -3.7657273369896465
2244 -5.490654659955368 0.7531366117061394 -1.3876324640642013
2242 3.1304513744779006 -1.6435285399320427 1.0186943617172852
2532 3.70826351181133 1.650944278730417 0.16066356612776614
2530 -0.04423412149872461 -0.6966609658701807 0.42855165341967577
2820 1.3527540510572722 2.241860331426057 -1.6834201646757896
1701 -2.0377313413254017 -0.02498608262408327 -2.8825944228069837
1667 4.187840144016667 0.9926026194683117 2.3969539041444317
1989 -2.221355446906639 0.32130821408349564 -1.585625636595714
1955 0.571663524033678 -5.117701995284154 3.5971921600049575
2277 -0.9909947530622407 0.40701114189349824 1.0244403335337737
2243 -0.9269968803233595 0.5296407626657988 0.8996211183048022
2565 -0.3037519769720477 -0.1999160490729227 -1.615750475346311
2531 -0.9022272765975224 -0.5637312144557988 0.6011364143081567
2853 -0.8424101682867027 1.1926803698181268 1.9868014448444375
1704 -1.648107111425904 1.115859201783416 0.7201660414719288
1449 2.918805611048335 5.8842414639532885 -1.4590482497339652
1703 -1.5637668652333157 5.712437083364195 1.848898827864382
1702 0.3069185023460508 -1.4516322309155214 -1.5816703980328501
1992 -1.947667399737939 -1.1342675584497237 -1.2216198331990913
1737 -2.015659910784476 -0.702019757679429 0.5693666956484966
1990 -0.8845912566374509 -3.151349514370272 -0.6885081726322495
1991 0.4234562483162743 -3.7767435154565154 -3.256452149165305
2280 -1.2293326468181422 2.4043289443110516 0.42572574429582893
2025 -1.3061987903764891 0.09532437149600795 1.933986484244544
2279 2.3912446588189913 -2.441567251542115 1.832364699633155
2278 -0.019127548797733682 -0.35273569582665104 0.6821687714821071
2568 1.143018725213974 1.6844765628325102 0.8827129443906283
2313 -1.4063524205140132 1.8187006899423406 1.2150399341138538
2856 -0.8619532484473414 -3.8258966109545214 0.8437385331525796
2566 2.530413173697977 -0.6691976722182231 1.8422564341166512
2567 1.5031021001208174 2.735532405858447 -2.7690920834869663
2601 5.0079020221184924 1.4582924401020463 0.7576461113336991
1598 2.4277211955849904 -0.5873194729255455 -0.4595351559985675
1600 1.0313484904512662 -2.652244773701599 2.321053148719481
1886 -1.0912808145066324 1.0502548892826054 3.7815198694115257
1888 -5.6205147009729215 -4.775166478623679 3.315506845076416
2176 -6.349433216615102 -0.1123636981481313 -4.246339655936459
2174 -1.824518074378438 1.875097623033448 1.9356780728134741
2464 4.9519781619390395 -1.152253031551653 -0.09187875027467376
2462 -3.252324313909348 -0.6250658354163713 3.9348258057628818
2752 -0.9998879134523407 2.9298721125469753 -1.1496161775494569
1633 0.8035077745781886 -1.6987080722412942 2.1520933754856864
1599 4.661035931138939 -3.7473874851597793 0.8424515290722546
1921 0.45328664030160176 2.4716188917332365 -1.1963535491814032
1887 0.47603202674957856 -4.441786122626592 -3.866438944560574
2209 -1.7091049644415572 -0.19604336032983743 -3.000194112748311
2175 -1.281074592796137 1.6378200211689729 -2.422125213950533
2497 -1.5125279737089903 -0.9946920821267842 3.6804957584702493
2463 0.3936767543778808 0.63670385069321 1.5190671484126383
2785 2.7657830920878035 0.7664140593231767 -3.0626122422660025
1636 -0.29005998315175796 2.371316212097436 2.9547254062074897
1634 -0.48185089559560496 4.148971683476081 -1.6764699129722
1635 2.0797867618375285 3.2834671233069312 -0.20064936072795617
1669 -2.882643230881208 -1.5070374724697968 3.0380333535962807
1924 -1.5351964666976836 1.6993970729640382 -4.501777593887569
1957 3.637240396876535 -0.8975935531247977 1.8434187184643511
1923 -0.3249016189643866 7.570685359895193 -1.5009728398644073
1922 1.937096114139971 1.610279739180561 -2.60831996455537
2212 0.9209986836553749 -0.8963457045436264 4.754922695907971
2245 2.159192069671931 1.5365893159896038 3.376901143519258
2210 2.5147658816261926 -0.630375863761999 -3.598973211239546
2211 -5.169509234482646 -3.602192390808427 3.468291412031912
2500 4.0768888120061 -2.572436131465639 1.2163928983566246
2533 -0.13635152743668918 0.814022909893417 -4.22904647696214
2499 1.1851284972841316 -0.9044108711957315 -2.1300219957623474
2788 1.030113270385543 0.7610323393469461 -1.124994695254708
2498 -2.105321998313816 -0.5754524155872826 3.794583129355616
2821 -5.516845144215459 2.1292327130896966 1.2294616744979734
1672 -0.14652304057626153 1.3293024746356874 0.0886934725424664
1670 0.09046561311860501 1.5051737385462487 0.875987785922087
1960 -2.2891992432546324 -0.06828160069752216 0.342334063964802
1958 3.83168405556572 -2.693007434357709 -0.8285876026127367
2248 -1.084528787333788 2.7652665743433222 2.5521769794983737
2246 0.8573013556905508 -0.5509338550958132 -1.8333213123420005
2536 -0.14761612662803442 4.007912324595763 -0.06749888262274666
2534 1.2211615378470042 -3.7128641305396717 -0.45177007457527013
2824 1.8879149868693896 2.210202602217306 -2.1346403140533927
1705 -5.101160753229458 -1.684198684721358 5.541571688375918
1671 -4.8547060191816245 -0.6156994286726784 -3.9711931756251797
1993 -1.5779857094475325 -3.214717494283483 2.6417688542402775
1959 0.29030677547843026 -2.857082480635305 0.40019289979582284
2281 0.9926770059932407 -0.5708300407635735 -1.6832850318726893
2247 0.0036461377882341835 -3.060905669521959 0.9683401616528752
2569 0.8349073698687715 -1.6291464694032092 0.806258459667655
2535 -2.9621263227137544 -0.029300218680824507 0.08929671546351814
2857 -2.4511715199586828 -0.9040431578495022 -0.7234309401968332
1708 1.7156100612541998 1.2184917884295186 1.2310863781447403
1707 -2.792962703646628 -1.8545996483840386 2.090477531915006
1706 -2.075015729576996 -1.8292176132893045 -0.3557694010327498
1453 -1.354190730804381 2.0389796058489185 2.7203490271677313
1741 -5.1805138012234435 -0.2718479056008841 4.3650656228020726
1996 0.40867692992539495 0.875092854434303 -0.9348889612272749
1995 -0.17874573409062028 -2.9547933160082684 -3.5701665905183235
1994 -0.3589230071104706 1.3195691196816255 -1.2076403808388352
2284 -0.5725531796731359 1.0705596548533587 0.7934749664915177
2029 0.7583308457582695 6.012680285001276 -1.3461067864836653
2282 -1.1191652520471285 -1.5142171666998272 -0.9929248055810049
2283 -0.051851212809018284 1.382429624088485 -0.9614269154527443
2572 0.3617446134995303 0.6657732532414128 -5.047865558457671
2317 4.249695312290298 0.7520387033432554 -0.5711221911065721
2570 0.2859887308476804 -0.08045024807072414 -1.5363525470319783
2571 -2.3544857710344007 -1.8117768002796248 1.2669056173987137
2605 -3.603857619739147 -0.2650748530290021 3.0868156291758053
2860 1.6242687584419775 0.20178836678991877 2.8937552751189584
1602 -0.17140358041054748 0.9331936797206494 -2.781395906856691
1890 -4.965131242454623 -1.8286393037947606 2.2117788399628884
2178 1.9939877480457795 -7.467241066771981 0.6795583137875383
2466 -1.3728807928596978 -3.6301129108640255 2.8859292536839485
1637 2.890567902116988 1.0725339091989121 -0.576885305432496
1925 3.9087827171219267 2.3211598843563093 -0.6654325405193194
1891 -4.130530213526402 -0.5869363242936413 4.189127150657591
2213 -2.4420817456162314 0.23683070480555546 -0.20775454684178601
2179 1.706286740947162 -0.5846658741796766 0.9810776885164403
2501 -0.9113656857536178 -2.942837908074252 0.36747407555196565
2789 3.220624886072309 -1.8859552150771823 1.9323288012177882
2467 4.271109082353031 1.4805250616970562 -0.6065560251337627
1638 -1.0838843429770622 -1.373761630775543 -3.8533549827443085
1673 -1.248972372228833 -1.5927964311671798 1.815725514087638
1961 0.3986317016986046 2.776402909525605 0.2546534348514694
1926 2.7800523675217796 0.15489823878502665 0.9984284032579418
1927 -2.034365547457559 -2.5907948582301508 -3.2491311383147563
1928 3.1674089448065814 0.7287077144115269 -0.9365609384305036
2249 0.43751797312277724 -2.358837694620087 3.8993061664572526
2214 -1.096927732394819 -0.7386661941698465 -3.38113770803778
2537 -1.8396853029519464 -2.411902153812228 -1.1025096873152875
2504 -3.382711081786032 3.608056243451617 -1.004856091564176
2502 -0.9650891393965436 -3.086361922623162 -0.840276860427986
2825 -0.6740861009186907 5.559770380740192 0.6602067656656807
2503 -1.790876337414055 -1.7222284920336366 -1.5821583840961269
2792 0.8706595417042711 1.5160056787005138 -0.9782668865429559
1674 -1.5080797236972734 -0.8749305581102794 -0.3760884447694576
1676 1.115044476161782 -1.570566544728459 -1.4081897106437675
1964 4.299115726957661 -2.7955211032533596 -0.2302394364410859
1962 -0.0610947049542805 5.574452147331161 -0.9348697774665788
2250 4.457737999836612 0.26275392649814855 1.685713218689482
2538 -2.5827660152807725 0.24417145754594607 0.2939450493412193
2828 3.754643249073123 0.007156034193848264 0.026960033375847115
1709 0.8697902020555118 -1.424095238662818 1.7347018994530754
1675 -1.8866202828009708 0.8009722720361431 1.872564055548495
1997 -0.5161924660864885 -1.5370964022392744 -4.019130608699852
2285 0.3240601113539432 1.0592206301831528 2.005205547376957
2251 -5.129054579922059 3.8441228967711387 3.3094789795402364
2573 4.102284823197846 -2.101456540675237 -2.6137963026307305
2861 -0.1964796811544384 1.8544542763235523 0.9560201087016611
2539 1.8747283025787091 1.0851449759810694 2.6114682594227494
1710 5.241040362892516 -3.3130359505625875 4.824846416307904
1457 -2.438789622113956 1.6999724677449708 1.3710465636890992
1745 0.23869917947226382 3.5300902206298774 -0.17722211422745524
1998 5.983856327082522 3.960345375904827 1.207292906255949
2033 -2.510557665275015 3.9951910332508125 -1.2659842749880412
2286 0.3114340513712473 -3.020887907710284 -3.2590712206358097
2321 -1.2417804547335534 1.1209790952885164 -5.696577129207727
2574 3.170954026762181 0.968581188920866 2.103712310337149
2609 -2.9838175157095552 2.474976987848829 -6.013504051349506
2864 0.7700971379202634 -1.1292706712772036 -1.2284110390562368
1604 -2.0957385751126383 2.839774826523163 0.5939571299016152
1606 -2.8423254685631774 -0.18708359715381392 1.0231245574016212
1892 1.9735827924438978 -2.8336939766513436 -2.0353537030314643
1894 -0.06466580069342533 4.176423576493539 -3.9221305152475043
2180 -1.2415215581852197 -0.7271587717408443 0.6049884106774526
2182 -1.2789299005661092 0.6533990808161473 1.9907678860964935
2468 1.3143426044185715 0.636364718961673 0.1050671009596082
2756 0.3255787301911978 2.148319318023138 -1.2442774746712864
2470 -2.4026047627656535 -0.1361283996414711 1.4195341680340856
1603 -2.817337688481072 -0.5573669596684686 -4.107689544546267
1641 0.683305381536679 1.2965767097241443 -2.561713870727201
1929 -3.650014082440738 2.6608265303191025 -2.4271260910258055
2217 -2.4127332035032056 -2.748203453939891 3.686169019428673
2505 -0.5236050094570115 3.8750990181867446 -2.908445100169806
2793 -0.7880275915507123 0.9419877309560092 -2.013770496791907
1640 1.792578931177612 -0.28964195192096764 -2.849606823356825
1639 -1.5023831898766364 -1.389018849619761 0.6533728523888818
1642 -0.1021710399866142 0.07630462788939092 1.1328438158917933
1677 4.008066508903226 -0.18922540446044403 0.9856540177903814
1965 -2.77630267302598 0.027115298716691123 -1.13698750823096
1930 0.9681614730853587 0.4318324907634275 -0.6131920902578095
2215 -0.28742473344901526 0.8130154028088279 -2.6941855084546327
2216 -0.1131128126813756 3.703580459200973 0.5953890197045896
2253 -2.908380916529613 -3.8290913796467425 -0.7538325467392879
2218 -3.1957854578581784 2.8885737164293412 2.3162040391236234
2541 0.07471043333907716 -2.983095889442451 -1.5889899984383902
2506 -2.972847606629514 2.29985610733777 0.5820240769988697
2829 2.277994519986404 3.231223831918802 1.287111376240181
1678 -1.3832837951799797 1.8053840338970537 0.17083484835066262
1966 -2.3285533975599035 1.624290129794429 0.8890193511488605
2252 1.282195404167265 -0.15965803897234315 1.4907960254162118
2254 0.46272673274110093 0.8404955830382218 3.548587092875498
2540 -1.4004961868829002 5.1187757254617035 -0.03412643022349111
2542 0.27314487402083987 -1.0332268744556614 0.22076435931446647
1713 -1.9689691753407688 1.1374054913582021 -0.6850330711136644
1963 1.9644750222595682 -4.58807181865923 3.4032660641060093
2001 -3.0210966991005983 -2.1838737462109834 0.41402391473301603
2289 -2.001976619301934 3.479120006947096 1.397455567965658
2577 1.749158658099847 -6.589250573626233 -4.498994053194164
2865 -1.9652359338528063 2.1677306315481384 -1.086127334822784
1711 -0.5395164974300883 -1.3417100455379354 -1.7977242859384068
1712 1.0635769558420556 -0.6807794932511388 1.9315861147521645
1461 4.344114713836511 1.1574554658629688 -1.1561789070095199
1714 -3.2823395039384495 -5.6471583823997875 -3.7999313925899805
2000 -4.038702936343063 2.0633499220741975 2.010301969183058
1999 -2.616091302051919 -3.017562630262911 -0.6609687902887407
1749 3.7793632650004003 0.5722162707312174 -5.517919211230879
2002 0.08411058852473138 0.9955076251587364 -1.5983418064684454
2288 -3.646505653216087 -2.426083319336985 0.18706163062290485
2287 -1.0596118429909265 0.12969749425665805 -1.9721472281810775
2037 2.6683913005116118 1.8151431121600359 4.162481511515426
2576 -4.122547953638495 -0.5887752241217812 -0.12636912253805435
2290 0.19335607753643053 1.3190699174997762 1.5576778142974772
2325 0.6817458441985026 -5.48587111836261 -0.14886910321244454
2575 2.652986029896915 -4.933741002842763 0.9388513333197798
2578 -0.9462698868857733 0.8820796182511171 -0.4344284676468985
2613 2.1562895885213957 0.05396028597648885 1.8356468437332971
1608 1.4784821885826327 8.487178700903725 2.370865938134724
1610 0.8895855308735116 -2.2671775561622622 -1.1232511401920195
1896 0.3186483703287488 1.7222602067749346 2.2397975903937004
1898 1.3595790235013938 -0.6759858934163081 -0.3046783006741851
2184 -6.784951730327879 0.6968836411780768 0.9251722549171689
2186 -0.5835810778426358 -1.3221575207914755 -1.6924050043649785
2472 2.5017567575262043 2.772847875573458 1.904325938438341
2474 0.6611997927625562 1.9562708406744775 -4.524940585113488
2760 1.9938260213197172 0.6484799019462618 2.3741267685666996
1607 -1.4499856052680584 0.6075614271909903 -1.621527569057332
1645 -2.697003625432197 -0.3002453235642985 0.3799207358746215
1933 -0.5853210033668034 -1.9801125323560518 3.0832352969536174
1895 1.548981210385417 2.383301379840432 4.935659531990266
2221 1.7998656367316042 1.8674957712071403 0.647136625348786
2183 -2.070020827538911 -3.0035220934869695 -1.3004752262469814
2509 -0.7856672100596166 0.21567957632437554 0.45223468783360804
2471 -1.583793470890403 -0.8119345590377216 -0.047574361912938276
2797 -2.541650840329907 1.8727521787608743 -1.8721717139533096
1644 -0.33845956408065175 1.340703105870851 -1.8667008523104296
1646 2.7451229389457734 -3.728767518836596 3.392513985049455
1643 4.0839713592446225 -3.4141900023685587 -2.8947783201373136
1681 -1.8186947121749537 -2.0180251276097407 2.1398686211291222
1932 0.9698318059417621 2.1107167408753646 2.249270007283874
1969 -0.877122931827966 -0.1978238777312329 4.819536250725394
1931 1.6268688577698034 -5.06272087470943 -0.8301034937756877
1934 4.448705986469759 2.9175817101311528 -3.464030249731413
2220 -0.01947757114549134 -3.252871864766655 -0.2868234533025691
2257 -0.632638824481585 1.9213976481826802 -0.304715387692836
2222 3.6956221301783345 -1.0078814128839804 2.278499027691665
2219 0.9087034750044196 -1.4047508839014575 0.93295085430136
2508 5.471357301138639 -0.947696359988127 -1.3188856381581262
2545 -2.026158805281909 -3.529681457368376 1.667568521597874
2507 1.1127733927170727 0.7841699640454447 -3.5480028445400644
2510 -1.3627902066333053 -0.3209511894587554 5.634136425242592
2796 0.28887251780460027 -1.1191521056723015 -0.6835951269963586
2833 -3.4555698227299803 -0.9278054563771584 -0.7947762693515855
1680 -0.8963195753224864 -2.950620396241046 -1.1111138559170546
1682 -0.8760725066911895 -0.35811734009082097 0.39218870740600364
1968 -3.8769034654428807 4.851483795473938 0.6025863066796265
1970 0.381091939382579 1.087303328117429 -0.7710435582833861
2256 0.7744951120291615 -7.913940595410554 -0.09243689523826533
2258 0.48932252512883145 1.830864685703891 -4.454560042518938
2544 1.9657862407017963 -2.7986304842157987 1.7705796784478989
2546 -1.1075414841684075 0.7812713339351269 -1.9413377802630374
2832 1.2096062356081574 -1.0403236497972703 -2.5030648230711043
1717 1.3363572281490113 -0.11432046537691633 1.5126298070614201
1679 0.7050843502606097 -2.379340317750478 1.6926577302525208
2005 1.6866561542737477 -1.8995280318653953 -2.1928219987108952
1967 4.284546316906294 -3.5070343110482454 4.305180634786097
2293 -1.081063700332451 2.583263457126404 0.8019769129908242
2255 -0.38256973922372234 -1.5641843652309926 1.0287934320149148
2581 -0.7902080406954489 -0.43563359158146614 -0.6319871735247676
2543 -1.7307461495368495 1.2408830191293851 -0.6142012592080083
2869 -4.159084058349627 -1.1443264929471173 -1.4285060028775938
1716 -2.1625228623546144 -1.3169162395678 -1.2065365172423521
1465 2.3436444292279894 4.082023592205569 -0.1163481946381516
1715 3.413156493029593 -1.9397628242086582 1.1990723044292904
1718 1.1205570666622584 -2.7498874083494997 0.5947617437649623
2004 1.3352302080326295 2.0397927655400983 -0.22657105643097203
1753 2.072473285217425 -1.602180693665471 0.9319128939025734
2003 -1.9685309375552253 0.014330868789187408 -0.5501563784029374
2006 3.000170067245292 -0.2273590448647477 0.7612308646800513
2292 -3.9069906008316995 1.0814828471772224 -4.469858093216292
2041 2.843902533976955 0.24013913554558156 -1.1880910818390567
2294 -1.218460808286166 3.2631976549729003 1.5942632399052308
2291 -1.3477118439894493 -3.272204824354436 -1.075341001993826
2580 -0.1655900818424702 -2.7052329762338925 1.7670407454921928
2329 -0.6136500956944908 -1.0384010339386178 1.6933489006968399
2868 3.132478645371957 0.7300901131709081 3.1744566238795073
2579 0.6565988484207966 2.7654526541946125 -1.4608071147337833
2582 -0.9306431333463069 2.7540527418326475 1.2098556161794103
2617 -0.30528282787821087 -0.977572857792152 -2.9768608703873682
1612 -2.115350898675963 2.943148566258176 -1.627512183043406
1614 1.2908532071197432 -1.5640546026762798 -0.9996315352315476
1900 -0.29946252367921816 0.5733628573155973 1.8799350209736654
1902 1.90254916023261 0.23159190713814723 1.9648241573608614
2188 4.83387923124601 2.3633459433938904 2.4152617221622767
2190 -0.1007398684990844 -1.8620806317712433 -0.5111266936297837
2476 -1.4405074414891816 0.8913351061729964 0.9139086301687407
2478 0.4432215454890305 -0.3013695127315703 -3.8254850008205987
2764 0.6951802863169334 0.4641374964324505 -2.170498150556178
1611 2.1339910922314265 1.1270870839128906 -3.0836786828797624
1649 -3.4480223216745243 -1.2075876509753636 3.0659022244680507
1937 -0.19111951318382572 0.7061075375804771 2.378376687386916
1899 -1.4790435185287547 -1.1597996621275628 -0.1875128281295605
2225 0.8127065442576055 -4.632188364214117 -0.11876222311826738
2187 1.6107994638822045 -0.5708732745513784 1.9995125223630723
2513 0.1607027010590431 1.619443475793066 -4.479588050146803
2475 4.227556714644118 -2.3054468815785487 0.5598399837597038
2801 0.6478920728172657 -0.029068887549147136 1.0768043723557132
1648 0.9257598445643102 -1.6829397231847536 1.86635357478958
1650 0.1898957080416941 -1.2220128426420274 -3.62649243010374
1685 -4.531990951040949 -0.8053823412690118 -1.4577276016938618
1647 0.4005972698720844 -1.9290815349294188 -1.2365082318377618
1936 0.26145978339406084 -1.190247004836743 -1.5689989551530794
1973 -5.723586179333379 0.3529457574468979 3.751423831368282
1935 4.657452731294925 -1.7424308876858847 2.4032712983475797
1938 0.8368864079181775 1.0864701319905574 -1.079748536170415
2224 -1.7396597817030133 0.05541864962290777 1.758233613578918
2261 -1.5190651982792098 0.5900237775448484 4.046723188261358
2226 2.668039347753245 2.351112360811331 -2.4717308707213896
2223 2.3166062607205378 -2.712257790117816 -1.3223996485327947
2512 -0.654538091514242 -0.8633008455951707 0.9426009436612994
2549 0.6664278913034619 -2.0532920041202485 0.4032359264982906
2511 -0.7868141315693157 2.7001483417238403 1.9579206529990694
2514 0.1806131541635718 -0.5312560437225062 -0.6351136286206485
2800 1.4682908726075394 0.8176331480693804 -3.426683455295003
2837 0.3941006014978273 0.5870582808216954 -3.7141492273584564
1684 -1.1206241900294367 -0.384279906312432 -1.1013165588734808
1686 -3.558615196249625 -2.6019397632355616 1.996181774427865
1972 1.8430206462073289 1.7445157381435796 1.8761493229831099
1974 -0.414033755593958 -0.46801312778974424 -0.33581085427966517
2260 0.31967958098129584 -1.7296175279920323 -0.7226124034750646
2262 -1.6117859019505616 -3.8567051527060636 0.2521628136614323
2548 -0.44214430993279696 -4.081586241937912 -0.3372257799519591
2550 0.5113912810446178 3.4478868242367233 -1.2843107942604826
2836 4.546335276866311 -2.31875596787475 3.9486442899168757
1721 -1.413468068903755 2.1140811220890776 -1.3891386357831468
1683 0.6115411626850955 1.2508244669144186 0.9162743359431902
2009 -3.995417717466629 -2.267866896377231 1.3856881437224329
1971 1.0318152464971078 1.7431190728489747 3.8536944143051555
2297 0.9128445962256987 -6.568680583003719 -0.1042168404628679
2259 0.2575614641385919 4.2853783024919 -0.9835236784214215
2585 0.8596129015881911 -0.7533973819148654 -0.4245323782809023
2547 0.37784511437668183 -2.274719623254631 -2.5731761963717954
2873 -3.8418082367090354 -0.22611320451908098 4.87367582079743
1720 -0.13281717524550365 1.1943116618986331 0.018318809623078396
1469 0.5324096202183541 0.23277773404722704 -0.5351795510008454
1719 -0.6154148414017314 -2.85191853439177 -1.5941773749303199
1722 2.468377507797327 2.1802407421438064 2.5561102151297685
2008 -1.1924245293171083 -2.6995560587762393 0.6144349335025093
1757 2.15563624833902 -4.865464354182228 2.4936597184707154
2010 -0.9111948447773479 -5.107140589500568 3.7724019462231295
2007 -0.29291434762519614 3.557164583780326 -1.7138708001086294
2296 5.549712366784617 -3.9773557046284265 -3.75087560990332
2045 0.5288367785042641 -1.1403616217238823 -1.6695585392083268
2295 1.4954174791553358 -1.2626050573545133 2.152609663483636
2298 -1.877165853202349 -2.053656822929289 -0.377391631524664
2584 -0.7845841335760431 -2.6751524122124017 1.082552339930251
2333 -1.9571298191803108 -0.15117135434202422 -1.8876833686053025
2872 -0.31682146435141734 -0.3359204654262616 -2.030843574460655
2621 3.5613120136499425 0.685353460930206 2.8085070281995455
2586 0.8600766583866907 0.7559197329647183 -3.042324976921907
2583 -0.6135776676893143 0.6970451280944476 -0.7949586660289307
1616 1.754030836438571 0.963239668501573 2.1099764753966133
1618 -2.391620034224362 -3.0194885213399085 4.1537536275229145
1904 -3.59606423048611 3.3882483370361185 2.9736346567289456
1906 0.009597728879939881 1.139634037056678 0.1353302118573226
2192 -0.8906194647901419 -0.7434465919888286 -1.7743267726798915
2194 -4.356254152390628 -0.6679808315846176 -1.6651969295314393
2480 0.217342078117624 6.525032765509184 -1.1900630030050041
2482 2.5082795511340588 2.236821234388252 0.6829728663316499
2768 -2.144954470206564 1.8630504585122034 1.5758425202458732
1615 1.5157640963900207 -2.616867533655813 1.5288600754080992
1653 -2.625449368611995 5.920775489316568 -3.48992970347812
1941 1.347774540377489 -2.0520238913339375 0.6182173246151933
1903 -3.380198702518165 -3.659117941431662 0.762269717324506
2229 0.4125940032769345 2.231439346346339 -3.5347821920216664
2191 -0.36601165017735243 -1.0004374728844272 -4.399741345344744
2517 2.353627792218946 -1.7269650587239633 0.2879863340638605
2479 2.3631830458057164 -3.0191202837451256 -2.6821453022298876
2805 0.005560219427535785 1.2384477176265623 3.379250138415606
1652 -2.87206825572963 -1.1750310952989156 0.5491550295682566
1654 1.2897786221508154 -2.5640040375474733 -2.5476110040149442
1651 1.6980369456767974 -2.462797646609251 0.9388045423985882
1689 2.536966538425304 -1.4048224705100605 -1.362067812535437
1940 -0.0730248744820672 0.7578477846104726 0.7823646058706704
1977 2.2006818935086336 -0.1789334122459861 -1.1931177847805834
1942 1.0638828390478343 0.14659651118206363 -3.8821100667982895
1939 0.9503557366006843 0.6105224543500188 0.8140296793113996
2228 0.21934463526376383 -2.521998695851726 -0.1243439074148609
2265 3.6242593149528015 0.2259921951878599 2.7267941291048863
2227 1.5191979344215532 0.18281147580688017 0.6160466736492162
2230 1.2130798992742997 1.3167875433601783 1.0170465076895852
2516 -1.3127165254302378 -1.0565229335438209 1.0214339089956848
2553 -6.475672208293438 -2.810179774439713 -1.9244099049715326
2804 0.6511136474235548 -4.209768466343194 -0.6968788643464926
2515 -1.5772253171061392 4.87414488262886 3.523902175231093
2518 -1.3736671864094843 1.779921926235782 -3.8814800101103275
2841 -4.288868608095199 2.077375178967803 0.6085246002006156
1688 -1.133810533720124 -0.24255535365330747 -0.09311747080072846
1690 3.6493197863506928 0.13178068599597728 -0.128490776565542
1976 -0.8325679054466267 0.3432172040743771 -2.0855925979403573
1978 -2.0531836027274886 0.2101006222669551 0.3197856947473294
2264 4.365015943778439 1.8306165595874915 -1.0396813333947452
2266 -0.036134433149873225 -0.7442057744711711 -0.15718216155241024
2552 3.5977591080372564 -1.4552446227063676 -1.3324157788805342
2554 -0.47153420912154637 -0.3664501848241477 0.8836003536581196
2840 1.3120329434869114 -0.2771926740752987 1.6132460628415912
1725 2.096977741708505 0.2742619089549619 4.6137280095185895
1687 -3.057432428825331 0.6843999296599091 0.8712213984278524
2013 -0.19411310869921752 2.5216822234367835 -1.0913451632865176
1975 0.3699109217797148 -3.1928542613633373 -3.981723977105091
2301 -2.4279376336435923 0.5558970067544295 0.3272260928043952
2263 -2.8688785373392665 2.0388434485882607 3.6317745577871885
2589 -1.6891352731760176 -0.7734916968552505 1.8662394940101978
2551 -4.188854749163582 -1.6861857639503346 -1.7949693410572176
2877 -1.0699223140481462 4.129344547776557 7.755516337140712
1726 3.2062276679845194 -0.3951275043305978 0.38342251601959915
1724 -0.30607264611427376 1.0332734845729112 -5.180187598673945
1473 1.929208033139957 5.114623870518297 -0.4696317493957017
1723 2.135017411683528 -0.3559883559529951 -1.1998356600514348
2012 -0.6821842315454628 -2.1585745597195425 1.6980350354390352
1761 2.1370332866364357 -0.7149218606470576 0.6886317498811633
2011 1.7952384853354415 -0.7012137992965414 0.7609680780248025
2014 -0.1946059015478587 -3.3556192333730515 -0.6235594981820658
2300 4.672781531725647 2.600080019163495 -2.7424371264848277
2049 1.291517259124415 1.3896071611277272 -0.36519869494589574
2302 -0.09758807595442717 -2.7794977896144695 1.6840844943304483
2299 -0.6453748356665062 -2.138986899820585 -1.5722463230368047
2337 -0.17761311398320434 -2.5271380120682694 -1.9856610448539933
2588 -0.23036519848176687 1.0169663857386482 2.0216301657382343
2876 1.077937776858827 -1.6538725969285097 3.619856839167396
2625 -0.23015022449446712 1.8454908555726162 2.2715344157588584
2590 -1.6898656076165588 1.4288775705102417 1.0858762564242075
2587 0.8219101479721694 0.75115200044535 -3.60320938966464
1620 1.548215838089245 -0.13115846256784872 -1.5693918645384755
1908 -4.7733266719346235 4.640120398005901 0.6017600744897567
2593 -0.021242632833382027 2.158019640873541 4.918108542806014
2196 -2.649154736449243 0.25016361086036476 -1.5325937500518814
2484 -3.000177362099032 -0.8509392676002518 1.5808565102660141
2772 -0.47725723099708517 -1.0757895566835454 0.7629368590126103
1910 -1.6707666847705553 2.03372365975617 3.56776500573387
1619 0.09635857248339269 -2.2196604967174367 3.192466815813969
1658 -0.08653907319916558 1.7217634670947335 -0.6683606363476725
1907 1.0033333743806387 -0.45286237962499465 2.5390832670746213
2197 -3.090935497168377 1.3614280136200378 -1.0231889219223504
2195 2.712618445027641 -2.939785621241302 1.542921648708851
2880 1.2341980187729016 -1.2718932740716293 -0.4460041768444593
2483 1.2299929728110424 0.5203927892185595 1.848131243026084
1656 -1.2312268962176052 -6.239181945333377 1.2286034102363148
1655 0.3336112918379869 3.168338555394851 -1.9785869382711918
2017 1.011209716805997 1.0520622950490703 -2.063607068236287
1944 1.6356465389703552 -0.09030646403871016 0.9789463552319028
1943 -3.2196355526509564 0.5396990691610545 -1.3850023867041041
1728 4.009210421721994 -0.5689242099686793 0.8739666171156991
2232 -0.5972723280679033 -0.37982812397728344 0.4324691221976976
2591 0.7424457921607198 0.4223575903786618 -1.0664688166068388
2231 1.5036617823082807 -1.1839403437666751 -3.295859422656397
2520 2.7615951383382393 -1.2946832167800264 -0.9036012858041919
2303 0.10792763897365905 2.241717695199783 2.6820721171673725
1693 0.1358573881901413 3.4901268608408067 -0.1023769876268594
2808 -2.6365357506695215 -0.6934469846447023 0.4346850624095204
2519 -2.0401208355315488 1.9424387193866919 1.9246682173359762
2592 0.8887328117481542 -0.8103134123638376 -3.965631487644041
1692 3.5507640786671786 1.4058308471438525 0.8013648400856277
2304 0.21077945171364118 4.4000636135723195 -0.26469247026843734
1980 -1.0890284141761695 1.4491786262648065 -0.19300319467051538
2268 -5.077284901656288 -0.031864105678166166 -3.4317139346632897
2556 -2.2164863270574453 0.891382478307088 -2.818261791045588
1874 -0.9847312186130831 2.4657027724973655 -0.815027942024998
2844 4.747893667976702 2.966787986509714 1.6404833650424522
1727 0.3810502325848335 2.0477109068841877 -1.8852933828589213
1691 -0.3870286438195487 0.5452423701369639 -2.339398745719056
2555 1.1755888331189297 0.9836078512986697 -2.2802674979218285
1979 -0.7797440490024671 -1.4030671406771063 1.680088973165074
2267 -2.7819565498825773 3.7362817324871465 1.803840734672009
2016 0.6673104210755788 0.7283863300270791 -1.4037188140484056
2015 2.6729323485346077 -1.8134532916027044 1.050196969832905
2521 5.6997817790273535 -1.420860177771018 3.0702476261354184
2234 -2.3775880381815573 2.1632344378718775 -3.8802813266186673
1657 -3.9644728336740616 -0.10329908400053348 1.5255466401358024
1909 -2.7129698690337345 -1.1186318302306872 -2.409987542841845
2269 3.327231932802915 -6.853083965435717 3.717387874392647
2557 2.358156882033451 0.29276145489067906 -0.36435867708063235
2233 -0.4487308590547624 -1.419822998531822 2.0529388282080223
1586 4.657653184347564 2.101006938980986 1.6888525629352895
1622 0.2904947466695146 1.55905425032014 1.5371073044082808
2270 -0.9288193852698544 2.0905713964559376 -1.9539003214025426
1946 3.543193255445077 3.9147086653748926 -4.063763585898599
2485 0.40549669390658893 0.3122666940800815 -1.7305070711311703
2305 1.0749167518115321 1.7453160352438433 -1.9349590422428176
1981 -0.08084834277339563 -1.8252924806360071 -9.62291323640586
2884 0.3260089728527405 3.417343519272362 2.9676013600384734
112 -0.8468072379317686 -0.23345010385676715 5.718105724424666
3172 1.1837899145023936 0.2762111079827167 -3.6591518509157925
3460 -0.002505339224469626 2.172056501686473 -1.8055215743848858
44 1.8201661719876645 0.2001739289431377 -3.721102906983974
3748 -0.1819586054834533 1.1376384944171989 1.964480295556351
3817 -2.815178684770417 2.412807189861385 2.5542582372462355
3818 -4.158994957398208 -1.2087277889544477 -4.369582586351338
2595 0.8918980764098131 1.1264987538914093 0.48991926505054034
2883 -2.688027732106008 0.27571272891296894 -0.8302979082030105
3171 1.1462097538691183 -0.45030363207202184 -0.4676926970189194
40 4.041612588349045 2.5965455515702924 -0.876083754206256
3459 -2.1629518545624444 -2.2625899299766385 -1.0740309407439341
3566 -4.9262914919652605 2.0636313320144275 -3.1566772379064285
3747 -1.9418834470236321 -0.6315642258757537 0.3008712386498723
3893 2.139292239395623 1.2141115181601454 2.0231692414724947
2920 2.6114000086830096 1.0942978054580568 -6.065005370013593
2631 1.0926699929271262 0.48941952300081465 0.7473704208147994
149 -0.3469996064459593 0.16497258005761734 -1.691950895522114
3208 -1.2661517835862586 3.796649914494925 -0.3505668395641364
2919 1.6604619313547166 -0.3783026792528565 7.027610323441308
3496 -0.2884838105194268 4.33051192247082 0.7808722581698743
3207 -4.314113309133326 1.1096272882086649 1.6482462223812844
3495 -3.907034755254434 4.123836175472341 -4.193334937351345
3784 1.6403338868721895 -1.6648245697077473 -2.010431512163967
3025 1.6340127246615346 -2.3185352924767852 -0.931367884049094
3783 1.2402078933267295 0.01720551512835465 3.0743556845225317
3859 -2.454213002226167 0.4524451134002344 1.9014304337755252
2956 0.9027004000316937 2.44057084964406 4.248307766888756
3277 1.5206081922228678 0.028763988541279824 -1.4888486293991814
3244 1.0020551015291876 -3.37246837906663 -0.08875227438958994
3860 -1.944671372952472 2.55366627298874 -1.2830717071960165
3532 -1.9356238210714256 -0.4099024125310299 0.6165917785499554
3820 2.420866553866092 0.9050201235687152 -2.6638690284664497
2667 2.034374163156442 3.354376273536448 -1.498342001764155
80 -0.30365713377880127 -0.220781465014388 -0.8085986558136177
2955 1.1505739001005673 2.1809937818388416 -0.13498481526546613
3605 -1.8274574173763185 0.2774251207051838 3.9571551227409127
3243 -2.9443650411538083 -4.287544634745952 3.1138319281514857
3531 -3.4040649136217134 2.7400435648757377 -3.2246127308765664
3819 -4.536975023364132 1.1828540870046824 0.14872507409218685
3282 1.0415792426476804 2.3668658099740285 3.039621547768485
2992 3.8855497321209396 -2.38712020024007 -5.457384867110254
2703 5.043693407928825 -2.0833090308361735 -4.343828951246791
3280 -0.34797483797694273 -2.1018531260773217 1.475269820143967
2991 -2.2973079861174055 -0.8025367738813489 -2.0728333848983973
2918 2.818177184758 -1.602616949685003 -0.10201363968894198
3279 -2.4326296932206 2.8369696834580553 -1.7116893887784073
3568 3.405224174451461 -0.09393619950428152 0.12592497805948466
3572 5.068270623333805 1.6082769856093035 2.062151833598177
3241 5.806414297610176 -1.8251770883351892 -1.8976563492620533
3567 -1.7854509757894441 -1.4725216572932431 2.609968990135189
3856 -1.2139223300818303 0.894630444505318 -1.935887759029012
2882 1.107288124194955 -2.7466315843098283 -1.1458862005189596
3855 0.1469006282980852 0.4056888661934825 -0.11808315316177934
3283 2.211782990715661 0.7857592116352105 -3.350446422872428
2598 -3.6012912857031676 -0.045330717118724946 -3.7579139275311353
2888 -0.5713741993434113 -0.9109011696689515 -1.7880451544932907
2886 -2.0645419134268375 0.3602089205980033 -2.403219243213447
3176 0.9958674990200098 -0.8002322993561511 -0.7291007433420041
3174 -1.5535177367950854 1.4881116341917575 0.1888418639003869
3464 0.4764995949246323 -3.526238777741564 1.188503539912137
3462 4.69974408670942 -0.9836750467557157 2.0858318365309607
3752 -3.229467409177806 0.34601580892578443 0.18427479517759887
3858 -2.81193993632528 0.33625793216369726 0.97454140655144
3750 0.3908641383155457 -0.785760554323013 4.085557781798038
2599 -1.3132156314584282 3.3945594409601956 1.7717138818466618
2921 -2.877494442344255 -0.03926106911245332 -2.0850879987965762
2887 0.18239012155051104 -0.5632751586026741 4.069258907390005
3209 2.0350484198173393 -1.673093014588497 0.36674407758347494
3175 1.1925263397119326 -0.4464671670347756 -0.5317859235708672
3497 -2.1915803671280973 2.2700543922948517 -1.1006809885368491
3463 -2.757144083924033 -3.4212423641588012 -1.7650715892836986
3785 -0.20973090306243802 2.3886433338237594 -1.2913998942085008
3570 1.7512448511307686 1.7012899958097152 4.670645272604828
3751 5.937172750278976 3.7083571549972514 3.327290100084776
2924 0.2944200141772081 -1.599973750690792 0.6221267762081295
2634 0.5533480638727222 0.5191680078123058 -3.0841900926099926
2635 -1.209107785913166 -0.19152076770381798 -0.6349749357515135
2957 4.68806067441736 1.3135385530281944 0.44335093465279296
3212 -0.12061553076475509 -4.191207313939933 1.1374154567281571
2922 7.409923587962559 -0.5297751966864905 -0.4281758265483974
2923 -1.6142954952638444 0.3037120792963468 -2.4420585248057125
3245 1.5344401516927664 -1.1323820269125398 -3.482236667157403
3500 -3.4070725244334974 0.2756583563986223 0.18705899903893727
3210 3.883734511247933 3.303001710443237 -0.39320377055846306
3211 -0.7556799366354721 -5.864057238799365 3.8939933899341126
3533 -6.331392768157325 -3.5820494326395593 -1.258753967430004
3498 0.3972780253534168 0.8970115533109367 0.6193278143595417
3499 -7.4686535070688285 2.2683422523946137 0.8375776255257286
3821 4.292675044222653 -0.4931443947705935 1.4108879644661196
3788 3.3689262784841767 0.7754950058606869 0.9598934466079629
3571 0.5449001712687526 2.021685641784216 0.30250504855007854
2994 1.6731681408310322 -0.28607904944576 1.0788755954352913
3786 -2.780264573714934 -6.271020239089738 -2.2403841752309934
3787 1.286875297844086 -1.061423138572397 4.870703528417543
2670 0.7816969418971713 2.5188658441019562 -4.783907819887078
2960 0.7612620189410718 1.676294652776951 2.877277911943876
2958 1.450048716623223 -0.09199471634482986 -4.409703226923947
3248 0.1102575602265033 -3.3652219407607586 -1.97128266279069
3246 1.4963839895625322 -3.6357430734859726 2.226957446738732
3536 -2.269466380548328 1.5355426697875234 -0.06250255999615068
3534 1.4880137849886237 1.4125995399540017 5.321896467481426
3824 -1.7913037301064476 1.7776318244924592 1.9546480232778392
2917 -2.2184642630556626 0.1394723275253786 3.4857080689151725
3822 2.942035182685569 2.041153705860181 -4.38531590858756
2993 4.1303314361037184 0.37568240682165993 3.82945362879448
2671 2.419658898189662 2.1679036351653864 2.220494817439017
3281 -1.5567457193563745 -1.9876630786826586 2.2717306399616497
2959 3.741550750296584 -2.253948594740588 0.42827526886946204
3247 -2.971732910915292 1.1684452019649576 -0.6851254116214958
3569 -0.4012005066894274 5.012063997676853 -0.46231363092827177
3857 -1.9973858670342663 -1.096400387727219 -0.036670513556378695
3535 1.1956350210994173 1.2838475183231124 1.6584927113788486
3823 1.1623569269296874 0.09225935986120155 -1.212445503810944
2996 -3.5216036540374116 2.554986513787763 -2.58302281130015
2706 2.632305277326483 -3.7340374219022308 -1.7190981408024837
3029 1.9037257247052015 1.683061351055303 -0.4691634064436353
2707 -1.2162858109107695 -2.4388379962288407 -0.960299828480044
3317 -3.0670889749095958 -0.28215131793156933 0.268103826653106
2995 -2.885824006108411 -3.86594146866307 1.8146218081270193
3284 -2.6201528758723795 1.3798443206966717 -1.2329656197110883
2702 -1.0802586179622067 -1.1814332056213235 0.6387757055188988
73 -1.5006597682550642 -2.1830289608988127 -2.243099378028233
3746 2.202383078879223 -0.13880177827461412 -5.980371701997129
3170 -3.7740260351562873 -0.2817524115647253 0.6077525599587716
3565 -2.563963176900557 1.7217096835778407 -0.34114836757183764
41 0.8944200827688831 -1.5629823549764985 -1.749316771589424
3530 -3.6743280140850993 3.0110462688824624 -1.6309080960893747
3458 -1.0591722383567224 -2.574397690817469 3.680374880354437
3889 3.642537639253307 -0.8102335011383776 -1.5136591102987633
3242 -2.5715072495562925 2.053835079941914 1.0588025462261523
2954 -0.852627494397141 -0.588680249159083 0.5846177400323191
2594 3.6014034198460094 -1.8289601425904958 1.6754844751722981
2953 0.7594855372756587 1.2758638601499082 1.740620574030913
3205 -3.3496314863240073 -0.6508972795059951 1.9720313349904672
2602 3.062097936899967 -3.525671171320206 -2.6225795252286344
2892 -2.0914490941664696 0.045606199683094234 -3.5518187833799977
2890 0.09077478004005085 0.6309950024120978 2.216140598478526
3180 -2.8905770395293913 -3.1548990973219895 1.5782153168625734
3178 4.366215893562478 3.1982926151567264 0.3351862151977774
3468 -0.7020287751288673 1.4920396296623037 -0.07699752244156084
3466 0.677916033349769 0.471978276372256 0.44789299768542057
3756 -2.030366446334677 1.8629423592341907 1.3704794736464225
3754 5.362419192703617 2.4527181105382305 1.0351518990899058
3579 -0.02909650422337109 -1.5907893340192392 -0.03917305012030262
2603 1.7590768569886108 1.0392500998975984 -3.9069518690464076
2925 0.4359749850239812 -2.5496796993609974 -3.4071516554035517
2891 1.7183110373082058 -3.7308050493421083 -1.6146573993674187
3213 1.6732409509124502 -2.8589291517614757 0.6623130435536209
3179 -0.23067595092302523 -0.6744543943432071 3.713761051442153
3501 -1.892650413693597 -0.537010005850982 3.3393364275855153
3467 -0.1412815393902497 1.8764243111204828 -0.753243168011784
3789 -1.9241785946568408 -6.134532533106158 0.9875770891479047
3755 0.77734139328012 5.344271493255031 -1.1732410035027878
3867 2.0014037151259014 3.0624753027220337 3.1057065178902086
2928 -0.42661856494098194 -3.7956262638160028 -2.1233867145520766
2638 -1.9483692799133425 -1.658565037884133 7.333540300395404
2639 -1.552682100877219 -0.16835836569181684 -1.8773986929053488
2961 -4.653179046437426 -0.9531617679336406 -0.8471878166139637
3216 1.112957616820306 -1.2921043289708507 -5.933283310783188
2926 -0.21710666011921756 1.6854378339097917 -0.3313170228222732
2927 3.842946013059484 0.6892240141030314 6.820789504132863
3249 -1.672662595196273 1.4376909359762957 -1.986455764193763
3504 0.07366191298822528 1.0243140451465629 1.3734014589143189
3214 0.05118782662602573 -3.1298501518127315 2.5118705407962274
3215 -2.0732290791880073 -0.43693684697676627 4.7596805468772345
3537 3.6613457965188227 2.046072273078429 1.283391526187806
3792 0.8203898137140164 0.24029375588621046 5.5584380151547705
3502 -0.5711073979990107 -1.3311288188524737 1.7705901906901362
3503 1.6808633180614991 -0.4028903280410558 -2.8177108270354285
3825 -3.449202822803643 -3.8226028615605405 4.013315922637549
3790 0.4521687290485208 4.477236881050535 -0.22334707087804673
3791 2.0772578614565176 -1.533221927766918 1.3419318473597999
88 -2.4701729601657303 -1.0964138496594886 -0.4657407027475388
2674 2.5922902913456314 -2.2217165211184358 5.260834517968064
2964 -0.3608012493149602 1.7115237758190316 0.957055967415695
2962 -0.15761362189849537 -0.019594584757384327 -4.081007410059455
3252 -4.166851608772362 2.0699510581456777 2.6496999622676665
3250 -3.23268331726345 0.43985506433522237 3.5095763835761615
3540 -2.706606913476609 1.3816072178514478 3.6950644370377757
3538 -1.7883184298821773 -1.5541091290076792 -0.6806303645876342
3828 -2.4699232188586033 -1.9237811668803815 -0.8551652486924445
49 2.34855638536537 4.024715343351793 -3.1081904764775747
3826 -5.871360864155613 -1.0326155283247778 -0.5610305458231072
2675 -4.194455201298183 3.357858598188605 -4.0498849689391845
2997 -2.9006919657438006 3.284415751252974 -2.422957447463186
2963 -0.6987984965174268 -1.1251692673456584 -1.3679227410521297
3285 2.4052745176163817 -0.3706759070097342 -6.584941713583167
3251 -5.241405299277903 -1.7390363686204775 2.6086640851465246
3573 -1.8746953186287103 -0.3892380405454172 -1.5757184589617095
3539 0.9848782000375449 3.418582511864725 2.151088180666762
3861 3.2556799778913343 -0.13790959426301724 0.43600060899793663
3827 -0.011908961492708802 -2.5320868554229112 1.0442326882052373
3000 -4.524483030517465 3.589179458772652 -3.6772185166161044
2710 -1.6265563013183688 -1.3470124258257068 -0.17172333394518677
3033 -2.00768520613908 1.847290583183162 1.6630281608041892
2711 -7.510633101285222 0.7121157660445692 0.15897992376545306
3288 -0.1860454527188687 0.3540985934747525 0.6065951020973345
2998 2.5659903482145734 -1.0791481533693044 0.591815013784847
2999 -1.5570180241074347 -3.9672296832266096 -4.316226986680169
3321 1.398111738418168 -0.6583148449321667 -0.9886798809207845
3286 5.66192281234316 0.5324981693930754 0.40714009919636074
3287 0.13787689803567915 0.2521625879559445 -0.6781843966449825
3576 1.9984076510219266 2.6016371297030663 -2.05327498543553
3609 0.7191913718496324 -1.017777661944299 2.631889404143677
3574 -1.9818441973079528 0.416908424485454 0.9788251607166388
3575 -2.729485747009309 -3.0587205304374683 0.34027731690098567
3864 -0.9476768960722658 0.5682851163450281 0.04686167153341167
3897 1.0388781784702465 0.34508876361788055 -2.2775062774709265
3863 3.3671679027806203 1.9601110161780675 2.5819634394895705
3862 4.72402893005671 0.8962133246431123 -0.8475149923904014
3290 1.1894856153248687 2.9596685814123913 0.20178666273426338
2606 4.72979344839243 -0.44746327630722543 -3.47001415939297
2896 -1.337819124752554 -1.6735593988533082 0.12132487480606395
2894 -0.477802998404945 -0.6800672408786892 -3.202978685612035
3184 -1.787152256679256 -1.3739837389207445 -1.144712823890108
3182 -4.129977928757357 -5.901278565670403 1.4600923287245515
3472 4.0909758257316176 3.4395931806150863 -3.4050773670412458
3470 -2.3041237093755775 -0.9596612686346837 -0.3186377478398368
3760 -0.6558213960550432 0.14735798880633358 -3.2939313601509954
3758 1.6248349799877289 -0.04640579169923975 0.20316023725443746
2607 2.500380697441098 0.31792796384996735 0.2051245762788852
2929 3.7290463145268693 -1.3817069583290416 -0.7694011576203733
2895 -2.648602012778206 0.8226056662779245 -1.4152744173703204
3217 1.1495957952164844 -4.0295263529263305 1.6794761754639869
3183 -5.301178428552563 -5.765262695394295 1.6040860990430008
3505 3.451737788133211 -0.7608099466356689 1.2427838577076562
3471 -1.5108385900825243 1.3090302737860235 -3.580155484631023
3793 3.2924550691076964 0.8157898764648619 -0.3862591105259166
3759 -2.5361050056911503 5.027807012675108 -1.1565564700720836
3868 -2.055642106423456 -5.711891821110181 -4.037239180744752
2932 -3.018442086701733 -1.3176084543828954 -0.24817514609865193
2642 -0.7980088807476541 1.1927833543611355 3.8951948271161227
2643 2.579893526886201 0.8330534725636224 2.1361895303835916
2965 -3.531208935756514 3.03476579134146 0.48813226320288944
3220 1.7502087017934138 0.937953462035478 -4.877149117660299
2930 2.697264310203994 5.712184849755776 2.5769385159096894
2931 0.02863618483917858 -0.03875916257697373 0.7107638510491037
3253 1.2396141920178088 1.135553902652414 1.8003881154664507
3508 -2.0404094719027883 0.47103793832792634 -2.457596695164019
3218 -2.7057284010238245 0.25164047422703745 -1.0424013798039609
3219 -3.4550079763144645 4.462473971914199 2.557556323021104
3541 0.5516295615596766 -2.7279920348835955 -0.07136329050443538
3506 1.5832621015567279 4.038975288175626 -0.5104706487917158
3507 0.6236256033732759 0.26408856865430996 2.3209460337674033
3796 -1.2213483191575767 1.2874243270359926 2.6645748862382352
3829 3.798619660395317 -0.1778637908656803 -3.7276907930306615
3794 1.1327932491731108 0.18604733008390645 -2.511350700633981
3795 1.9136196921022421 0.5983926746204288 -0.38151827777291997
3578 0.06837739622397639 1.345802283956519 -0.09331615702688578
2678 0.7827115609172202 -1.4980303068531056 4.142264051241472
2968 3.745565414468961 -1.721597898979489 5.104787702726984
2966 1.0973374517849095 1.0838756241490763 5.272812549930754
3256 1.3371766176353768 -3.1853445369202493 -5.576082519674981
3254 0.9258623496856939 2.196138429306525 0.3263184744707351
3544 -2.455038201016803 -3.823924784865229 -0.9806638793435927
3542 -0.9343006386857892 0.8551719606509436 -2.602564098332614
3832 1.7469505365953009 3.0789228884885467 -2.428543385282877
3866 -1.7894732682159302 0.8847602274052158 2.425303117034461
3830 -3.927574307713129 3.0054628938485246 -3.6131217658207184
2679 -2.606441345453466 -4.6179730432041355 1.9522923984125122
3001 0.6127100813212403 -3.600068082586948 0.34742590621337865
2967 0.4321583800145325 -0.4460204581463421 1.5937511473151587
3289 -0.6291439785711064 -4.755931724103309 -2.644676595819239
3255 3.41843575266795 0.26983148119181605 0.5645401260104446
3577 -0.706331186118149 -1.0571589201467937 -1.1510831391349228
3543 2.093968657656825 0.2706637393794404 -2.024283945570248
3865 -1.8501847150518125 0.9582316398092472 -1.3176923389815263
3831 -4.035897436457493 -1.83364357165056 0.4908908710496999
3901 4.065293101186468 -2.9083773312485586 -1.3124288998027736
3004 0.7812901682589921 0.4385025353768014 -0.07741355994459287
3037 0.052824583657389415 -1.5834779376637025 2.0436530484851727
2714 0.39865268267818 0.7197277708207658 3.844282413735501
2715 -1.4756420899917377 -1.6519061307155252 -1.5098158320907513
3325 -0.5213107685353451 0.61362898663825 3.941199526276205
3292 1.364918412635083 3.1408347960881398 -0.29977005763243875
3002 -0.0430575283045683 -1.2474083563699592 -2.9569318826340023
3003 -2.5877635483956216 -2.1259464274080377 -1.8690388379569063
3291 2.0235435182968415 -0.7871680260625673 4.616583117103192
3613 1.6640244565462685 0.27188930748456847 -1.4630197539303624
3580 0.5482755490829427 -0.6088484871834557 -1.5626230050855439
81 -1.5790788101914917 0.3249405245428304 -0.2746952907596926
84 1.9653730628363921 -0.9519669612161167 -0.42757389174868216
153 0.4640667275603755 0.7780659193507282 -3.642996374624399
12 -0.039858047499249157 0.4889996141808371 -1.5071626828678986
121 -1.404327743282607 -1.3862415428801296 1.6153876122898545
48 -1.8582801473040795 -6.489741611059475 3.4366013850635633
16 1.9194335480915217 2.07927141852101 -3.7738596906639144
120 -1.3302536977808757 1.568801070663095 -2.5811316517145513
52 -2.2050093430927573 0.39574353270387386 4.500668445262664
2610 -3.6926763611348283 1.4038662887569568 -2.1811035575216104
2898 3.0003618566462085 -0.4229847385750681 -3.7903511498204137
3186 2.4633055095336123 1.1536604447284553 -0.8507641072406724
3474 0.1494929721921094 -1.051353305151684 0.7700728508937054
3762 -4.967630699412544 -0.24481765399653768 -0.8854211005228626
161 0.24699161283990104 -3.091864530407809 -5.121870666964119
2933 0.5647119992958967 -5.338218106469361 -1.1521945185482805
2611 -1.0643835197255644 0.21609810446366834 -1.3829752463961087
3221 0.6098889062471524 -3.229808572009408 -0.1662096700525265
3509 -2.343475407615028 0.5898112404823859 -0.49039640600592915
3797 3.3904795623757935 1.754561935824114 0.21505525066517547
3475 -3.496522456971436 2.3402763490977447 1.4216984887712916
3763 0.16480912597197608 2.145589817498223 0.7962792494043965
3621 -2.6893297340246938 -0.3241544061465894 2.123468561004519
2646 2.625646431788178 4.280985811248996 2.4782628186923596
2969 3.7826891938796257 0.7373903572412019 -2.5382915547218903
2647 -1.176703529908587 1.6014667529727036 -4.921532558102417
2934 -3.7516205570854972 -2.37167347452235 -1.4187169305537277
3257 -1.8089572998767256 -1.243358982660822 0.14007291458957596
3222 -2.5066178236874923 1.342307970354608 2.198444605632626
3545 1.6082167418874038 -1.1873722899715264 -0.9390954231809421
3510 4.347024945175645 3.3913618381229296 1.2938209028581953
3833 2.087104053172086 0.1684130715642531 -0.7489329875861932
3800 2.4465796833087645 1.0803849335430031 -0.6660172816078611
3798 -5.207743019707935 1.0253949547139563 -1.2627433224861246
3298 -4.159569929663565 0.8619889899833625 -5.032170547513123
2682 1.1906117580586988 1.6040923452387483 -1.4257718144199374
2970 -0.1967512931570399 1.9101988873984872 -0.7516019653792371
3260 -2.9030236765719883 -1.38786991222696 -0.5461716808472953
3258 0.9852735470300544 -2.0631142169194465 1.1197136535717211
3546 0.8142942062735918 -0.7747269576260529 -1.6476135910277652
3836 3.536561888568198 -5.151963390923306 -1.8291916784600202
3834 -0.4768408336105335 0.41036094235289194 3.9860139122144194
3005 1.019812847789402 2.139040427997803 -0.11505527545874385
3293 -2.9991231293781015 0.6314795628284926 0.6844620792580373
3581 0.21051244910471442 3.105784057014239 -1.0232425597725772
3259 1.4550367613057285 2.6231343104959017 -3.708809444890145
3869 1.1859236747752873 4.058478229639949 3.5591405051734357
2718 -1.3046841220859136 -0.20583074415409183 -1.449716631025452
3041 2.429336375980163 2.9049604544639878 -3.0945317478300827
2719 0.6149486595958368 -3.5821712307885654 -0.8384972361453666
3006 1.8580664394886937 0.07922044792356092 2.1294451920860644
3329 -1.0991228664290544 2.7165915968457233 -2.548823934497255
3007 3.6888451122066774 -0.2921287881510845 0.2740921978322512
3294 3.3726253495971914 1.4710759410577765 3.484529568825294
3617 0.663592551167239 -0.2631801472480655 0.3782298204379903
3584 -0.04816163255717151 -1.1215395412661906 3.02054502736374
3582 -0.7683460612284241 1.6503925826972725 2.4936270835516874
3905 -3.960067199209326 -2.1436968629028716 -3.020605613600348
3583 1.1353349639147194 0.8201655833468712 -1.1213923421071395
3872 -1.392942280444193 1.8612747101509475 -1.9562158908305067
3870 -0.2122791902829434 -0.6204182347882192 -2.0890590158171194
3909 -2.050267976930829 -0.6793885582642184 -1.2605045815855453
3586 -2.143297100100246 2.125325380512977 -0.47495588635961317
2900 -3.7533979951653507 4.122961103024979 1.7972780551804592
2614 0.9877521990929915 -4.53162076066741 -2.9562698058758388
3188 -3.982952866601758 -0.14811998047911398 -0.6556181855784209
2902 3.669325947884175 0.3849110767573238 -1.3467725511333306
3476 -0.23696748601081355 -1.9164487591192811 -1.9806321793889756
3190 -3.186162745215594 -1.7225567907279848 -1.6666069606659009
3764 -4.303492620204512 -0.13122700072673923 -4.313599583258537
3478 0.8858769307052814 -1.251446110397528 0.964743853065302
3766 1.8469487816533938 -0.8349369407355333 1.4525872821707824
2937 1.0268909172061904 -1.1893000861621688 1.0211620173395346
2899 1.9283749428308148 2.5531564322639455 1.3853023088675729
3225 -1.3213580594061396 0.9031875098842631 2.4297148970761517
3187 -3.166639008094045 -3.0312967330654175 -1.1507260902541638
3513 0.7050103219770887 1.807818505050325 3.7679299527172634
3801 0.34443710054670135 -0.13158212415098663 -0.22474803866434134
3871 -3.301844160552758 -0.29537594995553806 -0.44135026792170945
2936 -2.863862302805912 -1.9910864379941209 -0.8290825288424132
2650 3.2505945014364284 3.7623194614447657 3.96751989182329
2973 3.016937422395059 -1.9333293024268416 0.18085874820625533
3224 1.8628505192174867 -0.33740663800183507 -0.276846666205672
2935 -0.6239375201684649 -2.6637119167352954 -0.7804588012985471
2938 -1.2746480891963183 1.0953841472676373 -1.1408135147513423
3261 -0.5679100626319024 -0.4487257485508117 1.4968620012112446
3512 -0.21893870336804477 1.0696691504061575 0.15021958470151417
3223 0.19212197060737662 0.9191187124373735 -0.39143324630945
3226 2.685968097156567 1.2445524674262938 -0.3728358806463646
3549 -1.4199269221854272 0.08887105477082895 -3.506073397989354
3511 -1.430296286408387 3.744129117807244 -1.1268573046142623
3514 0.5531441436285393 -1.7947222330842454 2.034392900595138
3837 1.6165099571394952 0.652010952151394 -5.510548972572469
3799 -5.896485433155482 3.101789490781797 2.209476258898723
3802 2.993477749587097 1.91801917358331 -1.0156031232604992
3874 1.8455643731371643 1.0498190976902175 0.4176913903028271
2972 1.4644652476615436 2.1407750500911287 2.2743554250691256
2686 2.831649456347091 1.4226355119285172 -3.2227342054480594
2974 3.527663779292552 0.8862416157995204 -1.5812645241162566
3548 0.7751450700656617 1.4264678987356583 -4.011986966150081
3262 -0.516615134972397 -0.6012163099507556 -2.12727460237876
3550 -0.558886421359806 4.840479061555832 -0.0907336134459353
3838 2.3406423243127925 0.516168534000315 -0.7401710087829797
129 -1.7512210504489292 -5.274048401307906 2.1950231473328548
2683 -0.6384167995473649 -3.967635412667959 -3.7651336227797647
3009 1.0879410806216676 0.15471676056719288 -4.3723683868987
2971 -0.7736078723828477 -0.588315248401339 0.09142577274664322
3297 -1.3293852337114267 -0.5267588782210226 5.476888408771011
3585 -3.322613641411381 -3.0780473702542697 -3.8800600168219583
3547 -0.3801253051937609 -1.3519634903749185 -3.1660140558455803
3873 2.9050100015187397 -1.5402342289094089 1.5380837638322258
3835 3.474736490530042 -4.39155082445551 0.4626043198635144
3295 -2.2726251324369 -0.8260180530596722 0.6548876293562514
3008 -4.9421355049120175 -1.0188647700546425 0.49612390276393276
2722 -1.8508012459204959 -0.6055687962440387 -2.42001291296257
3045 -1.2321341357068007 -1.2688715228669456 -1.5124044432818924
3010 -2.22353775250694 2.803816249659312 -2.540454499277055
3296 1.8013624224254545 -0.7778538758450555 -0.7974964322977354
3333 -0.5354267376427894 -2.2082785678428665 1.3843402085870176
165 3.3485167228818487 -3.6423131980702936 -0.09026133397041132
93 1.1574976004627935 2.43762220946598 1.6194524875572647
57 1.187429658854773 -0.7530112134565488 0.6774523360805228
56 -1.5765866277795346 -2.3915445690223565 0.798066688847885
53 3.3496038227562117 3.995628328709276 0.8096312332797276
92 0.1798332471020525 -3.0470253036588093 4.706910240893247
89 -4.577112250336663 0.6011245674030167 -4.300649538877628
125 2.574828327966634 0.7339089266898289 -0.5901376582659034
128 -3.0362161364831417 0.9040549429885134 1.221902328919208
2618 -2.6883439813550605 0.23896660959059493 0.4812181717355615
2904 -1.4421982639442164 -0.44860191115505454 -1.453934148805931
2906 2.374805429625592 0.46403577902957155 -1.4352659089824455
3192 -0.2581409090044478 -2.4265307961595455 2.275050746919059
3194 1.6554577464364726 0.6270170127137421 -0.09157691837239065
3480 -5.879409689964112 -3.343732609541317 -2.5147648571847743
3482 -1.689312089117939 -0.3938507959021799 1.4890825637968617
3768 0.8983607120420057 4.403119155881344 1.4459344583793126
3770 0.12820323243276338 0.106827960935387 5.055104753261377
3879 0.3830102890141222 0.49050262421044494 1.5899936830357175
2615 -1.1245910360774571 -1.9323501177822895 -2.785707915907203
2941 -0.4548530662277579 1.6515958429971094 -4.290909929243875
2903 -0.5710958351593871 8.042537769182294 -1.7853078016425146
3229 3.891138786172178 1.6905613355916613 -2.822333100076695
3191 2.6349392374117335 1.0891057078409738 0.21170328649524545
3517 -0.9584449358623881 -0.01107065165888901 3.6738340235310334
3479 2.3146189067669964 -2.5830195722000115 0.8696736635402234
3805 0.8180704600711071 2.349916919339195 -3.153996272289258
3767 -6.56074071959468 -1.5500744196046712 0.17640628714067752
2940 2.5049458170626244 -1.3439063504040916 0.6707485865830238
2654 5.894125164088193 2.3386941321893344 -2.076547061950916
2651 1.7123745533102899 0.5382880634218853 -2.6831764698432123
2977 3.150833649495102 0.24557929817483398 1.408222665660365
3228 1.1680971568340686 0.9877436489514626 -1.0811787951473986
2939 2.011567116375956 -6.662783165930602 7.649961553251558
2942 1.4992086775806615 -0.49024068194144865 1.5819502352041166
3265 0.5899262634168573 3.754313144231426 0.48175167989090995
3516 -0.9364806737448497 2.5968992469041927 -2.3713628186226257
3230 -1.9869726109791697 -5.153282267197927 -1.1842180090087944
3227 -4.90061883418999 -1.5294388250994082 0.4831880233842166
3553 1.8826288539356173 -1.3477962820686766 -1.8104974291264595
3518 0.25579315207173564 -0.3542856582376683 -2.543543916579802
3515 0.04152802435138331 -2.537217164295587 2.3650850697886026
3841 -0.47021321246372116 1.0185625145001513 -4.2392467583163596
3804 -0.6701469744681453 0.7142595865611697 1.1426077849841192
3806 -1.3946075835830365 1.489365391449802 -2.3129971632824864
3803 0.23084753861573748 0.6592089914533678 -0.7191165329643936
2690 1.0264119457341676 0.050914413667611715 -0.7607514245194981
2976 1.21953832725944 -2.1630409971208637 -0.11439987814821972
2978 -2.758276659300406 -2.068044864789803 1.9815339388980326
3264 -2.014156857526182 -0.992830802043918 4.155692193016735
3266 0.9674886362930485 1.8642246514285625 -0.4875256708588721
3552 3.274957829269224 -1.641682280535673 1.6706750195633424
3554 -0.44831739183341324 1.6190561936144137 2.5218520584821427
3840 -0.3697237281807627 0.15557345239962223 2.9662524407269277
3842 0.7411048003240345 0.49867951103886266 -2.1084630895418743
3882 -0.14666943199412372 3.1573057012787884 -0.33575522586111833
2687 -0.6106858397372341 0.11959132363858598 0.4090243578278702
3013 2.804166872094713 0.5233041966507224 -1.8264864211161391
2975 -1.849675277248587 3.7990159760498137 -0.2908929529259156
3301 -2.2228555167730666 3.575200530741799 -0.1708953727802316
3263 0.8871646677560946 0.4103541229024175 1.8571899020150462
3589 2.1485867595068004 0.29434129877274234 2.928359480847778
3551 1.597618130231574 -3.4409867214064107 7.589117479776389
3917 -0.3129818453198481 0.37933239099367994 -0.8181165479809409
3877 0.36851936304467736 -1.263103120975543 0.2875900180526068
3839 -0.5796995371020108 -1.1205410530580036 2.7948031423648785
3012 1.347250838223997 -1.6997787618198559 0.15262715527119897
2723 3.7863306742151677 1.8272587863920948 -2.537568959951635
2726 0.2448411666764056 -0.1163322079639746 3.640293912152663
3049 2.6668242504801536 3.5875449413103278 -2.999424357430665
3337 0.35644665735010056 2.036839707967851 -1.1392428029837762
3014 4.363582793366362 -1.9860688574334135 -2.024963002194437
3011 -0.9694155067547703 4.810215753998009 0.030505513411762348
3300 -4.522720018103042 -2.6286860804371868 2.7504091921223526
3299 -1.8110925359048116 -3.8172398404934262 -4.6185857175568295
3302 -1.5682957733247076 -2.3631696281357835 -1.6489504066282252
3588 1.949596022359403 3.470604503447381 2.362102733727578
3625 4.141514986485367 -1.7242056466004865 -3.2193880753355324
3913 -1.2128156009671702 -0.426687804497096 -0.43332476791238794
3590 2.6838316926149313 -0.18544024240281418 0.021616934322930707
3587 1.2611406780865289 0.07592642661704532 -4.008334003893793
3876 -2.207422928359923 1.1401807420004608 -3.7113148391122692
3878 -1.8005546296996797 -2.521080853940198 0.4504869402930634
3875 -3.845813077907111 -2.646215149019377 -3.8131484720479163
100 1.118295107921131 -1.010097466395319 0.41605871124602845
2622 4.091350805287274 3.574117190166789 1.570237356225819
2908 0.4647908995169523 -0.3204697743967265 0.1511628717481416
2910 -2.1044171959082942 3.3090852912433117 -5.045790822431805
3196 0.6250336616165566 3.2019003148820415 -0.43968183068292976
3198 -0.6129576530216245 -3.8940446749918043 1.693857439587022
3484 5.66308294410804 1.921623532051613 1.4935883398373213
3486 1.7816302434371585 0.002114932629548208 0.985593388922418
3772 0.02256736945134985 -2.186741185759941 -0.3546016197418308
3774 -3.078013124764738 -0.1587426837672246 -0.4517454903205671
2619 -0.16183309113610173 2.711244649553721 1.19020081182771
2945 -3.509828756628143 1.0498400783528037 -4.591816199980309
2907 1.282782207051818 1.7564045173080614 -0.21301001234584988
3233 -0.8503113721887998 5.569181394133576 -1.2851681857325328
3195 -1.665666104004583 0.5378861878322768 1.9254067291415318
3521 4.691021065362494 -3.7970936946236558 0.5190429811029583
3483 1.5475425158813432 2.477306111065425 -1.4065489816725336
3809 1.2443919757004134 -0.16209321055296413 -0.6957771724171049
3771 3.1428554878922497 1.594243796631327 -4.1591878668957545
3880 -3.0633360158188165 2.3941822698775446 -0.7056766713391921
2944 0.3687988343485924 0.02703975708715074 3.6673221027642713
2658 1.750186480603309 1.288997816032601 -0.963267768869283
2655 -2.606843450617226 -0.5043862472125189 -2.7327298306023677
2981 -0.6425580187454446 1.0672504894846861 -4.783661350450883
3232 4.449171625299697 0.3164937628279104 -1.7744695205258447
2943 3.2222683721610452 1.4150336409617852 0.1145931478681539
2946 -2.382800363062617 0.07092663275755022 1.2690551158686714
3269 0.6278359582141001 0.06968384357569292 0.14892271818455868
3520 -0.2051001538008746 -3.4143621110834004 2.8162678850801734
3234 3.1598421267305334 -4.834379668139954 -1.8600230983523083
3231 -1.4590972045612778 -0.42111628953349595 -0.6251896255230251
3557 0.03489463493115464 2.6270381145503627 0.3075948747804018
3522 1.6032019018627157 -1.4851789558760833 -1.3625606172837004
3808 -1.728826289771367 0.0322019734766402 -2.3293129463595146
3845 -2.3619158295446288 -0.2533115919188915 2.3971314455085224
3519 -0.5274022175287127 0.4852709446139782 1.4754703960818452
3810 0.9702795668063594 -0.5671103370799265 -3.784550978365713
3807 1.889814637019762 -0.6456198001002338 1.131444085666578
3594 2.657508538023657 2.2803272191132393 0.6037317427831598
2980 -0.6963771906795011 2.8282190136695085 -1.0078501967594213
2694 0.017712958958512652 0.07512944203227137 -2.9267816742613433
2982 1.505487357245454 0.7613728112085794 -1.4846464249760907
3268 -0.7664252049925329 1.9280270086599727 -1.5657290283193337
3270 0.12265766191569989 -3.9443910334133343 -3.3261250195107057
3556 0.7995047352289206 -4.2039001573971415 2.3149025388597
3558 1.9008633491271092 -3.4320133919665183 -0.9334872109295458
3844 -1.3261534621124638 3.0465699119558187 0.4421340740338786
3846 -1.7066805246810748 2.3194919846560857 -2.0229891181408513
3591 -2.6677217363879517 -1.0619193562227003 -2.790236257663035
2691 -1.1505094694094793 -4.881833273727034 1.6411840372567537
3017 -1.1518459256580151 0.4885387522686849 -1.0509978591685554
2979 3.133617310580607 2.7569653756147963 3.1090758699211283
3305 1.2186263409301277 -0.8100487985830798 -2.4301399906028935
3267 -0.9524329787700105 2.942692768925888 2.3980538178416153
3593 -1.4461895021311106 -1.6158169509503086 -2.7861117340578043
3555 -4.311465908554896 3.97000318811167 -3.1156250255536677
3881 3.9375263364248774 0.02820702724733261 3.0175974912060886
3843 -3.058716555249448 -0.9074986095814306 -1.3318053859081205
3016 5.731427266136424 2.4511660354792735 1.394230960520273
3053 -1.0910961213470118 -2.118384932579183 3.7937320681086177
2727 1.0354893279141477 -0.9946275098087145 1.2313294098392307
2730 0.23759580379751638 0.7976945981815728 -0.74535615545636
3341 -2.2016593514950045 2.0979791507699854 -0.5311737642003961
3015 0.1434924928180221 2.8494526705435197 -4.796784387733464
3018 -0.34983838816192453 2.8610732574004967 -0.2082113087392656
3304 -0.47312403138667325 -2.4656080707816295 1.2237641623483706
3629 -2.018315016231035 -4.139992574153702 -0.8067153238736252
3306 0.023591091995640672 1.345446214143699 3.4153135932427943
3592 -0.3157822776097665 1.537726179672675 1.0446740057351271
3303 3.3046428433595665 -1.9878445251382002 0.1569361477669867
24 0.13893422441930284 -1.300547632822472 2.4750066755079936
61 -0.3517538711434307 1.6149565869372005 0.39960992791880107
132 -0.724640600476335 1.0899807375731847 0.16050778545805688
96 4.109751696781736 1.3925182355444155 -1.0213693504708068
60 3.459375127946102 2.1227747986530785 -2.088013089411345
97 0.44568417282777845 -0.6017160038631554 1.4932060062539154
64 3.0696433106202985 -0.47266060846039326 1.5825816311502472
65 -3.539484762592739 -4.659665622422236 -0.3553478128622023
137 1.0016992019519562 -2.2364049617488564 -1.9929326719383613
2626 -0.8134538822403136 -0.6247008406953993 2.993841024964585
2912 1.0073966845020956 1.6587394678507414 -4.060463573288132
2914 -0.21095801355339827 -0.35746622331323896 -0.712476318430535
3200 2.873643204597058 1.2284269981065075 -1.0636660131999436
3202 -1.3127429851528192 -0.1847540175997673 -1.4865626172657274
3488 1.073514350462002 -2.154832767834907 -0.04467068124506704
3490 -2.0439444335893877 2.081527979075468 -3.9223278817320857
3776 0.8559441329945021 1.6400127486765856 -0.8443444177837514
3778 -0.6296314287402934 -3.8885264753844604 -0.7295395546104656
3206 4.743090843805829 1.0800835440681373 0.9348840094542493
2623 -0.5069276391363399 4.1865068129550576 -2.717137556216824
2949 -2.618482106050315 -0.39440759341516174 -4.7002948312673185
2911 -1.3822442362402023 -2.959770577287874 -3.8603069555566316
3237 -0.8513305649869111 -2.9547224729626516 -0.5329063666366101
3199 -1.7296059207777803 -0.9187737429726547 -0.5606034847978247
3525 0.45542926029423714 -2.327640268604311 0.8200978627455082
3487 -1.0874024462047445 -4.26287690050217 -3.473949749014828
3813 1.1427161132227461 5.303823089849437 0.5274375652312795
3775 3.646441473328747 0.818735981881145 -2.408601800414566
105 1.2609514401334094 1.5485579049908558 -0.5491363457076851
2948 0.9592524557355607 0.013039841383320372 6.8663957431972875
2662 -1.9405693538552433 -0.9568402599940105 -4.699088890378763
2659 0.19384619477276266 3.7290898093195635 0.2154116203731471
2985 3.9688088611289283 7.009468891201103 1.323611533429662
3236 3.7306684389526974 1.6587683561451623 2.094859956730256
2950 -1.3982734475831697 3.1298256306698837 4.67296481125517
2947 2.92651207432996 0.5728955830441645 -0.2510309077999203
3273 -3.000749681401674 -2.1495157538116256 0.15906233095507588
3524 4.433977751619162 2.8353944395159885 2.877472188882342
3238 -0.7571490540389817 1.5827575288531501 0.1820690187984172
3235 3.786308098783591 -5.061411871188802 0.8157375870053726
3561 -1.2038187929252173 2.5426981429835123 1.5775857606814163
3526 -5.219622183279804 1.473738759255023 -1.4663523901375293
3523 -0.6743353363671907 0.1514211859926602 0.3655506281254289
3849 1.1989524776306537 -0.8537952091930352 -0.6730945712161949
3812 -1.435908522026687 6.309948212645695 1.6597947903520882
3814 -0.1423516349338371 2.370637718075781 -5.143018978009904
3811 0.06174818528986959 -0.38218372500961156 -0.1932062966642126
2698 -5.594106771324804 -0.8025453897641156 0.8666545747167677
2984 5.941055027862063 0.3867158504276629 2.0601971577163574
2986 0.23795206715683914 -0.2873249617445295 -1.4349264612940758
3272 -1.960438331215666 -0.02662727297746974 1.4360731307274774
3274 6.346310849640119 -3.033886512627368 1.177580064566784
3560 -0.490506228869286 -0.35298753067126726 -2.700966588044261
3562 -0.8802227555057296 -4.336110273160987 3.016054122795593
3848 1.9556972558130168 -0.44451896879434905 -0.14871286665705674
3850 1.6743960984026312 -0.9885125947009811 1.1779757551235284
32 -0.36857044940253963 0.07425115714333963 0.726565562003714
2695 -4.661154082488608 5.207247304368498 -2.2931426766737433
3021 -0.030813174717464885 3.49167286172497 0.3930738687652154
2983 -1.6826959914996464 -1.3009119226791181 -5.335703999995588
3309 0.6237989442738651 0.3882948259213731 -2.855674463386775
3271 1.9080077446273207 0.7028417032211954 2.8864574823928346
3597 3.322827378703768 5.759939951921546 -2.0115662254108475
3559 4.6558952574864945 -2.3807370672624026 1.1360420987843396
3885 -1.8938135728018766 -0.49821868375794215 -2.116755998716308
3847 -4.198799670123137 2.234029722197617 -4.797400894274991
3020 -4.175021408505628 2.2856822191108215 -1.3388177345901644
2731 1.6563820282138044 1.1327128541482616 -0.898266862612463
2734 -0.38954858314601815 -2.285187357618061 0.49200454014608735
3057 0.494903920459824 0.18907787792184005 2.2450684180718636
3345 -3.946842703804469 -1.3922238952649497 1.0536667407271514
3308 -1.4884339256950072 1.2689329539989733 1.4523130567925937
3022 0.09000532555927007 -1.7748662746948773 -3.613124056219198
3019 0.5918504027835554 -2.4750314690700455 -0.4905815221494885
3633 -1.1463722973844557 -5.935349787404768 0.2497448979395818
3307 2.339558274908831 1.0674893165608974 3.3657030523687603
3310 1.1701504967985688 0.8978688698994983 -1.580196320785758
3596 0.683046826041813 -1.1644803112663198 1.0799566409038506
3595 -1.3766286910642864 1.6109201624484997 -1.6289711236094226
3598 2.284044989353144 -5.999225552952016 0.17890915904679816
3921 -0.7211982615796183 -1.5838241661944963 0.9331820687022107
3884 -1.3084227204639838 -0.23415118218994901 -2.347187819538457
3886 2.0756861143276666 -2.131622962306639 0.10409174026522935
3883 -1.651949939070778 -1.5753633899474022 -2.214711632080148
3887 0.33417494034608686 2.8114026342091782 1.8146393350773706
2630 1.3589497448774635 1.5649397716108358 -0.5813203339897374
2916 -1.485344516728833 -1.8429906458530332 0.5000753570160738
3204 0.29843294049553826 3.8800258046001286 -0.27499799057292856
3278 1.0200606456457868 -1.9850177241073053 2.619985182053543
3492 -2.6950805462325267 1.8800345447323017 -2.2068835116917653
3780 0.474898007895338 -0.5208954091227178 -1.7322444985136884
3854 1.2080371317746221 -1.9743944647534948 -1.1593773523783515
2627 0.17405787101415787 2.1914386814866513 3.450709337498123
2735 -4.010564883654802 1.969089491026258 -1.7832833623370654
3313 -1.901151675809772 0.9249031254121066 1.6909608100839348
2915 0.13064780922161567 2.6827978624756934 -0.5976285813705878
3203 0.6690856532043492 -1.3579621908249315 -4.292469048423311
3491 -1.3955160944196052 3.401349173703333 1.2160467972631657
3779 1.4884153497186026 5.113250445974035 4.269352492235427
2952 3.126179635510931 2.9012737877950663 -0.533935111216606
2663 -1.404647074858064 2.0366059143592454 -2.70565865660001
2990 -2.673078569875549 -1.3841665734708823 1.0855085133494435
3240 -2.9080627966052655 1.489909618348986 -0.22068725056399355
2951 0.32610466353155815 -0.7692751686057675 0.4704439810725353
3312 -4.506882817155517 -0.29704297422188064 -2.1467748121587253
3529 -3.0978583902821444 0.37220934063024197 -2.569967118324702
3311 3.961545666999595 2.290083387797981 -0.19667535085166002
3528 -2.8187717287478877 5.292790456914473 5.175161543608813
3239 4.3907245286345296 1.7466092158109063 -0.44449515479341334
108 2.2054510402273455 -2.910612381119089 -4.291294936727675
3816 -1.5075234285043684 1.0695649842618928 -0.4131414087944899
3527 -0.7607728941713402 -1.941411364346839 -0.5042165223420384
3851 -2.0375452206801627 0.5535703214792529 2.60433922899965
3815 -1.2471369294538197 -0.731499080088135 1.6154438742797546
3024 0.5502938450947302 0.35455226478289514 2.059271747932415
2988 -3.136432600404185 2.61407645743014 1.4708886319187116
3276 -1.967756068972867 -1.3303785137035942 -2.070850559977264
3564 -0.9001096050223732 -9.092308688185062 4.3004283298628065
3599 -3.4264146693890787 -1.5046365111190387 0.5122885875314835
3023 4.758136948445499 0.21392731071872914 1.425983397955157
3852 2.247097913773354 -4.518219936504091 -4.007378965977297
3600 -0.1193806600462324 1.5495540232620806 0.7918198624531215
2699 -0.7650435035676877 0.09580348919377528 -0.8914823624594849
2987 -4.787109396717539 -4.317923695588472 0.8208499952715725
3275 3.5238860983562605 0.7621643210658219 1.488318181248218
3888 -0.9724378853617052 -0.7479068595588044 2.3680379535024803
3563 -2.4453191576030258 0.34191898121468994 -5.297804402585949
3782 -2.0627272911067505 -5.851565939866522 0.4313666126015739
3781 1.9910529134664694 -0.3186315844105053 -0.8077696139273151
3601 -1.7828410439897318 0.20042567768408448 1.350375173003416
3853 0.9948267151817378 -1.8449041774957151 1.0200823864242479
2989 -7.236553802509456 1.7533340358103697 -1.2647764880607866
3493 1.9167426068744116 1.846150846605935 0.7021754350343767
3494 2.534862562643951 -2.5392830774375614 -2.992784632533414
2666 0.6964588552876803 -1.3784829607058167 0.740492112997972
3028 -1.1882531958087827 1.504905590304194 1.9454835608853227
148 0.03977906068721758 2.7948090478640575 1.7846133110585747
3316 -0.9785983157444045 0.9842008881413644 0.3471630275101037
3604 -2.9410846688831844 -0.05884816060483252 -1.1095579803931155
188 -0.6969934131909973 -0.13011738351298668 -1.8456363538030678
3892 0.19186386635148553 -0.38638354787882595 -0.5506328441743503
2739 1.5089686227250287 -0.7057578426840577 4.891465360839582
152 0.14876990515070068 -1.6918326860860187 -2.443465564401444
3027 -1.7793535427133556 -2.025553083945436 1.1203080260125866
3315 1.6031125496585206 0.25336380053299035 -1.4525546599023813
3097 -2.0874785071031834 1.296582921412365 3.4053328199972106
3603 -0.6607378696896216 -0.9643341599700515 0.8003568053029368
3891 2.034017443239153 0.3896855102197197 3.450936525089802
221 2.2199116253822537 -1.2949182431745925 -0.4282741344992001
3064 -3.0351024123888295 -1.3500098414417514 0.5795601474769685
2775 -1.9639495420458017 0.9033756778331292 1.1722816495706843
3457 -0.5401773062489557 -0.7539041303147962 -1.215864782207954
3352 -0.5353547849430738 -2.4698240920459273 1.9688244916409325
3063 1.075557024353756 -1.3907470327855718 -1.9774032856866632
3421 -5.679119653312456 -2.4939060417842382 1.7249886889119335
4004 1.1160085839483729 2.881541644778138 2.5540048196387737
3640 -0.7798590323066017 1.1868648901585586 2.7810426020985943
3351 -4.200705802296706 4.578975008121019 3.1519781052875153
3928 -0.5063115891755426 -2.168626698626737 -1.40797870752651
3639 0.6815156243215829 -0.7050488334051158 0.09569569918747466
3715 -2.693409946295018 -2.049453715495336 1.3771707640275204
3926 -2.240034912874299 1.102349308323683 1.4716935515690819
3927 -3.861687962187043 -0.43527426007651576 1.1529890028396068
3100 0.973843148074008 2.576423197162166 4.450336107726131
3388 0.3386165953214673 0.6299535990839065 -0.661686356114996
3714 -6.770011165893846 2.01565233080027 -4.403318707264983
3676 1.0198269452114483 -3.356017912692268 -2.936248607062981
3169 -2.174133423950681 2.198083211003003 -2.572379838502963
3964 -0.5415767436955183 -2.001686735983087 0.3506627532124237
2811 2.3028692074945063 1.5638734354934312 -0.7336964209084599
3099 -3.403083938403377 -0.12173276240327131 -4.702872782240763
3745 2.888985437044541 1.9289390241303517 1.1503097046335333
3387 -0.18026569984966492 -0.5492826959672849 -0.6126683815965576
3675 0.5425147652452833 -2.490301658831958 5.31129786665299
3963 0.42007234007789307 1.2405970280308092 3.618162720367865
2847 2.4769297440575513 -2.041116269387525 -1.5234737138894456
3136 0.348148319909408 -0.5219979812223989 -4.819282165064296
3424 1.553686656165019 0.2413035358527367 -0.739156805775789
3135 -2.4631312370123215 -2.3811690147058435 1.8521964326104845
2774 2.4560650889993214 1.3298625864419613 -5.324044460864766
3716 -1.743624506972723 -0.5232957144054268 -4.404708914573509
3749 -2.160406295165043 -1.6512343539645058 -1.4915486640633988
3426 0.05390344128515438 0.10923707244946523 -0.1619928975783761
3712 2.308316695272478 10.170309038266664 3.151530329614102
3423 -1.9401826859959936 -0.3808729382429758 -3.5077757624931456
3711 -1.5319510572183785 0.3393122969147815 0.8617642694814371
4000 -0.1135117645502334 -1.3941080701910438 0.6933668427609836
3999 0.69920189059055 3.731233424184503 0.6567093832037928
2742 0.12016893281047487 -2.6278440846518443 -0.4903523625706459
3032 0.7999210845217998 -4.956986190345144 2.4013869822357825
3030 -1.2784436640851276 -2.6623657714453044 -2.3695971616976474
3320 1.379499679968613 2.2843210820036575 0.948404296978606
3318 -0.9965931365497689 -2.9964105503171075 -2.406553384162167
3608 1.5105941300023127 -1.9509987348302489 0.684243014432236
3606 -2.0916810429295527 -2.207341646551474 -0.11317507728889625
3896 -1.6638261811720414 1.1138173188195204 0.410721640820166
3894 2.205363686287202 -3.532511957637758 2.7900757927172597
2743 -1.6270804955309417 -1.405686878365405 6.362161943625891
3065 -1.4480121855334418 5.223122917077797 -0.9892134983983396
3031 2.6460697211023647 -4.9976360338509505 3.222635357924777
3353 -0.0020189663491649154 -2.8807256361536018 -3.4558426421146162
3319 -1.0795170523622881 0.8911828298081503 0.3291696941050836
3641 2.2289616904119667 1.5995335621969897 0.8625818041945841
3607 0.9239948926394357 -0.07932050962832787 -3.9566244596859637
3929 1.4823202211313402 -1.9159641605030129 4.56748188130591
3895 -3.166454571969845 0.6574976814054234 -2.12431156257047
3068 1.793502949003389 0.08685009057776542 -4.00106139757611
2778 -0.7061218352244816 -0.09997090138954692 1.7868914676845506
2779 3.521467760591461 2.7375902442039197 -2.3472199416049144
3101 3.637787456864476 -0.2345844448922576 1.578791111085365
3356 4.758960257784012 -1.927371850074775 -6.396341836225187
3066 3.492791500892479 -3.106625428469533 -0.48846622887645985
3067 1.6720054470168926 1.7319966777135813 -1.234947340633366
3389 1.9995106628134927 1.542134801685696 2.0117296511589964
3644 -2.354349620904743 -1.1501563848691883 -0.5590338843356513
3354 3.1209620065337433 0.9934472867882778 1.6745307090257884
3355 -7.133391505489571 1.8151712469619612 -2.168179792955933
3677 0.1733465207856691 -2.9341564271371237 -0.4733834519761729
3642 1.1745493530811781 2.6281603478718534 0.5789590572848714
3643 2.1134428497875795 -2.124250103611391 -2.2528803497435512
3965 1.4196062791358512 2.051068474109592 2.2485436670007637
3932 0.17649795094655718 -3.4323099304993128 -5.711386289514867
4002 -2.203261785214378 -2.160437828120774 3.6830686586898636
3930 -2.312811093268797 3.0609946205633367 -0.024493704829901628
3931 -2.6024068885861116 -4.36667105594458 -1.1813839170722664
2814 -4.655842104848473 -1.2783011847355537 1.051889991795462
3104 0.655303429520438 1.766257060301909 1.4585312062418012
3102 -0.2893678855539445 -1.918891161338716 0.19552022880056097
3392 -3.14310468426072 1.2801782870153444 1.4151068159642415
3390 -1.830378456678113 0.38739944382510855 -2.444596068482266
3680 -0.28992828722393665 -6.286715245822841 -0.1966498401267421
3678 -3.793026843091531 -0.562195104180535 -0.6326653566991918
3968 -0.9658634113203838 2.0656524600232546 2.783121524219763
4003 -0.04516416837030199 -1.6974418927612953 -1.22674694276259
3966 -1.7519738194703167 0.7405480784924868 -5.052430553064777
2815 -3.1894629757504047 -0.9033619451599529 -0.46249195224306433
3137 -1.60550291649793 -2.28736520013681 -2.141242429557525
3103 2.7194444709617542 -2.0756853330081455 0.2874569740102575
3425 1.540637642313084 1.2725202321605675 -1.6879213854222146
3713 2.2575506428505796 -2.8554991334086077 3.4664398826638636
3391 1.22313631740971 0.9022506436543892 2.261862456822674
4001 2.7833872982932837 -1.1486472573574875 -1.507984627962652
3679 -0.32027271411321884 -4.451495530736908 -2.017928096345998
3967 -2.02786088645845 1.7000589476064478 -1.6013516075675065
2885 -1.9192189176750185 -1.7805204746733423 -3.7429458331013663
3140 -0.28270631203800567 2.3069209813697142 -2.601097441491357
2851 1.2370714476618812 1.1494341757477617 1.4622640230846815
2850 2.4721117676748805 6.006243148445732 1.621923010694248
3428 1.5757448014866666 1.0105663547211072 -1.6178838626427843
3173 -3.106847593523536 -4.029876880735312 -2.6367915029552726
3138 -0.827444707426128 -0.26247082708091274 -8.536955562150213
3139 0.5515427696779057 -3.619037850605276 1.607022407383722
3427 3.8072407896675555 -1.9725307336286304 -1.6094442967699738
3461 -2.1884147449045077 0.9801921848424543 -0.7416959347718353
3674 4.184448249087515 1.4605057392464167 -2.5260437963688904
3422 1.6567965648656213 1.7719992070034363 0.5691456678696211
3026 -0.8830669030417789 -1.3923617117858198 1.222336118879022
3673 -0.738809646360532 -1.2070514607228346 1.8442403604410407
3385 -1.9306447449909563 4.118132753261253 3.583453621849637
3349 -0.11492530940265136 -2.074483449954822 0.48860773795926515
2810 -2.2053008524882705 -1.2734636985888126 -3.714530446643168
3036 0.39443632358274777 -2.215712232534883 -0.5855215784105775
2746 -0.5603029076548087 -1.9183959689244077 -1.242460518449663
3034 0.8848118518616949 -1.8857795193308455 -1.46005110749771
3324 -1.055817759890818 -1.612984739408137 -2.2871152215919723
3322 2.4946597665685464 6.328148321863678 -2.645666666583191
3612 2.1926625798249564 -1.241660566344711 3.8781467545625192
3610 2.091045455785679 0.5956366544491186 0.02891813470422968
3900 -1.44902577606316 -2.06140234945162 -2.1686956533605257
3898 -1.1363779209893181 -0.233103973530659 -1.9596916805224238
3069 4.468362381906739 1.9678864170342936 5.121679269510191
2747 -0.8263984063576945 3.58937053189313 -0.6929051612550603
3035 2.0961815319336825 4.558213804920537 -2.860173024498157
3357 -0.006749492079892768 -4.350315604058878 -3.6797464541787335
3323 1.7792506265290715 2.48955565251733 -2.6783061090448155
3645 -2.335775291852912 -0.5431736279398504 0.6025036770258927
3611 -1.4626474834529253 -1.3089048264241718 0.9999150058042653
3933 6.453061069277626 0.38471799658450434 0.2301944712961803
3899 0.5321700148478908 3.4732944984697363 1.157967419722077
3072 3.017114860960198 2.351458367267966 -0.6841499705433011
3105 2.9774993045036195 4.312827812438749 -0.6203117287964316
2782 1.091007021939708 2.0708322637685557 4.415420077831321
2783 0.9014601727173038 3.4126383003262197 2.606417715466
3360 -0.5024895636214709 5.214662886941844 2.7967162568571937
3070 0.5668026683938395 0.6789162383469088 -4.403210227684143
3071 -4.9697453295209675 0.18319727530225313 -0.5773486131407927
3393 0.08345546693223503 2.2787041021991903 2.0370314256992788
3648 1.8566354670344833 3.3561645172510457 0.9921644936277014
3358 2.2234932793399325 -3.508379430254815 1.695299581164244
3359 -4.206549518630168 2.5103521199120302 -3.948809939563786
3681 0.8413855713810088 0.5935365811118083 -1.8610024217758492
3646 -1.7316309799869876 -0.8351922690997143 -2.8486385009468407
3647 3.255781548616589 1.5152616230960667 -0.06457468507116261
3936 -3.4055458981031173 -0.9865913995608884 -0.653326814402009
3969 2.657216696573268 -0.4854143206650992 2.4026373207635454
3934 -3.5466373362224504 0.36199044601232616 0.20893640152630005
3935 3.83245311802781 -3.0031239785358843 4.714574225931347
268 4.179136646811691 -0.5481446873631219 1.8386559336486643
2818 1.2494112545186231 0.14664130243144757 -1.1631152453873281
3108 -2.669954924710221 2.6085145614342093 2.11928793490573
3106 -1.3502246334254806 -1.0783079207931348 -1.2310254230887527
3396 -2.430710594895623 -2.1906625983746384 -0.010030869651231865
3394 -0.5098141320739424 -1.4953404133850317 0.6722471089146713
3684 -1.57634367223769 -1.2879721742857704 2.3925350188858143
3682 -1.3115908525242757 -1.8004302871662874 -2.7172714282750863
3972 -4.26396854854597 0.698447465876415 2.59510137466514
3970 2.400467145192916 -3.3964102514648937 -0.8080470387960009
2819 4.8454597380618285 -2.616986335249271 -0.8740242688844199
3141 -4.025710208339878 2.5433111209470156 -3.450573896422439
3107 0.7990248178836733 -0.15822178699608877 2.4768142159721345
3429 -2.309732239812641 -3.58999968164228 -0.4280818487139528
3395 1.7362889377844237 3.100350232457356 0.5451769828101901
3717 -0.8269901950124176 0.2398441107631234 0.6310654627509004
3683 -0.3117993897423019 -0.12928432850853228 -4.963001603216277
4005 -0.3950389490336615 -3.160955665616033 0.16195713419225835
3971 0.4984667664971198 -2.8265819165719646 -0.35149494130204306
3144 -2.266006064004559 2.9808431502160744 -1.2118080121588088
2854 -0.6327824812187218 0.7509832248292457 -3.1758980349159103
2855 2.402400404500355 -0.2797840152844702 -1.6789176058492763
2889 -1.3051937118563839 2.0478316328497734 0.39554755845226136
3432 -3.674972886358624 1.9747163869370556 -0.15067721987809932
3143 -1.2572997903273073 4.869369699426636 -1.0062241676790407
3142 -0.4399767258315338 0.36785020291796017 2.5183242479363654
3177 0.36661841233226244 -3.4067509089382266 -0.1439066603330818
3720 -0.7511156118170295 -0.8581737762479008 -3.467278261389004
3430 -2.571429982358365 -1.9124892788203667 -1.0751560835637937
3431 -1.9533317597059683 -0.9009413849175599 2.0764540209608104
3465 1.1919095185205544 3.8680378802784436 -1.192760260726067
4008 -1.2380082529340057 4.121164522266353 -2.415123225578159
3718 3.6776346403623577 -1.8816589679118607 -1.758330308453113
3719 1.8981186335917437 1.211693804816626 -0.04777267556399603
3753 3.1401084954913836 0.7287347987005146 -1.1414092329954528
4006 0.5866161870784072 1.7045400579672396 0.5576730594776071
4007 3.1051400779475555 -0.4763749907194079 -4.003015118862003
9 1.3575382548786366 -1.881226387879246 1.6387201997799488
2750 -3.374746364075995 -1.8545056284200094 4.245746440341801
3040 0.8443187112361454 4.0266450845520785 4.493358223301743
3038 1.7222643832187845 -0.7040173404247825 -3.051204735186746
3328 -0.6849758093569787 0.5491049870171656 2.8862752648863235
3326 0.33338331937262683 -1.6117830579189782 1.5353404196584286
3616 2.06839771204915 2.0047319466672673 -0.42901337112584337
3614 -1.989839297283036 -1.3912794953355057 0.9297784978788256
3904 -4.996244880673874 -3.9437525869710273 1.6479839268463115
3902 2.2482912406830375 1.0968662109939884 3.4852252424707233
2751 -2.735214292360766 0.13026690731638205 2.8444064920598313
3073 2.322588564140506 2.2330479814133515 -3.6345632254052256
3039 2.7253698593914875 1.4840480834622745 3.9839112598805957
3361 -0.22570382364344904 1.2338942640977426 1.1297507986877438
3327 -7.119203036860744 -1.7059803611411688 -1.9860666252600987
3649 -3.6304131025157376 -0.9070655976809712 1.2174258104439848
3615 -4.767518995156228 0.9179130408334688 1.8717238400838683
4010 -4.029114852109524 -3.6650757946541734 4.097808703939339
3937 3.0702023109956724 2.2879900357183525 0.7219891358278179
3903 -0.495213288962955 -0.7035037679392114 2.8528733691133956
3076 -2.4313014182854786 -2.0486281145393246 0.19125919189720575
2786 -0.909023093548081 -1.5632705050947218 -6.364370817175792
3109 0.7123568575465262 -1.3448149090057695 -2.4734040391687477
2787 0.6452135873357244 0.6380309068792621 -0.6537402214042283
3364 1.292792814376589 -0.6212963287944435 0.49944715966661757
3074 0.7946670394008857 -0.2907149986336125 1.225177050463293
3075 -1.948788742053544 1.5695535596423138 0.43851917046889133
3397 -2.24017803658339 1.8567810308807782 1.4827644992257434
3652 -5.029788958943746 1.7875250188722513 6.433510226011061
3362 -3.4913359642196586 -1.6911639988664333 0.7956617488158599
3363 -5.006687888153482 -2.965542448354222 -6.183198242761236
3685 -2.6663394805247 -7.304453230365359 0.5262750604506494
3650 -1.2386248087572982 2.521697580048311 -1.5634692145399252
3651 1.5970241170549035 2.575254181155737 -2.892383195446608
3973 4.125935721705646 -0.012785947880984675 -3.0811361556034718
3940 -0.4521825795954439 2.574566245291425 0.8123366182254079
3938 1.91488942117193 1.4963798179020193 -0.24286959569819935
3939 1.3321306003219586 3.6383385281021052 -3.5060581059551583
4011 1.2381829991497113 -1.5036418920286765 0.3189105464187612
3112 -0.309008434975926 -0.15643271797147923 0.8431786888862551
2822 -1.7167772122001415 -1.833908434050718 -1.4268243085371164
3110 2.0182453968888967 1.144185951436473 -0.7757029970633398
3400 1.8465560439661364 -0.293628055406786 4.276526847278552
3398 -0.4014088043179515 3.942000402913574 6.069207392530058
3688 -5.27281806255567 -3.917195429009461 0.24461171463685613
3686 -1.7082474550726172 -3.56608924163026 2.135284683757751
3976 1.7333901256879571 2.2030348629996155 5.309322028836838
3974 -5.1766271291823625 1.896978995203084 3.292900599638312
2823 -2.828877712131459 -0.5855052484975479 -0.9919181661556619
3145 -2.1363776731551485 -0.2939915722555745 -2.482624818832678
3111 -0.6624814612088116 -0.6077318060742436 3.272527415341643
3433 -4.248486049075959 -1.426109279637283 2.8961667128744626
3399 -0.7374799800661342 -2.3652953996517105 0.38657355242880287
3721 -3.122340077429975 3.1189365104075173 6.348607796074879
3687 -0.7877279209592037 1.3703151797712416 -0.22204153260134993
4009 -4.841293521262325 -2.826908182830576 1.5170305182978734
3975 -1.3816861794560042 0.4876705300239498 0.6675031987720352
3148 5.379861007470195 -1.9712032755515834 1.8752852548091163
2858 -0.7216208340392392 0.11326016126620388 -0.9442531297065723
2893 -1.8107728438420687 -1.1013316046613737 2.707927191546071
2859 -0.699471939243447 0.8427846648952444 2.067679069764831
3181 2.6883773888734908 -1.269153459532245 3.4053912488261417
3436 -2.084679556118956 0.3918811962778381 -3.1210507730339554
3147 1.1985505263508331 0.8413656491378384 1.0165216155188979
3146 0.23149030145743393 0.5132683744365325 3.2542498573976633
3435 -0.11118418959365864 -1.6360663907038873 -0.4229891713835618
3434 -4.922835493714812 2.3248415967130516 -2.1448784523542295
3469 -1.0782113806178693 4.81024544798742 -0.4494382709690657
3724 -1.0772435313639503 3.5231184937953435 -3.7629863883089394
3722 -0.9008789758451977 -2.948150988770716 0.30305751890882626
4012 -2.275301411031795 1.7108744323923093 1.6933350209361788
3757 -3.9510866304538395 -0.9591279539670515 -2.6022441314554245
3723 -0.3676576880967931 1.1142919232208 2.204201015455624
156 1.696820890307951 -1.1209741032207237 -0.746354159135871
13 2.452616900735657 0.5416168098489446 4.274410002047953
264 -4.616257733130295 -1.5620881256838879 1.6434488703412475
193 -2.735776756081969 0.10416886594107881 -1.7801628912773848
2754 0.2755512456946694 4.409990307235992 1.7190059657397343
3044 -0.41296069723605233 -1.851650572630379 -1.7159913211757807
3042 1.5598698861530207 -2.1308282588687537 1.4750813882105127
3332 4.230667371804696 2.8270271812059837 2.9400139970849137
3330 3.1549397225151523 0.6904857459394221 -0.34910233848189604
3620 -0.7387413455067461 6.5825363098638965 1.469756476248151
3618 -0.4504586504282551 1.265854322325442 -5.729641147761472
3908 5.6838467060098425 -2.879514294268556 -1.0064014614442136
3906 4.068062871979383 -3.8308377193866847 3.099277186664532
3730 1.4027132837704883 2.8246803137325713 1.4519144166199855
3077 -2.494101142391916 0.7993254734380728 -1.7174801661226142
2755 -1.7977055571880174 1.4156683438229738 -0.15604322632296425
3365 2.09712063656778 -3.523366036037761 2.5592889941216237
3043 1.089553620168895 2.492097400283056 -0.6032199063269301
3653 5.336503247616373 0.2963963059971263 1.8442428629505616
3331 1.0528808629861042 -3.3862657707474626 3.3566831980867873
3941 -2.4032763100741854 0.40689619268799165 -0.9910620158257297
3619 0.4631431772033067 0.9607025531115114 -1.5529179830656266
4015 -0.2389413298665538 -1.3525425907877384 1.391509173978015
3113 -1.8547397628230167 -2.019601579605901 -2.5932635457566877
2790 -2.8281643185174445 0.7394868015963406 -2.7800572574204683
3080 3.1184990898893745 -5.447863024207539 1.5211530869309808
3078 0.6070497482290725 2.039608184781455 -0.44383415081624106
3401 -3.1860486791921456 1.2047594449824304 -3.048629206778546
3366 0.3331222055750667 -1.6658944308377226 0.24580147514132433
3689 -4.1629871107272445 -3.1298433140686392 1.216311288781917
3656 -0.4320971976041923 -1.7787433087339963 -1.248196323077187
3654 2.18070579743041 -6.302098096647206 -0.8263097881537145
3977 -0.4865844390800032 1.8978899051850948 3.109793744634356
3655 -1.007927642225489 0.9660121412837266 -1.3760212171723178
3944 1.1760342901487053 -0.1644111301579531 2.8908231749667674
3942 -0.5245230813060915 -0.8946006339420741 0.4582152659717783
3765 -1.0431673724222048 -1.3671700385578982 -2.1548830072792278
2826 3.1200845437615796 -1.2874667663916919 2.2233047097499177
3114 1.3237441577702895 3.1171109125282803 -0.9528421637900591
3404 -3.3171727918643015 1.1130510554355064 -1.5086526124910462
3402 -7.984940918005794 1.949968061348201 1.5705454989139598
3692 -3.081459660451696 5.207046874426015 1.2186820239785223
3690 6.081702067243982 -3.818830319738337 3.131695366637953
3978 4.5757192500707555 -2.9117530114920696 -1.4936966516800614
3149 4.161721349955407 -0.9583909206371167 1.2292715305373798
2827 -3.169091367130019 0.7055227113682941 -1.7655596538845044
3437 -1.686910978176845 -3.228827856378115 0.043111354611523295
3115 -1.4921582797580706 -1.2254219676365725 1.4013975215227836
3725 -3.4305546072626836 -1.6212490432449633 -1.2384947575640102
3403 -1.3874494276758491 -4.142202941135307 -2.4169943527535818
4013 0.7826732187251464 -2.487671231474685 -0.7310061906349566
2862 -5.297442201044459 -0.3671465943423689 -3.5220164700896572
2897 2.819886669789277 -2.8030054721254167 2.0205901888836264
3152 0.5857354210071618 -2.8598612829978967 1.9771892964277833
3185 -1.7197471688529726 -3.779188348967469 -0.4647294370507083
3150 1.6159195272174827 -1.0170040731521128 -1.990260848811738
3440 -0.7806051591250269 2.63128916142865 -0.7850122971772583
3438 0.812694930103876 -1.5536260895435363 -0.21877994798632142
3473 1.9946605584990529 1.302115649477653 -0.47529664999466475
3728 -3.730087587110234 -1.539893348695227 0.6334971444026111
3726 3.0728957562318358 0.405556242525955 2.312637597685692
3761 2.1323877376027904 3.183282243187772 1.0099168687779465
4014 -1.2059155456484327 0.8402306906573765 -0.5940656495117957
236 1.5827173903714498 4.671368120404749 4.740941994529734
2758 -2.0865204822086083 -1.5736480741013599 3.6149150499180327
3046 0.9966668908304357 -1.593536410743526 3.162934276633591
3334 -4.901806213576615 -1.0233327380953756 2.7343681442584087
3622 -0.34084519159114585 -3.3403192682507425 2.2547844009872544
3910 4.112315918177135 -2.3873917963622504 -1.6738869154091125
3081 0.19286694911940522 1.9955916260296411 -0.6550574771709818
3369 3.0975347237792397 -0.37950197389500956 -1.8743484499561334
3657 -2.8593579116619443 -1.829231117470799 2.423825855341093
3945 3.607673604391903 1.6376797826288882 -3.464090895553554
3907 -1.3167533696760116 -4.87346357285991 -1.9980792972392039
2791 -0.4735424184074975 0.3433959406010013 1.013360321906048
3117 0.8408263322386174 0.19765697448575326 -1.342049075028188
2794 -0.9782127230727052 3.1427647768918274 -0.7694459785016518
3079 0.6095901563417093 -0.7256502234187084 -0.20055175840931305
3368 -2.747347566568236 -0.4285080426898729 1.181378441871476
3082 4.052230739321411 0.4067699302311217 -3.860958093386413
3405 -1.5915274258042231 -2.4316663450336757 -0.04590417098799212
3367 -7.045648395158032 -2.1256738203300447 2.8515103306161267
3370 -6.3522190733279364 0.664095004742305 -0.7407620573094645
3693 -1.0278067759584886 0.031149140810776913 2.2683309044481867
3658 1.1586237141576379 5.148697888569828 -6.871175644563416
3981 4.282947704075157 2.6889722758417323 -0.08027087107477529
3943 4.538056756454651 -0.3128890459211994 4.221771094129994
3946 0.9117972094117633 1.8315362016002976 -1.1757691673045108
3116 -4.352137388673937 2.6336961789753346 -0.7575375942071847
2830 1.937485153442708 0.2957086790708496 0.39312565353795137
3118 -0.5286841265882224 -0.061424304014513306 -2.4606392724568287
3406 -0.6961664683767138 -0.7002815572059133 -3.983343936448326
3980 -2.851654322222733 1.0094698543045748 0.3448441806857611
3694 -3.9952088473786103 -1.1794553003819273 -3.7393118352823254
3982 1.906283245519809 0.4172900185363189 -0.04784135562192317
3153 2.0555175712568845 -0.44294297170777464 1.9064425950846173
3441 -4.714985926899504 0.7738711706608826 -2.893324335271575
3729 -0.07091989337726905 2.407302227510911 -0.32153036444792066
3691 0.713363240683061 -3.1535324421645097 0.006162336178065975
4017 0.15958279230754321 -0.10861074329465288 -0.9764067238799564
3979 -2.4316049334889556 -2.7145418324869275 -3.5288803497128005
4018 1.9554374852202987 -6.4178554388854865 -3.498646254728361
2863 0.12442138948652842 -3.8738470971069687 3.7003404214913016
2901 0.16685643717266516 -1.9718393392950853 1.1767588831220237
2866 3.822662494776393 4.028298348084487 -0.48555214058836516
3151 0.4260210257592214 2.311915622974621 -1.05187583657456
3154 -1.7815652652313456 -0.23196076312421915 -0.8128848512752259
3189 -1.9078901726774864 1.7643570729302274 -1.0165780891225293
3439 -0.23142113380334559 4.59876987396692 -3.2199749449457276
3442 0.30989871116041795 -6.573974748608733 0.6849165693441284
3477 3.092452337964544 4.878096494661517 -0.8454600437743102
3727 2.997934462800607 2.645529504701938 -2.25823748083193
4016 0.9041273418644018 2.442327073046503 0.0917167667427885
269 2.304149652489865 0.9868036184745659 0.25094774368424905
233 1.3973565439043791 3.1172315992405637 0.18135193868753596
273 -0.3057852595339347 -0.239665515329165 5.679303823972446
200 2.6331121560960176 1.48916658308491 0.7936497205257761
164 3.9439443171272117 3.3255228092850593 -1.791396416632548
17 -1.2767166465938773 0.7628353540311668 -2.42218819708375
272 -0.3408140938598247 0.7712372528452266 -1.0494391800293077
3048 -2.5828422865171285 2.2648534251232633 -1.2332234261358441
2762 0.6343233192094824 -0.4676962756001808 -3.0641378770033856
3050 0.6023891738654624 0.34969960697418057 -3.7164297568228037
3336 4.948318564166685 -1.5348353608457437 -5.6192691928891625
3338 -2.0289056929441234 -1.9592759715891497 6.680887938424759
3624 -0.8574677753719974 0.2171519999513087 -0.5034976179130839
3626 0.14707826096442958 -4.201627842240793 -0.4049280732300867
3912 6.267999601365914 2.7949077856849023 -6.601569066964835
3914 -3.416755185202997 1.1790215944210358 -2.319133723963243
3085 0.47333654246711737 -1.3527884002987534 -1.812292248958991
2759 -0.7774991392570054 -1.0095636473539338 -0.7356335590109966
3047 -2.1974164175143334 0.8830193471215224 -0.9353644065747265
3373 1.6271155608888404 -1.5235822072307332 2.6233222542091297
3335 -0.7373176712830857 -6.050030117381195 -0.3629424724237773
3661 -2.2493837683421365 0.23104551441717902 1.8008813603592402
3623 -0.5701188344697978 1.1347195649818413 -0.3974121056208624
3949 0.13001224810109946 3.763455556572044 -1.9156632508757725
3911 -1.2934654636874752 2.1093928390510004 -0.9750992403078909
3084 -0.5832437974564987 -1.8108375379833355 -0.7706913117187321
3121 -4.955139928556842 1.2350517710477604 -2.342045876842758
2798 -2.52638674806373 0.040951916785429705 -3.558984870771775
2795 -2.5892716288661193 1.850830952416716 0.8947532065568622
3372 6.747311371027165 1.381548493945169 -9.652109961058574
3086 2.533047840366097 -3.742910285249976 -2.552448462476817
3083 -2.97522171571429 1.428306667404259 0.18676557477153624
3409 0.046260485518175604 1.345144304026659 -0.9575599858187067
3660 -2.294684446362715 1.6570879613408511 0.1310284276113556
3374 1.810042335316177 0.1352033191004361 -2.764239897048338
3371 -0.9029513819858505 0.3935001187795839 -2.213689502064008
3697 -2.5993862836715937 2.9842145936706252 1.8165585621239053
3662 -0.8397619768670734 1.2745545506717613 3.6027135048739343
3659 -0.6564289502909574 0.8306841545417554 0.3257184035053271
3948 -3.386781903812585 -1.7313652294903532 1.139405654860871
3985 2.377995731119295 -1.7150087447261622 -0.0797045497469765
3950 2.7166673087620685 -3.0706615836784557 2.566833828676943
3947 -0.44529534389617365 -1.4766430374190682 0.008326599421548432
3120 0.025767472390726357 1.0276286434148372 -3.708661159061716
2834 -2.0391598723556337 0.1478707456770101 2.9571739698696238
3122 -0.9481334512650617 -2.5729249837518586 1.9146066226532243
3408 -0.390847786305546 1.7679140789601493 -2.5638781411405347
3410 2.4155806648322353 1.3639702501017918 -3.860118792130695
3696 1.1877655382457772 -2.258770063198999 -3.8679903714454174
3698 -2.4760952467134367 -2.6380086263431073 -1.3789020638247271
3984 -2.090981637009183 -0.8426349276788919 3.3426021034890123
3986 -1.7807823132639304 0.36914730332344464 4.0149091817900855
4026 -1.396414191981491 -2.890995163174633 0.16695360546182078
3157 -1.1623261802595224 -1.4736241969764983 -0.9134956713591836
2831 6.035937685124298 1.1125692109268286 1.3116520478780531
3119 1.413935917516385 -1.9671869541355589 2.151249172501784
3445 -3.134970924464393 0.7302557702087996 -2.7520227722263875
3407 3.5897661556842246 3.0259152400852267 4.609693516293862
3733 4.357883890164428 5.636492456903888 2.496366221073498
3695 -1.043624810132377 -0.07145947276247547 0.10636488617609928
4021 -3.675987743959508 0.11478753791793282 -2.8930618081531456
3983 0.715075280415817 -1.4413099239765417 3.1212114889812956
3156 -2.8289076975327943 1.243511166471765 -0.15856474495515113
2867 -2.636005239398586 3.56941967934269 0.3627260694457693
2870 0.3378465154948682 -1.252805637822256 -1.6733322072491084
2905 4.167374115878651 -0.769974280561494 1.3846205991067375
3444 2.4088240764454576 0.8022704871254966 2.3855194158815642
3158 1.1088834823495182 0.8400692446590348 2.6471796798730827
3155 -0.3554280328107505 -0.4681426154435401 0.11576166622238845
3193 2.1498073296116322 1.2331617882637105 1.1870837669627496
3732 1.9008885550884327 3.5099300737157937 4.900886779828349
3481 -2.9607904764995077 -2.075117675245033 1.8484694092597729
3443 1.7586058510355274 0.9728199086349054 3.1692671838695046
3446 -2.7260733201863796 1.8018160423860523 1.62348039876825
3731 -1.3154000525162037 -2.237246603501331 1.8365248096764526
3734 3.571385647713852 1.3520188743674817 6.345889503609377
4020 -1.5441064856043951 -3.8967016337285396 0.4368846278107039
3769 -0.0036950096786180727 -0.31364365055405796 -0.7034934331416655
4022 2.8237447943126606 -2.650217140663625 -2.5536531794692277
4019 -5.085428396112442 0.8246755793413116 -5.249965405741373
205 -1.272870754633324 -4.141356139712667 0.660523080289598
3735 2.3843624422023297 2.851896706615757 -1.479421531537777
2766 2.9200838161130327 1.604607347793435 0.3884467291538863
3052 -1.126060976155778 -0.7935457560096979 0.0901677348873324
3054 1.5265629383760526 -4.496736369518293 -3.9554125005900773
3340 1.8510356124139706 2.779335523572672 0.1915338755472871
3342 -2.3693807589613183 3.538416565374111 -2.8917473768975688
3628 -1.6242439385063203 1.1443279642860156 0.7475965820319269
3630 4.323616519803263 2.721870168275286 -2.8619556601043814
3916 -0.6123088540206628 -2.9691741200157034 0.579706288839095
3918 -1.9961202639567979 1.0627876803455496 1.000246218620082
3089 0.5817560184323338 1.4871054477189358 -4.49096137453748
2763 1.7699959551847402 3.409125382103539 -1.2080391463116815
3051 -2.1762541908185717 -1.872880418513314 -3.3580416500757035
3377 0.10012913661346347 -1.9678196916677924 -0.5354863295026895
3339 -0.07746206388519516 -0.9418184027966071 -0.02010064477429944
3665 -2.5264087250479874 -0.44722341672727395 3.6757917384577943
3627 2.7046123011717764 -2.018889300799191 1.5580718580889226
3953 2.958926450050954 3.6730981951930866 0.783291598575366
3915 -2.89534254544293 0.3739409593818551 -1.9185937198886085
3088 -0.508768063730229 -0.6048441138234557 -1.3879445330204698
2802 1.1340217608845962 -1.893582177496645 -1.6448349330677012
2799 -0.7132088505432136 5.775176947590917 3.8893106605676264
3125 -0.6586757854981093 0.6291643643771444 -1.151264107745016
3376 -2.2328354815388276 2.2907737928215743 -2.3470984884677506
3087 -6.027041636920165 0.8895361399186876 -1.9832958165127088
3090 -0.11277775482995221 -0.848792225895794 -2.9330272618635744
3413 -1.053142592098327 1.0503428779854103 0.19487266143360488
3664 -0.4139472872059878 0.3073037315862404 3.3045500627554563
3378 -1.8456255114978972 1.2317277537315314 1.8798514837979308
3375 -4.473049874913152 -0.07375611885466056 2.3341672709503563
3701 3.9182967690853086 1.6901078742148483 -1.3518341831374194
3666 2.75247760498309 -4.078352618998781 -0.7910117212105534
3663 -1.9244452934454768 -3.0701376969114924 -1.0312770936160551
3952 -0.07925365250072157 -1.2799964258832015 2.8054775817387414
3989 -3.9798220851535184 -2.140328065575477 -2.252992091849668
3954 1.1074200471050202 -1.2025514976778922 3.1595484496898707
3951 0.3112644579732698 -0.9335986656953839 0.8142266884273357
4023 2.3001481264306753 1.8046817591277045 0.24110348088943026
2838 -0.277898782762062 0.20239557070618147 -0.6582418414247897
3124 1.747966401781199 -1.6105570542073442 2.0398687514609906
3126 -0.6459195355550493 -5.557662528114289 -2.2644694320207712
3412 1.7947542519394488 0.34359832592632233 -0.0852886326247312
3414 3.8922245740032366 1.2209167233416023 -0.3550326810116422
3700 0.22927796526699057 0.217906522712886 1.6325183278492483
3702 -1.4921066150526614 -3.7362667789821637 2.7897497453550297
3988 1.9624663701166452 0.5991013871640376 4.858860214402219
3990 -0.4492805081429964 -3.068367890161286 -3.242561857826324
2835 -1.5156664940217917 -0.8563484690758442 -0.9559605602982889
3161 2.1775001547760215 0.4470257424638466 2.9680908206441856
3123 1.8242828258828412 1.436282650680434 -1.0248857463087755
3449 -0.087292174868102 2.2085856792515286 -0.9795059911002726
3411 0.9179083711180629 -3.744635712044606 -1.2605315159684156
3737 -0.7407761578472717 -3.5840756198584947 0.351048535870796
3699 5.260640828153695 0.8655851735131023 0.26645856096437703
4025 0.44996375853044523 -2.0531357355066633 -3.9206673122529936
281 1.868053326002704 -2.394013192666991 -1.9688911831276266
3987 -3.546828512146079 -0.2597393696456958 -4.080148069013886
2909 -0.4670542095031584 3.3269547838734423 -0.41371307461450985
3160 3.107360893726646 -0.3888243981801335 -5.393170622210715
2874 -3.0627693829213176 -0.5321963979945271 -0.9911993137306156
2871 1.2882007045924204 1.1568418828463682 0.8791569852430366
3162 -1.4309669813740322 2.594452446682998 1.2753985159634293
3159 -2.0930385365704365 0.33026961704296176 -1.7330663074651467
3448 -2.866483919508533 -2.00683337920516 -0.22772304997571455
3197 -1.938680412429744 -2.2195744162088364 -0.39267538984815037
3450 -5.3969632294593755 -1.0950983699122674 1.4850391304415973
3447 -3.777337076880578 1.7611767447134794 2.633232871382034
3485 -1.6638352195548616 2.4763728953522266 3.2916967702514146
3736 -0.4738813709330036 1.021548995401355 -0.562092457206836
3773 2.021259699528652 -0.8839100279199078 -4.022944553626487
4024 1.7619060335754577 2.33712203200515 -0.5696616844197355
3738 -0.37741685094073935 0.0841847925863133 -0.6313922064653594
25 2.9935360554473385 0.34203012581394243 0.42608802485418773
241 2.5956475178890495 2.7330155817224746 1.144641943360626
280 0.2936399180377729 3.2497077009175355 -0.7868386129349446
208 0.1327541126679779 1.0597408074000878 -2.0337378071979137
240 0.8376684814831711 3.3159763718097173 1.2114730353530245
204 1.0952583965369516 -6.220862905448742 0.8966923007097227
172 -4.619130514488618 6.881259705013888 6.978165697701246
276 5.657666340886893 1.136059668471852 -0.33799717562592607
3056 -5.0822012504342675 2.380176708948437 2.112891612277622
2770 -1.8890530423328555 0.009129239185538778 -0.8568154194763603
3058 0.8408207085545447 -1.9059129090479798 0.47770405901995705
3344 -0.4131442062739966 -0.0553036567802362 -0.6620748565525395
3346 -1.760531454567636 1.27167458302821 1.2633140902246172
3632 2.2516756577405075 -3.6709510987844656 2.2310284422511617
3634 1.6832399445998691 -2.775349311998583 -2.7490941123146513
3920 1.0717100742736716 0.43542615211570834 -2.181076447484707
3922 0.8957290020248658 1.5734872880669435 -0.5243512282683661
216 -1.5384726153933848 0.8191236673361804 -2.280508673246337
2767 4.346869991144439 0.04270000910288313 0.9158903738922668
3093 -0.5987475307472337 4.150590981377394 3.188286932029906
3055 2.939926439815394 2.2718017472807777 -1.7034729103696413
3381 3.1631187037393844 -5.000166644687037 1.302792416946349
3343 0.7212135632392819 -2.0461953578706553 0.22765577221199115
3669 3.175849492575278 0.3850933233537014 0.6294223027690323
3631 0.6674182350344307 -0.26969300088247544 1.8604685450235101
3957 0.5620521853954604 1.576128151930306 3.9839703090995076
3919 2.4567372775223535 -3.7699159458604283 -1.581288378976806
3092 0.5817929530755308 2.3243048161404243 0.8322331061237547
2806 -0.6965927478727757 -3.0028829381575504 1.1603421567067989
3129 -2.8173025671210676 2.975645938873894 -2.312115391745046
2803 -0.42100383912875433 1.7904887909558214 0.1451000453769723
3380 1.2783621527458213 -2.7090461434278406 -4.441731435204969
3094 4.88597008724159 -3.3081772705963672 -2.9909478003865226
3091 -3.7189202864711057 -1.853828684752475 2.8397268063200056
3417 -5.206621530180017 -0.3500258340916968 -6.546740812842428
3668 0.9054487254410594 0.8128667036989614 0.5639647889893086
3382 -0.8580239578035551 -0.12699977552199943 0.5347595264601182
3379 -1.1294266006075238 0.7179909327756747 0.9291555800912016
3705 2.2816328767561926 2.8307072324556914 -0.04864474447093494
3670 1.7856151806114966 -0.0688732773195504 4.453661706877979
3667 -2.9251912227227588 -1.4280722491135454 0.3318611243676695
3956 -2.3753660135724655 -0.544246946038675 -2.92934281692274
3993 -0.9797425039905868 0.09230121732141207 -3.0143083475424572
3958 -1.2276508036914484 1.7113725743945793 -1.8215107521202314
3955 1.0474962092415063 0.768712457692663 -1.2093208062312861
3128 -2.7761920990978575 -0.997273193748042 0.7583938076125057
2842 -0.011528231335218055 -2.327672338507165 4.094499435815641
3130 2.982901940460009 1.0664683932452375 1.7225069964765831
3416 0.5008503088915671 2.5248325663364164 -2.8114031747351915
3418 -0.5610672424346597 -3.4508189806843066 2.8114145718759858
3704 -1.1899742769985922 -0.8674601083930455 0.9385914774863747
3706 -2.324022690216996 -0.26285511577944337 -2.0129907031241125
3992 2.1860008160479305 2.190486008601711 0.3728780764626212
4031 0.9887515357258214 -0.43349611600056526 0.011019691886415921
3994 0.5337179902358679 5.273503579598941 2.650135378891218
2839 -1.6770419301086326 1.3594620531900004 4.326023631606055
3165 -2.4181745218916944 -1.0023674186764189 0.1744236969165734
3127 -0.9509303597248063 0.9437262322646544 2.3308492571367823
3453 -1.0671938231759783 -4.904528831787831 -0.15729452618579232
3415 -1.4253670272148606 0.8833803158886463 -1.619765183570673
3741 -1.6396208585079766 0.8551928562152077 1.9591797697588453
3703 -1.1176184472711583 -2.8068135822672406 -1.3832075844217857
4029 1.2671035124824896 0.4222466065320578 1.1288369473891227
3991 -2.3672539147542544 1.887694323332289 -0.1610283470192572
3164 1.1797242656454225 2.6514708280047787 -0.3020427490623521
2875 4.2550913862115385 0.5983169630098043 0.7573180612388416
2878 -1.8501900488514404 -0.5619200967800324 2.7138683740237535
2913 0.8474181339085217 -2.812527093074427 -2.711398429485106
3452 -0.4368449755320485 5.840233317735203 2.7595648236261603
3201 -1.8805692847764894 0.9428580155639885 1.9539215001219596
3163 2.4382802229547487 1.6886711796711602 2.1195260006452656
3166 -0.027801346134252843 0.06553574564481 2.047202548837533
3740 4.75918139352832 -0.8480266087645527 1.702234726646535
3451 1.4562778448736546 -3.4891307995788585 1.7891414863986226
3454 2.93233008721422 -2.564856836839459 4.521361005998297
3489 -1.0833774026915153 -2.8714994885990586 6.332230039132773
4028 2.6124370378234265 2.5448666043025323 1.3989394892015818
3739 -2.1922056104802334 1.5617673361880167 4.0045997136801095
3742 0.0008002933296324314 -2.8359062423986208 2.1543295846673103
3777 1.1973717544099012 -2.184461916028317 -3.4096365157554076
4030 -0.8164940371145261 5.150359279426031 -0.8255510729559697
4027 3.0646069650801824 5.211112830117467 3.359240706625322
3350 1.0736501933018148 -1.0428716404650904 -0.7520164145009094
3060 -1.5542240831988217 -0.9622611403715279 3.9799814956611654
3348 -0.430606486173335 4.0045699364050895 -0.5030855880993492
3997 -3.61386185012516 -2.3615750574807723 0.7094268044141022
3636 -0.007263853166269976 3.3431713434776538 -0.3653742482724037
3924 2.649163491206511 -1.0092288131847127 0.7486087396416684
33 -3.3479815452148878 -2.432790179746844 -1.9886870741904346
3925 3.0293284738762085 -0.1268406353445278 0.35869350205503764
2771 -0.051254369610050456 0.35243181873233287 0.5538878674470696
3059 -3.0605760251028973 0.6946658301862987 -0.25336401057779456
181 -3.58024660003477 0.42047080307824475 1.21979964940932
3347 2.425783975999223 2.0620077152836407 1.8956456037626672
3635 2.3110971268903957 -3.56110165382047 -3.7793793616251774
4032 0.10508821402660994 -0.6274476886877491 -2.4944276107753587
3923 0.9009147035727783 -1.6780119646839389 2.5883548672685563
3096 -0.8785707236610015 1.8810455309967975 -2.7252950559298483
2807 -0.1491696861160781 -2.2433035567424287 1.3514939716294612
180 -0.14747564674280386 1.260657158646983 -0.44297643732854486
3384 0.017306614810519937 0.5945833608662214 0.9570919940644008
3095 -1.4434712424329115 3.8358986477280115 0.31563875340659947
3710 0.8465733854247797 -2.732340146544048 -1.693893282719311
3672 3.514632957173853 -0.4212296422557209 -0.9087851156204328
3383 2.3090438244129836 -0.45667903072793414 0.7219717423550588
3061 1.2759994118807647 3.5778398894429304 2.4937730696638787
3671 0.5282653631025575 0.5872560583280666 0.17110774600209952
3960 1.0562734356177859 -1.3602633812667793 -0.7447217618465842
248 0.9214018101298439 1.2978593821453326 -0.15009353483462337
3890 0.6866589410586594 0.7594904245458943 3.8015549804059687
3959 -1.8852357451258288 1.7008672018204876 0.37416167568422437
3132 1.7741009442775846 1.087649638472143 -0.6303455456383044
3602 3.4156978017539883 2.0079585209725095 0.07556277019739137
3420 1.6456770964418068 3.574847833719537 -0.6814780747709054
3708 3.696102911339609 2.6900995003846777 1.776463981262073
3996 -4.20390802926863 2.6733688338179076 -2.4751170444609327
3455 -2.584121163689347 -3.1832785143892783 -0.3045830090242809
3743 -3.1829879887241708 -1.2981514462694073 1.1546135196605967
2843 1.5710732041560742 -2.9573296516999705 1.3620204790518746
3744 1.0343915309521554 1.9950298984184356 -1.4976822242195214
3131 1.2233234025193456 -2.2732207702013976 -1.5662160632055593
3419 3.2007809413258137 0.11581553376871377 2.5963533815539868
3456 0.36468566325921464 -0.21986871539552294 -0.7518359504003035
3707 2.210385659271187 2.605606986222733 -1.763194428911101
3995 -0.7701218737454761 1.9538465443300592 5.168803734960291
249 -1.0638270270267047 -2.581581076595262 -3.0174054277842823
3167 4.247506640792612 4.659102753063887 1.5225568695729814
3168 2.967815079836905 1.518599374968809 2.493359928105325
2879 0.6715783140603803 -6.103819791273976 1.5092442999790876
176 1.056981937230261 1.2412824455470435 1.1723447555561421
3638 -2.6562800122939287 -1.5163064282137375 -0.3223223814578397
3314 3.7624955513582243 -4.219351292677456 6.615744075751032
3998 0.0626320926693567 -0.6049812129848512 1.3957308049144015
3386 0.9206194699834672 -2.3414684351620267 -9.769376567611836
3961 2.638589178346392 -1.1341952729504077 2.126538628484198
3098 3.722854944824874 -4.6651924651847985 0.04724590391123347
217 -0.25649263456064836 2.352285749462079 0.1878374255875377
3133 2.7966409172223297 0.9128494759199827 1.3775552815354792
2738 0.9973768560389401 1.020859915595827 -1.1007672675890385
3134 -0.3622610217014414 1.7543809910730963 -1.7921019949808705
3062 1.707053301061514 0.7225420086582567 2.9725917695845183
3637 -1.2222839133040122 2.51070914479742 -2.7956416957692642
2846 -3.288038119534958 1.0922062438909934 -2.061524949596037
3962 1.161129752475036 2.322659005385414 -0.9854574422626594
2881 1.5856535323359175 -1.3198087351946373 2.272854537567223
3709 -1.5491619058954829 0.30863992257738415 -4.393423387097142
