Ti-7Al ordered_a12 box01 (seed 4001, alpha1 -0.1192)

4032 atoms
2 atom types

0.0 41.048000 xlo xhi
0.0 40.626984 ylo yhi
0.0 42.156000 zlo zhi

Masses

1 47.867  # Ti
2 26.9815  # Al

Atoms  # atomic

1 1 0.000000 0.000000 0.000000
2 1 1.466000 2.539186 0.000000
3 1 1.466000 4.231977 2.342000
4 1 0.000000 1.692791 2.342000
5 2 0.000000 0.000000 4.684000
6 1 1.466000 2.539186 4.684000
7 1 1.466000 4.231977 7.026000
8 1 0.000000 1.692791 7.026000
9 1 0.000000 0.000000 9.368000
10 1 1.466000 2.539186 9.368000
11 2 1.466000 4.231977 11.710000
12 1 0.000000 1.692791 11.710000
13 1 0.000000 0.000000 14.052000
14 1 1.466000 2.539186 14.052000
15 1 1.466000 4.231977 16.394000
16 1 0.000000 1.692791 16.394000
17 1 0.000000 0.000000 18.736000
18 2 1.466000 2.539186 18.736000
19 1 1.466000 4.231977 21.078000
20 1 0.000000 1.692791 21.078000
21 1 0.000000 0.000000 23.420000
22 1 1.466000 2.539186 23.420000
23 1 1.466000 4.231977 25.762000
24 1 0.000000 1.692791 25.762000
25 1 0.000000 0.000000 28.104000
26 2 1.466000 2.539186 28.104000
27 1 1.466000 4.231977 30.446000
28 1 0.000000 1.692791 30.446000
29 1 0.000000 0.000000 32.788000
30 1 1.466000 2.539186 32.788000
31 1 1.466000 4.231977 35.130000
32 1 0.000000 1.692791 35.130000
33 1 0.000000 0.000000 37.472000
34 1 1.466000 2.539186 37.472000
35 1 1.466000 4.231977 39.814000
36 1 0.000000 1.692791 39.814000
37 1 0.000000 5.078373 0.000000
38 2 1.466000 7.617559 0.000000
39 1 1.466000 9.310350 2.342000
40 1 0.000000 6.771164 2.342000
41 2 0.000000 5.078373 4.684000
42 1 1.466000 7.617559 4.684000
43 1 1.466000 9.310350 7.026000
44 1 0.000000 6.771164 7.026000
45 1 0.000000 5.078373 9.368000
46 1 1.466000 7.617559 9.368000
47 1 1.466000 9.310350 11.710000
48 1 0.000000 6.771164 11.710000
49 1 0.000000 5.078373 14.052000
50 1 1.466000 7.617559 14.052000
51 1 1.466000 9.310350 16.394000
52 1 0.000000 6.771164 16.394000
53 1 0.000000 5.078373 18.736000
54 1 1.466000 7.617559 18.736000
55 1 1.466000 9.310350 21.078000
56 1 0.000000 6.771164 21.078000
57 1 0.000000 5.078373 23.420000
58 1 1.466000 7.617559 23.420000
59 1 1.466000 9.310350 25.762000
60 1 0.000000 6.771164 25.762000
61 1 0.000000 5.078373 28.104000
62 2 1.466000 7.617559 28.104000
63 1 1.466000 9.310350 30.446000
64 1 0.000000 6.771164 30.446000
65 2 0.000000 5.078373 32.788000
66 1 1.466000 7.617559 32.788000
67 1 1.466000 9.310350 35.130000
68 1 0.000000 6.771164 35.130000
69 1 0.000000 5.078373 37.472000
70 1 1.466000 7.617559 37.472000
71 1 1.466000 9.310350 39.814000
72 1 0.000000 6.771164 39.814000
73 1 0.000000 10.156746 0.000000
74 1 1.466000 12.695932 0.000000
75 1 1.466000 14.388723 2.342000
76 1 0.000000 11.849537 2.342000
77 1 0.000000 10.156746 4.684000
78 1 1.466000 12.695932 4.684000
79 1 1.466000 14.388723 7.026000
80 1 0.000000 11.849537 7.026000
81 1 0.000000 10.156746 9.368000
82 1 1.466000 12.695932 9.368000
83 1 1.466000 14.388723 11.710000
84 1 0.000000 11.849537 11.710000
85 1 0.000000 10.156746 14.052000
86 1 1.466000 12.695932 14.052000
87 1 1.466000 14.388723 16.394000
88 1 0.000000 11.849537 16.394000
89 1 0.000000 10.156746 18.736000
90 1 1.466000 12.695932 18.736000
91 1 1.466000 14.388723 21.078000
92 1 0.000000 11.849537 21.078000
93 2 0.000000 10.156746 23.420000
94 1 1.466000 12.695932 23.420000
95 1 1.466000 14.388723 25.762000
96 1 0.000000 11.849537 25.762000
97 1 0.000000 10.156746 28.104000
98 1 1.466000 12.695932 28.104000
99 1 1.466000 14.388723 30.446000
100 1 0.000000 11.849537 30.446000
101 2 0.000000 10.156746 32.788000
102 1 1.466000 12.695932 32.788000
103 1 1.466000 14.388723 35.130000
104 1 0.000000 11.849537 35.130000
105 1 0.000000 10.156746 37.472000
106 1 1.466000 12.695932 37.472000
107 1 1.466000 14.388723 39.814000
108 2 0.000000 11.849537 39.814000
109 1 0.000000 15.235119 0.000000
110 1 1.466000 17.774305 0.000000
111 1 1.466000 19.467096 2.342000
112 2 0.000000 16.927910 2.342000
113 1 0.000000 15.235119 4.684000
114 1 1.466000 17.774305 4.684000
115 1 1.466000 19.467096 7.026000
116 1 0.000000 16.927910 7.026000
117 1 0.000000 15.235119 9.368000
118 2 1.466000 17.774305 9.368000
119 1 1.466000 19.467096 11.710000
120 1 0.000000 16.927910 11.710000
121 1 0.000000 15.235119 14.052000
122 1 1.466000 17.774305 14.052000
123 1 1.466000 19.467096 16.394000
124 1 0.000000 16.927910 16.394000
125 2 0.000000 15.235119 18.736000
126 1 1.466000 17.774305 18.736000
127 1 1.466000 19.467096 21.078000
128 1 0.000000 16.927910 21.078000
129 2 0.000000 15.235119 23.420000
130 1 1.466000 17.774305 23.420000
131 1 1.466000 19.467096 25.762000
132 1 0.000000 16.927910 25.762000
133 2 0.000000 15.235119 28.104000
134 1 1.466000 17.774305 28.104000
135 1 1.466000 19.467096 30.446000
136 1 0.000000 16.927910 30.446000
137 2 0.000000 15.235119 32.788000
138 1 1.466000 17.774305 32.788000
139 1 1.466000 19.467096 35.130000
140 1 0.000000 16.927910 35.130000
141 2 0.000000 15.235119 37.472000
142 2 1.466000 17.774305 37.472000
143 1 1.466000 19.467096 39.814000
144 1 0.000000 16.927910 39.814000
145 1 0.000000 20.313492 0.000000
146 1 1.466000 22.852678 0.000000
147 1 1.466000 24.545469 2.342000
148 1 0.000000 22.006283 2.342000
149 1 0.000000 20.313492 4.684000
150 1 1.466000 22.852678 4.684000
151 1 1.466000 24.545469 7.026000
152 1 0.000000 22.006283 7.026000
153 1 0.000000 20.313492 9.368000
154 1 1.466000 22.852678 9.368000
155 1 1.466000 24.545469 11.710000
156 1 0.000000 22.006283 11.710000
157 1 0.000000 20.313492 14.052000
158 1 1.466000 22.852678 14.052000
159 1 1.466000 24.545469 16.394000
160 1 0.000000 22.006283 16.394000
161 1 0.000000 20.313492 18.736000
162 1 1.466000 22.852678 18.736000
163 1 1.466000 24.545469 21.078000
164 1 0.000000 22.006283 21.078000
165 2 0.000000 20.313492 23.420000
166 1 1.466000 22.852678 23.420000
167 1 1.466000 24.545469 25.762000
168 1 0.000000 22.006283 25.762000
169 1 0.000000 20.313492 28.104000
170 1 1.466000 22.852678 28.104000
171 1 1.466000 24.545469 30.446000
172 2 0.000000 22.006283 30.446000
173 1 0.000000 20.313492 32.788000
174 1 1.466000 22.852678 32.788000
175 2 1.466000 24.545469 35.130000
176 1 0.000000 22.006283 35.130000
177 1 0.000000 20.313492 37.472000
178 1 1.466000 22.852678 37.472000
179 1 1.466000 24.545469 39.814000
180 1 0.000000 22.006283 39.814000
181 1 0.000000 25.391865 0.000000
182 1 1.466000 27.931051 0.000000
183 1 1.466000 29.623842 2.342000
184 1 0.000000 27.084656 2.342000
185 1 0.000000 25.391865 4.684000
186 1 1.466000 27.931051 4.684000
187 1 1.466000 29.623842 7.026000
188 1 0.000000 27.084656 7.026000
189 1 0.000000 25.391865 9.368000
190 1 1.466000 27.931051 9.368000
191 1 1.466000 29.623842 11.710000
192 1 0.000000 27.084656 11.710000
193 1 0.000000 25.391865 14.052000
194 2 1.466000 27.931051 14.052000
195 1 1.466000 29.623842 16.394000
196 1 0.000000 27.084656 16.394000
197 1 0.000000 25.391865 18.736000
198 1 1.466000 27.931051 18.736000
199 1 1.466000 29.623842 21.078000
200 1 0.000000 27.084656 21.078000
201 1 0.000000 25.391865 23.420000
202 1 1.466000 27.931051 23.420000
203 1 1.466000 29.623842 25.762000
204 1 0.000000 27.084656 25.762000
205 2 0.000000 25.391865 28.104000
206 1 1.466000 27.931051 28.104000
207 1 1.466000 29.623842 30.446000
208 1 0.000000 27.084656 30.446000
209 1 0.000000 25.391865 32.788000
210 1 1.466000 27.931051 32.788000
211 1 1.466000 29.623842 35.130000
212 1 0.000000 27.084656 35.130000
213 1 0.000000 25.391865 37.472000
214 2 1.466000 27.931051 37.472000
215 1 1.466000 29.623842 39.814000
216 1 0.000000 27.084656 39.814000
217 1 0.000000 30.470238 0.000000
218 1 1.466000 33.009424 0.000000
219 1 1.466000 34.702215 2.342000
220 1 0.000000 32.163029 2.342000
221 1 0.000000 30.470238 4.684000
222 1 1.466000 33.009424 4.684000
223 1 1.466000 34.702215 7.026000
224 1 0.000000 32.163029 7.026000
225 1 0.000000 30.470238 9.368000
226 1 1.466000 33.009424 9.368000
227 1 1.466000 34.702215 11.710000
228 1 0.000000 32.163029 11.710000
229 1 0.000000 30.470238 14.052000
230 1 1.466000 33.009424 14.052000
231 1 1.466000 34.702215 16.394000
232 1 0.000000 32.163029 16.394000
233 1 0.000000 30.470238 18.736000
234 1 1.466000 33.009424 18.736000
235 2 1.466000 34.702215 21.078000
236 1 0.000000 32.163029 21.078000
237 1 0.000000 30.470238 23.420000
238 1 1.466000 33.009424 23.420000
239 1 1.466000 34.702215 25.762000
240 1 0.000000 32.163029 25.762000
241 2 0.000000 30.470238 28.104000
242 1 1.466000 33.009424 28.104000
243 2 1.466000 34.702215 30.446000
244 1 0.000000 32.163029 30.446000
245 2 0.000000 30.470238 32.788000
246 1 1.466000 33.009424 32.788000
247 1 1.466000 34.702215 35.130000
248 1 0.000000 32.163029 35.130000
249 1 0.000000 30.470238 37.472000
250 1 1.466000 33.009424 37.472000
251 1 1.466000 34.702215 39.814000
252 1 0.000000 32.163029 39.814000
253 1 0.000000 35.548611 0.000000
254 1 1.466000 38.087797 0.000000
255 1 1.466000 39.780588 2.342000
256 1 0.000000 37.241402 2.342000
257 1 0.000000 35.548611 4.684000
258 1 1.466000 38.087797 4.684000
259 1 1.466000 39.780588 7.026000
260 1 0.000000 37.241402 7.026000
261 1 0.000000 35.548611 9.368000
262 1 1.466000 38.087797 9.368000
263 1 1.466000 39.780588 11.710000
264 1 0.000000 37.241402 11.710000
265 1 0.000000 35.548611 14.052000
266 1 1.466000 38.087797 14.052000
267 2 1.466000 39.780588 16.394000
268 1 0.000000 37.241402 16.394000
269 1 0.000000 35.548611 18.736000
270 1 1.466000 38.087797 18.736000
271 1 1.466000 39.780588 21.078000
272 1 0.000000 37.241402 21.078000
273 1 0.000000 35.548611 23.420000
274 1 1.466000 38.087797 23.420000
275 1 1.466000 39.780588 25.762000
276 1 0.000000 37.241402 25.762000
277 1 0.000000 35.548611 28.104000
278 1 1.466000 38.087797 28.104000
279 1 1.466000 39.780588 30.446000
280 1 0.000000 37.241402 30.446000
281 1 0.000000 35.548611 32.788000
282 1 1.466000 38.087797 32.788000
283 2 1.466000 39.780588 35.130000
284 1 0.000000 37.241402 35.130000
285 1 0.000000 35.548611 37.472000
286 1 1.466000 38.087797 37.472000
287 1 1.466000 39.780588 39.814000
288 2 0.000000 37.241402 39.814000
289 1 2.932000 0.000000 0.000000
290 1 4.398000 2.539186 0.000000
291 1 4.398000 4.231977 2.342000
292 1 2.932000 1.692791 2.342000
293 1 2.932000 0.000000 4.684000
294 1 4.398000 2.539186 4.684000
295 2 4.398000 4.231977 7.026000
296 1 2.932000 1.692791 7.026000
297 2 2.932000 0.000000 9.368000
298 1 4.398000 2.539186 9.368000
299 1 4.398000 4.231977 11.710000
300 1 2.932000 1.692791 11.710000
301 1 2.932000 0.000000 14.052000
302 1 4.398000 2.539186 14.052000
303 1 4.398000 4.231977 16.394000
304 1 2.932000 1.692791 16.394000
305 1 2.932000 0.000000 18.736000
306 1 4.398000 2.539186 18.736000
307 1 4.398000 4.231977 21.078000
308 1 2.932000 1.692791 21.078000
309 2 2.932000 0.000000 23.420000
310 1 4.398000 2.539186 23.420000
311 1 4.398000 4.231977 25.762000
312 1 2.932000 1.692791 25.762000
313 1 2.932000 0.000000 28.104000
314 1 4.398000 2.539186 28.104000
315 1 4.398000 4.231977 30.446000
316 1 2.932000 1.692791 30.446000
317 1 2.932000 0.000000 32.788000
318 1 4.398000 2.539186 32.788000
319 1 4.398000 4.231977 35.130000
320 1 2.932000 1.692791 35.130000
321 1 2.932000 0.000000 37.472000
322 1 4.398000 2.539186 37.472000
323 1 4.398000 4.231977 39.814000
324 1 2.932000 1.692791 39.814000
325 1 2.932000 5.078373 0.000000
326 1 4.398000 7.617559 0.000000
327 1 4.398000 9.310350 2.342000
328 1 2.932000 6.771164 2.342000
329 1 2.932000 5.078373 4.684000
330 1 4.398000 7.617559 4.684000
331 1 4.398000 9.310350 7.026000
332 1 2.932000 6.771164 7.026000
333 1 2.932000 5.078373 9.368000
334 1 4.398000 7.617559 9.368000
335 1 4.398000 9.310350 11.710000
336 1 2.932000 6.771164 11.710000
337 1 2.932000 5.078373 14.052000
338 1 4.398000 7.617559 14.052000
339 1 4.398000 9.310350 16.394000
340 2 2.932000 6.771164 16.394000
341 1 2.932000 5.078373 18.736000
342 1 4.398000 7.617559 18.736000
343 1 4.398000 9.310350 21.078000
344 1 2.932000 6.771164 21.078000
345 1 2.932000 5.078373 23.420000
346 1 4.398000 7.617559 23.420000
347 1 4.398000 9.310350 25.762000
348 1 2.932000 6.771164 25.762000
349 1 2.932000 5.078373 28.104000
350 1 4.398000 7.617559 28.104000
351 1 4.398000 9.310350 30.446000
352 1 2.932000 6.771164 30.446000
353 1 2.932000 5.078373 32.788000
354 1 4.398000 7.617559 32.788000
355 1 4.398000 9.310350 35.130000
356 1 2.932000 6.771164 35.130000
357 1 2.932000 5.078373 37.472000
358 1 4.398000 7.617559 37.472000
359 1 4.398000 9.310350 39.814000
360 1 2.932000 6.771164 39.814000
361 1 2.932000 10.156746 0.000000
362 1 4.398000 12.695932 0.000000
363 1 4.398000 14.388723 2.342000
364 2 2.932000 11.849537 2.342000
365 1 2.932000 10.156746 4.684000
366 1 4.398000 12.695932 4.684000
367 1 4.398000 14.388723 7.026000
368 1 2.932000 11.849537 7.026000
369 2 2.932000 10.156746 9.368000
370 1 4.398000 12.695932 9.368000
371 1 4.398000 14.388723 11.710000
372 1 2.932000 11.849537 11.710000
373 1 2.932000 10.156746 14.052000
374 1 4.398000 12.695932 14.052000
375 1 4.398000 14.388723 16.394000
376 1 2.932000 11.849537 16.394000
377 1 2.932000 10.156746 18.736000
378 1 4.398000 12.695932 18.736000
379 1 4.398000 14.388723 21.078000
380 2 2.932000 11.849537 21.078000
381 1 2.932000 10.156746 23.420000
382 1 4.398000 12.695932 23.420000
383 1 4.398000 14.388723 25.762000
384 1 2.932000 11.849537 25.762000
385 1 2.932000 10.156746 28.104000
386 1 4.398000 12.695932 28.104000
387 1 4.398000 14.388723 30.446000
388 1 2.932000 11.849537 30.446000
389 1 2.932000 10.156746 32.788000
390 1 4.398000 12.695932 32.788000
391 1 4.398000 14.388723 35.130000
392 1 2.932000 11.849537 35.130000
393 2 2.932000 10.156746 37.472000
394 1 4.398000 12.695932 37.472000
395 1 4.398000 14.388723 39.814000
396 1 2.932000 11.849537 39.814000
397 1 2.932000 15.235119 0.000000
398 1 4.398000 17.774305 0.000000
399 1 4.398000 19.467096 2.342000
400 1 2.932000 16.927910 2.342000
401 1 2.932000 15.235119 4.684000
402 1 4.398000 17.774305 4.684000
403 2 4.398000 19.467096 7.026000
404 1 2.932000 16.927910 7.026000
405 1 2.932000 15.235119 9.368000
406 1 4.398000 17.774305 9.368000
407 2 4.398000 19.467096 11.710000
408 1 2.932000 16.927910 11.710000
409 1 2.932000 15.235119 14.052000
410 1 4.398000 17.774305 14.052000
411 1 4.398000 19.467096 16.394000
412 1 2.932000 16.927910 16.394000
413 1 2.932000 15.235119 18.736000
414 2 4.398000 17.774305 18.736000
415 1 4.398000 19.467096 21.078000
416 1 2.932000 16.927910 21.078000
417 2 2.932000 15.235119 23.420000
418 1 4.398000 17.774305 23.420000
419 1 4.398000 19.467096 25.762000
420 1 2.932000 16.927910 25.762000
421 1 2.932000 15.235119 28.104000
422 1 4.398000 17.774305 28.104000
423 1 4.398000 19.467096 30.446000
424 1 2.932000 16.927910 30.446000
425 1 2.932000 15.235119 32.788000
426 1 4.398000 17.774305 32.788000
427 1 4.398000 19.467096 35.130000
428 1 2.932000 16.927910 35.130000
429 1 2.932000 15.235119 37.472000
430 1 4.398000 17.774305 37.472000
431 1 4.398000 19.467096 39.814000
432 1 2.932000 16.927910 39.814000
433 1 2.932000 20.313492 0.000000
434 1 4.398000 22.852678 0.000000
435 1 4.398000 24.545469 2.342000
436 2 2.932000 22.006283 2.342000
437 1 2.932000 20.313492 4.684000
438 1 4.398000 22.852678 4.684000
439 1 4.398000 24.545469 7.026000
440 1 2.932000 22.006283 7.026000
441 1 2.932000 20.313492 9.368000
442 2 4.398000 22.852678 9.368000
443 1 4.398000 24.545469 11.710000
444 1 2.932000 22.006283 11.710000
445 1 2.932000 20.313492 14.052000
446 2 4.398000 22.852678 14.052000
447 1 4.398000 24.545469 16.394000
448 1 2.932000 22.006283 16.394000
449 1 2.932000 20.313492 18.736000
450 2 4.398000 22.852678 18.736000
451 1 4.398000 24.545469 21.078000
452 1 2.932000 22.006283 21.078000
453 1 2.932000 20.313492 23.420000
454 1 4.398000 22.852678 23.420000
455 1 4.398000 24.545469 25.762000
456 2 2.932000 22.006283 25.762000
457 1 2.932000 20.313492 28.104000
458 1 4.398000 22.852678 28.104000
459 1 4.398000 24.545469 30.446000
460 1 2.932000 22.006283 30.446000
461 2 2.932000 20.313492 32.788000
462 1 4.398000 22.852678 32.788000
463 1 4.398000 24.545469 35.130000
464 1 2.932000 22.006283 35.130000
465 1 2.932000 20.313492 37.472000
466 1 4.398000 22.852678 37.472000
467 1 4.398000 24.545469 39.814000
468 1 2.932000 22.006283 39.814000
469 1 2.932000 25.391865 0.000000
470 1 4.398000 27.931051 0.000000
471 1 4.398000 29.623842 2.342000
472 1 2.932000 27.084656 2.342000
473 1 2.932000 25.391865 4.684000
474 1 4.398000 27.931051 4.684000
475 2 4.398000 29.623842 7.026000
476 1 2.932000 27.084656 7.026000
477 1 2.932000 25.391865 9.368000
478 1 4.398000 27.931051 9.368000
479 1 4.398000 29.623842 11.710000
480 1 2.932000 27.084656 11.710000
481 1 2.932000 25.391865 14.052000
482 1 4.398000 27.931051 14.052000
483 1 4.398000 29.623842 16.394000
484 1 2.932000 27.084656 16.394000
485 1 2.932000 25.391865 18.736000
486 2 4.398000 27.931051 18.736000
487 1 4.398000 29.623842 21.078000
488 1 2.932000 27.084656 21.078000
489 1 2.932000 25.391865 23.420000
490 1 4.398000 27.931051 23.420000
491 1 4.398000 29.623842 25.762000
492 2 2.932000 27.084656 25.762000
493 1 2.932000 25.391865 28.104000
494 1 4.398000 27.931051 28.104000
495 1 4.398000 29.623842 30.446000
496 2 2.932000 27.084656 30.446000
497 1 2.932000 25.391865 32.788000
498 1 4.398000 27.931051 32.788000
499 1 4.398000 29.623842 35.130000
500 1 2.932000 27.084656 35.130000
501 1 2.932000 25.391865 37.472000
502 1 4.398000 27.931051 37.472000
503 1 4.398000 29.623842 39.814000
504 1 2.932000 27.084656 39.814000
505 1 2.932000 30.470238 0.000000
506 1 4.398000 33.009424 0.000000
507 1 4.398000 34.702215 2.342000
508 1 2.932000 32.163029 2.342000
509 1 2.932000 30.470238 4.684000
510 1 4.398000 33.009424 4.684000
511 1 4.398000 34.702215 7.026000
512 1 2.932000 32.163029 7.026000
513 1 2.932000 30.470238 9.368000
514 1 4.398000 33.009424 9.368000
515 1 4.398000 34.702215 11.710000
516 2 2.932000 32.163029 11.710000
517 1 2.932000 30.470238 14.052000
518 1 4.398000 33.009424 14.052000
519 1 4.398000 34.702215 16.394000
520 1 2.932000 32.163029 16.394000
521 1 2.932000 30.470238 18.736000
522 1 4.398000 33.009424 18.736000
523 1 4.398000 34.702215 21.078000
524 1 2.932000 32.163029 21.078000
525 1 2.932000 30.470238 23.420000
526 1 4.398000 33.009424 23.420000
527 1 4.398000 34.702215 25.762000
528 1 2.932000 32.163029 25.762000
529 1 2.932000 30.470238 28.104000
530 2 4.398000 33.009424 28.104000
531 1 4.398000 34.702215 30.446000
532 1 2.932000 32.163029 30.446000
533 1 2.932000 30.470238 32.788000
534 2 4.398000 33.009424 32.788000
535 1 4.398000 34.702215 35.130000
536 1 2.932000 32.163029 35.130000
537 1 2.932000 30.470238 37.472000
538 1 4.398000 33.009424 37.472000
539 1 4.398000 34.702215 39.814000
540 2 2.932000 32.163029 39.814000
541 1 2.932000 35.548611 0.000000
542 1 4.398000 38.087797 0.000000
543 1 4.398000 39.780588 2.342000
544 1 2.932000 37.241402 2.342000
545 2 2.932000 35.548611 4.684000
546 1 4.398000 38.087797 4.684000
547 1 4.398000 39.780588 7.026000
548 2 2.932000 37.241402 7.026000
549 1 2.932000 35.548611 9.368000
550 1 4.398000 38.087797 9.368000
551 1 4.398000 39.780588 11.710000
552 1 2.932000 37.241402 11.710000
553 1 2.932000 35.548611 14.052000
554 1 4.398000 38.087797 14.052000
555 1 4.398000 39.780588 16.394000
556 1 2.932000 37.241402 16.394000
557 1 2.932000 35.548611 18.736000
558 1 4.398000 38.087797 18.736000
559 1 4.398000 39.780588 21.078000
560 1 2.932000 37.241402 21.078000
561 1 2.932000 35.548611 23.420000
562 1 4.398000 38.087797 23.420000
563 1 4.398000 39.780588 25.762000
564 1 2.932000 37.241402 25.762000
565 1 2.932000 35.548611 28.104000
566 1 4.398000 38.087797 28.104000
567 1 4.398000 39.780588 30.446000
568 1 2.932000 37.241402 30.446000
569 1 2.932000 35.548611 32.788000
570 1 4.398000 38.087797 32.788000
571 1 4.398000 39.780588 35.130000
572 1 2.932000 37.241402 35.130000
573 2 2.932000 35.548611 37.472000
574 1 4.398000 38.087797 37.472000
575 1 4.398000 39.780588 39.814000
576 1 2.932000 37.241402 39.814000
577 1 5.864000 0.000000 0.000000
578 1 7.330000 2.539186 0.000000
579 1 7.330000 4.231977 2.342000
580 2 5.864000 1.692791 2.342000
581 1 5.864000 0.000000 4.684000
582 1 7.330000 2.539186 4.684000
583 1 7.330000 4.231977 7.026000
584 1 5.864000 1.692791 7.026000
585 1 5.864000 0.000000 9.368000
586 2 7.330000 2.539186 9.368000
587 1 7.330000 4.231977 11.710000
588 1 5.864000 1.692791 11.710000
589 1 5.864000 0.000000 14.052000
590 1 7.330000 2.539186 14.052000
591 1 7.330000 4.231977 16.394000
592 2 5.864000 1.692791 16.394000
593 1 5.864000 0.000000 18.736000
594 1 7.330000 2.539186 18.736000
595 1 7.330000 4.231977 21.078000
596 1 5.864000 1.692791 21.078000
597 1 5.864000 0.000000 23.420000
598 1 7.330000 2.539186 23.420000
599 1 7.330000 4.231977 25.762000
600 1 5.864000 1.692791 25.762000
601 1 5.864000 0.000000 28.104000
602 1 7.330000 2.539186 28.104000
603 1 7.330000 4.231977 30.446000
604 1 5.864000 1.692791 30.446000
605 1 5.864000 0.000000 32.788000
606 2 7.330000 2.539186 32.788000
607 1 7.330000 4.231977 35.130000
608 1 5.864000 1.692791 35.130000
609 1 5.864000 0.000000 37.472000
610 1 7.330000 2.539186 37.472000
611 1 7.330000 4.231977 39.814000
612 2 5.864000 1.692791 39.814000
613 1 5.864000 5.078373 0.000000
614 1 7.330000 7.617559 0.000000
615 1 7.330000 9.310350 2.342000
616 2 5.864000 6.771164 2.342000
617 1 5.864000 5.078373 4.684000
618 1 7.330000 7.617559 4.684000
619 1 7.330000 9.310350 7.026000
620 2 5.864000 6.771164 7.026000
621 1 5.864000 5.078373 9.368000
622 1 7.330000 7.617559 9.368000
623 1 7.330000 9.310350 11.710000
624 2 5.864000 6.771164 11.710000
625 1 5.864000 5.078373 14.052000
626 1 7.330000 7.617559 14.052000
627 1 7.330000 9.310350 16.394000
628 1 5.864000 6.771164 16.394000
629 2 5.864000 5.078373 18.736000
630 1 7.330000 7.617559 18.736000
631 1 7.330000 9.310350 21.078000
632 1 5.864000 6.771164 21.078000
633 1 5.864000 5.078373 23.420000
634 1 7.330000 7.617559 23.420000
635 1 7.330000 9.310350 25.762000
636 1 5.864000 6.771164 25.762000
637 2 5.864000 5.078373 28.104000
638 1 7.330000 7.617559 28.104000
639 1 7.330000 9.310350 30.446000
640 1 5.864000 6.771164 30.446000
641 1 5.864000 5.078373 32.788000
642 1 7.330000 7.617559 32.788000
643 1 7.330000 9.310350 35.130000
644 1 5.864000 6.771164 35.130000
645 2 5.864000 5.078373 37.472000
646 1 7.330000 7.617559 37.472000
647 1 7.330000 9.310350 39.814000
648 1 5.864000 6.771164 39.814000
649 1 5.864000 10.156746 0.000000
650 1 7.330000 12.695932 0.000000
651 1 7.330000 14.388723 2.342000
652 1 5.864000 11.849537 2.342000
653 2 5.864000 10.156746 4.684000
654 1 7.330000 12.695932 4.684000
655 1 7.330000 14.388723 7.026000
656 1 5.864000 11.849537 7.026000
657 1 5.864000 10.156746 9.368000
658 1 7.330000 12.695932 9.368000
659 1 7.330000 14.388723 11.710000
660 2 5.864000 11.849537 11.710000
661 1 5.864000 10.156746 14.052000
662 1 7.330000 12.695932 14.052000
663 1 7.330000 14.388723 16.394000
664 1 5.864000 11.849537 16.394000
665 1 5.864000 10.156746 18.736000
666 1 7.330000 12.695932 18.736000
667 2 7.330000 14.388723 21.078000
668 1 5.864000 11.849537 21.078000
669 1 5.864000 10.156746 23.420000
670 1 7.330000 12.695932 23.420000
671 1 7.330000 14.388723 25.762000
672 1 5.864000 11.849537 25.762000
673 2 5.864000 10.156746 28.104000
674 1 7.330000 12.695932 28.104000
675 2 7.330000 14.388723 30.446000
676 1 5.864000 11.849537 30.446000
677 1 5.864000 10.156746 32.788000
678 1 7.330000 12.695932 32.788000
679 1 7.330000 14.388723 35.130000
680 2 5.864000 11.849537 35.130000
681 1 5.864000 10.156746 37.472000
682 1 7.330000 12.695932 37.472000
683 1 7.330000 14.388723 39.814000
684 2 5.864000 11.849537 39.814000
685 1 5.864000 15.235119 0.000000
686 1 7.330000 17.774305 0.000000
687 1 7.330000 19.467096 2.342000
688 2 5.864000 16.927910 2.342000
689 1 5.864000 15.235119 4.684000
690 1 7.330000 17.774305 4.684000
691 1 7.330000 19.467096 7.026000
692 1 5.864000 16.927910 7.026000
693 1 5.864000 15.235119 9.368000
694 1 7.330000 17.774305 9.368000
695 1 7.330000 19.467096 11.710000
696 1 5.864000 16.927910 11.710000
697 1 5.864000 15.235119 14.052000
698 1 7.330000 17.774305 14.052000
699 1 7.330000 19.467096 16.394000
700 1 5.864000 16.927910 16.394000
701 1 5.864000 15.235119 18.736000
702 1 7.330000 17.774305 18.736000
703 1 7.330000 19.467096 21.078000
704 1 5.864000 16.927910 21.078000
705 1 5.864000 15.235119 23.420000
706 1 7.330000 17.774305 23.420000
707 1 7.330000 19.467096 25.762000
708 1 5.864000 16.927910 25.762000
709 1 5.864000 15.235119 28.104000
710 1 7.330000 17.774305 28.104000
711 1 7.330000 19.467096 30.446000
712 1 5.864000 16.927910 30.446000
713 1 5.864000 15.235119 32.788000
714 1 7.330000 17.774305 32.788000
715 1 7.330000 19.467096 35.130000
716 2 5.864000 16.927910 35.130000
717 1 5.864000 15.235119 37.472000
718 1 7.330000 17.774305 37.472000
719 1 7.330000 19.467096 39.814000
720 1 5.864000 16.927910 39.814000
721 1 5.864000 20.313492 0.000000
722 1 7.330000 22.852678 0.000000
723 1 7.330000 24.545469 2.342000
724 1 5.864000 22.006283 2.342000
725 1 5.864000 20.313492 4.684000
726 1 7.330000 22.852678 4.684000
727 1 7.330000 24.545469 7.026000
728 1 5.864000 22.006283 7.026000
729 1 5.864000 20.313492 9.368000
730 1 7.330000 22.852678 9.368000
731 2 7.330000 24.545469 11.710000
732 1 5.864000 22.006283 11.710000
733 1 5.864000 20.313492 14.052000
734 1 7.330000 22.852678 14.052000
735 1 7.330000 24.545469 16.394000
736 1 5.864000 22.006283 16.394000
737 1 5.864000 20.313492 18.736000
738 1 7.330000 22.852678 18.736000
739 1 7.330000 24.545469 21.078000
740 1 5.864000 22.006283 21.078000
741 1 5.864000 20.313492 23.420000
742 1 7.330000 22.852678 23.420000
743 2 7.330000 24.545469 25.762000
744 1 5.864000 22.006283 25.762000
745 1 5.864000 20.313492 28.104000
746 1 7.330000 22.852678 28.104000
747 1 7.330000 24.545469 30.446000
748 1 5.864000 22.006283 30.446000
749 1 5.864000 20.313492 32.788000
750 1 7.330000 22.852678 32.788000
751 1 7.330000 24.545469 35.130000
752 1 5.864000 22.006283 35.130000
753 2 5.864000 20.313492 37.472000
754 1 7.330000 22.852678 37.472000
755 1 7.330000 24.545469 39.814000
756 1 5.864000 22.006283 39.814000
757 1 5.864000 25.391865 0.000000
758 1 7.330000 27.931051 0.000000
759 1 7.330000 29.623842 2.342000
760 2 5.864000 27.084656 2.342000
761 1 5.864000 25.391865 4.684000
762 1 7.330000 27.931051 4.684000
763 1 7.330000 29.623842 7.026000
764 1 5.864000 27.084656 7.026000
765 1 5.864000 25.391865 9.368000
766 1 7.330000 27.931051 9.368000
767 1 7.330000 29.623842 11.710000
768 1 5.864000 27.084656 11.710000
769 1 5.864000 25.391865 14.052000
770 1 7.330000 27.931051 14.052000
771 1 7.330000 29.623842 16.394000
772 1 5.864000 27.084656 16.394000
773 1 5.864000 25.391865 18.736000
774 1 7.330000 27.931051 18.736000
775 1 7.330000 29.623842 21.078000
776 1 5.864000 27.084656 21.078000
777 1 5.864000 25.391865 23.420000
778 1 7.330000 27.931051 23.420000
779 1 7.330000 29.623842 25.762000
780 1 5.864000 27.084656 25.762000
781 1 5.864000 25.391865 28.104000
782 1 7.330000 27.931051 28.104000
783 1 7.330000 29.623842 30.446000
784 1 5.864000 27.084656 30.446000
785 1 5.864000 25.391865 32.788000
786 2 7.330000 27.931051 32.788000
787 1 7.330000 29.623842 35.130000
788 1 5.864000 27.084656 35.130000
789 1 5.864000 25.391865 37.472000
790 1 7.330000 27.931051 37.472000
791 1 7.330000 29.623842 39.814000
792 1 5.864000 27.084656 39.814000
793 1 5.864000 30.470238 0.000000
794 1 7.330000 33.009424 0.000000
795 2 7.330000 34.702215 2.342000
796 1 5.864000 32.163029 2.342000
797 1 5.864000 30.470238 4.684000
798 1 7.330000 33.009424 4.684000
799 2 7.330000 34.702215 7.026000
800 1 5.864000 32.163029 7.026000
801 1 5.864000 30.470238 9.368000
802 1 7.330000 33.009424 9.368000
803 1 7.330000 34.702215 11.710000
804 1 5.864000 32.163029 11.710000
805 1 5.864000 30.470238 14.052000
806 1 7.330000 33.009424 14.052000
807 1 7.330000 34.702215 16.394000
808 1 5.864000 32.163029 16.394000
809 1 5.864000 30.470238 18.736000
810 1 7.330000 33.009424 18.736000
811 1 7.330000 34.702215 21.078000
812 1 5.864000 32.163029 21.078000
813 2 5.864000 30.470238 23.420000
814 1 7.330000 33.009424 23.420000
815 1 7.330000 34.702215 25.762000
816 1 5.864000 32.163029 25.762000
817 1 5.864000 30.470238 28.104000
818 1 7.330000 33.009424 28.104000
819 1 7.330000 34.702215 30.446000
820 1 5.864000 32.163029 30.446000
821 1 5.864000 30.470238 32.788000
822 1 7.330000 33.009424 32.788000
823 2 7.330000 34.702215 35.130000
824 1 5.864000 32.163029 35.130000
825 1 5.864000 30.470238 37.472000
826 1 7.330000 33.009424 37.472000
827 1 7.330000 34.702215 39.814000
828 1 5.864000 32.163029 39.814000
829 1 5.864000 35.548611 0.000000
830 1 7.330000 38.087797 0.000000
831 1 7.330000 39.780588 2.342000
832 1 5.864000 37.241402 2.342000
833 1 5.864000 35.548611 4.684000
834 1 7.330000 38.087797 4.684000
835 2 7.330000 39.780588 7.026000
836 1 5.864000 37.241402 7.026000
837 1 5.864000 35.548611 9.368000
838 1 7.330000 38.087797 9.368000
839 1 7.330000 39.780588 11.710000
840 2 5.864000 37.241402 11.710000
841 1 5.864000 35.548611 14.052000
842 1 7.330000 38.087797 14.052000
843 1 7.330000 39.780588 16.394000
844 1 5.864000 37.241402 16.394000
845 2 5.864000 35.548611 18.736000
846 1 7.330000 38.087797 18.736000
847 2 7.330000 39.780588 21.078000
848 1 5.864000 37.241402 21.078000
849 1 5.864000 35.548611 23.420000
850 1 7.330000 38.087797 23.420000
851 1 7.330000 39.780588 25.762000
852 2 5.864000 37.241402 25.762000
853 1 5.864000 35.548611 28.104000
854 1 7.330000 38.087797 28.104000
855 1 7.330000 39.780588 30.446000
856 2 5.864000 37.241402 30.446000
857 1 5.864000 35.548611 32.788000
858 2 7.330000 38.087797 32.788000
859 1 7.330000 39.780588 35.130000
860 1 5.864000 37.241402 35.130000
861 1 5.864000 35.548611 37.472000
862 2 7.330000 38.087797 37.472000
863 1 7.330000 39.780588 39.814000
864 1 5.864000 37.241402 39.814000
865 2 8.796000 0.000000 0.000000
866 1 10.262000 2.539186 0.000000
867 2 10.262000 4.231977 2.342000
868 1 8.796000 1.692791 2.342000
869 1 8.796000 0.000000 4.684000
870 1 10.262000 2.539186 4.684000
871 1 10.262000 4.231977 7.026000
872 1 8.796000 1.692791 7.026000
873 1 8.796000 0.000000 9.368000
874 1 10.262000 2.539186 9.368000
875 1 10.262000 4.231977 11.710000
876 1 8.796000 1.692791 11.710000
877 1 8.796000 0.000000 14.052000
878 2 10.262000 2.539186 14.052000
879 1 10.262000 4.231977 16.394000
880 1 8.796000 1.692791 16.394000
881 1 8.796000 0.000000 18.736000
882 2 10.262000 2.539186 18.736000
883 1 10.262000 4.231977 21.078000
884 1 8.796000 1.692791 21.078000
885 1 8.796000 0.000000 23.420000
886 1 10.262000 2.539186 23.420000
887 1 10.262000 4.231977 25.762000
888 2 8.796000 1.692791 25.762000
889 1 8.796000 0.000000 28.104000
890 1 10.262000 2.539186 28.104000
891 1 10.262000 4.231977 30.446000
892 1 8.796000 1.692791 30.446000
893 1 8.796000 0.000000 32.788000
894 1 10.262000 2.539186 32.788000
895 1 10.262000 4.231977 35.130000
896 1 8.796000 1.692791 35.130000
897 1 8.796000 0.000000 37.472000
898 1 10.262000 2.539186 37.472000
899 2 10.262000 4.231977 39.814000
900 1 8.796000 1.692791 39.814000
901 1 8.796000 5.078373 0.000000
902 1 10.262000 7.617559 0.000000
903 1 10.262000 9.310350 2.342000
904 1 8.796000 6.771164 2.342000
905 1 8.796000 5.078373 4.684000
906 1 10.262000 7.617559 4.684000
907 1 10.262000 9.310350 7.026000
908 1 8.796000 6.771164 7.026000
909 1 8.796000 5.078373 9.368000
910 1 10.262000 7.617559 9.368000
911 1 10.262000 9.310350 11.710000
912 2 8.796000 6.771164 11.710000
913 1 8.796000 5.078373 14.052000
914 1 10.262000 7.617559 14.052000
915 1 10.262000 9.310350 16.394000
916 1 8.796000 6.771164 16.394000
917 1 8.796000 5.078373 18.736000
918 1 10.262000 7.617559 18.736000
919 1 10.262000 9.310350 21.078000
920 2 8.796000 6.771164 21.078000
921 1 8.796000 5.078373 23.420000
922 1 10.262000 7.617559 23.420000
923 1 10.262000 9.310350 25.762000
924 1 8.796000 6.771164 25.762000
925 1 8.796000 5.078373 28.104000
926 1 10.262000 7.617559 28.104000
927 1 10.262000 9.310350 30.446000
928 1 8.796000 6.771164 30.446000
929 1 8.796000 5.078373 32.788000
930 1 10.262000 7.617559 32.788000
931 2 10.262000 9.310350 35.130000
932 2 8.796000 6.771164 35.130000
933 1 8.796000 5.078373 37.472000
934 1 10.262000 7.617559 37.472000
935 1 10.262000 9.310350 39.814000
936 1 8.796000 6.771164 39.814000
937 1 8.796000 10.156746 0.000000
938 1 10.262000 12.695932 0.000000
939 1 10.262000 14.388723 2.342000
940 1 8.796000 11.849537 2.342000
941 1 8.796000 10.156746 4.684000
942 1 10.262000 12.695932 4.684000
943 1 10.262000 14.388723 7.026000
944 1 8.796000 11.849537 7.026000
945 1 8.796000 10.156746 9.368000
946 1 10.262000 12.695932 9.368000
947 2 10.262000 14.388723 11.710000
948 1 8.796000 11.849537 11.710000
949 1 8.796000 10.156746 14.052000
950 1 10.262000 12.695932 14.052000
951 1 10.262000 14.388723 16.394000
952 1 8.796000 11.849537 16.394000
953 2 8.796000 10.156746 18.736000
954 1 10.262000 12.695932 18.736000
955 1 10.262000 14.388723 21.078000
956 1 8.796000 11.849537 21.078000
957 1 8.796000 10.156746 23.420000
958 1 10.262000 12.695932 23.420000
959 1 10.262000 14.388723 25.762000
960 1 8.796000 11.849537 25.762000
961 1 8.796000 10.156746 28.104000
962 1 10.262000 12.695932 28.104000
963 1 10.262000 14.388723 30.446000
964 1 8.796000 11.849537 30.446000
965 1 8.796000 10.156746 32.788000
966 1 10.262000 12.695932 32.788000
967 2 10.262000 14.388723 35.130000
968 1 8.796000 11.849537 35.130000
969 1 8.796000 10.156746 37.472000
970 1 10.262000 12.695932 37.472000
971 1 10.262000 14.388723 39.814000
972 1 8.796000 11.849537 39.814000
973 1 8.796000 15.235119 0.000000
974 1 10.262000 17.774305 0.000000
975 1 10.262000 19.467096 2.342000
976 1 8.796000 16.927910 2.342000
977 2 8.796000 15.235119 4.684000
978 1 10.262000 17.774305 4.684000
979 1 10.262000 19.467096 7.026000
980 1 8.796000 16.927910 7.026000
981 1 8.796000 15.235119 9.368000
982 1 10.262000 17.774305 9.368000
983 1 10.262000 19.467096 11.710000
984 1 8.796000 16.927910 11.710000
985 1 8.796000 15.235119 14.052000
986 1 10.262000 17.774305 14.052000
987 1 10.262000 19.467096 16.394000
988 2 8.796000 16.927910 16.394000
989 1 8.796000 15.235119 18.736000
990 1 10.262000 17.774305 18.736000
991 1 10.262000 19.467096 21.078000
992 1 8.796000 16.927910 21.078000
993 1 8.796000 15.235119 23.420000
994 1 10.262000 17.774305 23.420000
995 1 10.262000 19.467096 25.762000
996 1 8.796000 16.927910 25.762000
997 1 8.796000 15.235119 28.104000
998 1 10.262000 17.774305 28.104000
999 1 10.262000 19.467096 30.446000
1000 1 8.796000 16.927910 30.446000
1001 1 8.796000 15.235119 32.788000
1002 2 10.262000 17.774305 32.788000
1003 1 10.262000 19.467096 35.130000
1004 1 8.796000 16.927910 35.130000
1005 1 8.796000 15.235119 37.472000
1006 1 10.262000 17.774305 37.472000
1007 1 10.262000 19.467096 39.814000
1008 1 8.796000 16.927910 39.814000
1009 2 8.796000 20.313492 0.000000
1010 1 10.262000 22.852678 0.000000
1011 1 10.262000 24.545469 2.342000
1012 1 8.796000 22.006283 2.342000
1013 2 8.796000 20.313492 4.684000
1014 1 10.262000 22.852678 4.684000
1015 1 10.262000 24.545469 7.026000
1016 1 8.796000 22.006283 7.026000
1017 1 8.796000 20.313492 9.368000
1018 2 10.262000 22.852678 9.368000
1019 1 10.262000 24.545469 11.710000
1020 1 8.796000 22.006283 11.710000
1021 1 8.796000 20.313492 14.052000
1022 1 10.262000 22.852678 14.052000
1023 1 10.262000 24.545469 16.394000
1024 2 8.796000 22.006283 16.394000
1025 1 8.796000 20.313492 18.736000
1026 1 10.262000 22.852678 18.736000
1027 1 10.262000 24.545469 21.078000
1028 1 8.796000 22.006283 21.078000
1029 2 8.796000 20.313492 23.420000
1030 1 10.262000 22.852678 23.420000
1031 1 10.262000 24.545469 25.762000
1032 1 8.796000 22.006283 25.762000
1033 1 8.796000 20.313492 28.104000
1034 1 10.262000 22.852678 28.104000
1035 1 10.262000 24.545469 30.446000
1036 1 8.796000 22.006283 30.446000
1037 1 8.796000 20.313492 32.788000
1038 2 10.262000 22.852678 32.788000
1039 1 10.262000 24.545469 35.130000
1040 1 8.796000 22.006283 35.130000
1041 1 8.796000 20.313492 37.472000
1042 1 10.262000 22.852678 37.472000
1043 1 10.262000 24.545469 39.814000
1044 1 8.796000 22.006283 39.814000
1045 2 8.796000 25.391865 0.000000
1046 1 10.262000 27.931051 0.000000
1047 1 10.262000 29.623842 2.342000
1048 1 8.796000 27.084656 2.342000
1049 2 8.796000 25.391865 4.684000
1050 1 10.262000 27.931051 4.684000
1051 1 10.262000 29.623842 7.026000
1052 1 8.796000 27.084656 7.026000
1053 1 8.796000 25.391865 9.368000
1054 1 10.262000 27.931051 9.368000
1055 1 10.262000 29.623842 11.710000
1056 1 8.796000 27.084656 11.710000
1057 1 8.796000 25.391865 14.052000
1058 1 10.262000 27.931051 14.052000
1059 1 10.262000 29.623842 16.394000
1060 1 8.796000 27.084656 16.394000
1061 1 8.796000 25.391865 18.736000
1062 1 10.262000 27.931051 18.736000
1063 1 10.262000 29.623842 21.078000
1064 1 8.796000 27.084656 21.078000
1065 1 8.796000 25.391865 23.420000
1066 1 10.262000 27.931051 23.420000
1067 2 10.262000 29.623842 25.762000
1068 1 8.796000 27.084656 25.762000
1069 1 8.796000 25.391865 28.104000
1070 1 10.262000 27.931051 28.104000
1071 1 10.262000 29.623842 30.446000
1072 1 8.796000 27.084656 30.446000
1073 1 8.796000 25.391865 32.788000
1074 1 10.262000 27.931051 32.788000
1075 1 10.262000 29.623842 35.130000
1076 1 8.796000 27.084656 35.130000
1077 2 8.796000 25.391865 37.472000
1078 1 10.262000 27.931051 37.472000
1079 1 10.262000 29.623842 39.814000
1080 1 8.796000 27.084656 39.814000
1081 1 8.796000 30.470238 0.000000
1082 2 10.262000 33.009424 0.000000
1083 1 10.262000 34.702215 2.342000
1084 1 8.796000 32.163029 2.342000
1085 1 8.796000 30.470238 4.684000
1086 1 10.262000 33.009424 4.684000
1087 1 10.262000 34.702215 7.026000
1088 1 8.796000 32.163029 7.026000
1089 1 8.796000 30.470238 9.368000
1090 1 10.262000 33.009424 9.368000
1091 1 10.262000 34.702215 11.710000
1092 1 8.796000 32.163029 11.710000
1093 2 8.796000 30.470238 14.052000
1094 1 10.262000 33.009424 14.052000
1095 1 10.262000 34.702215 16.394000
1096 1 8.796000 32.163029 16.394000
1097 1 8.796000 30.470238 18.736000
1098 1 10.262000 33.009424 18.736000
1099 1 10.262000 34.702215 21.078000
1100 1 8.796000 32.163029 21.078000
1101 1 8.796000 30.470238 23.420000
1102 1 10.262000 33.009424 23.420000
1103 1 10.262000 34.702215 25.762000
1104 1 8.796000 32.163029 25.762000
1105 1 8.796000 30.470238 28.104000
1106 1 10.262000 33.009424 28.104000
1107 1 10.262000 34.702215 30.446000
1108 1 8.796000 32.163029 30.446000
1109 1 8.796000 30.470238 32.788000
1110 1 10.262000 33.009424 32.788000
1111 1 10.262000 34.702215 35.130000
1112 1 8.796000 32.163029 35.130000
1113 2 8.796000 30.470238 37.472000
1114 1 10.262000 33.009424 37.472000
1115 2 10.262000 34.702215 39.814000
1116 1 8.796000 32.163029 39.814000
1117 1 8.796000 35.548611 0.000000
1118 1 10.262000 38.087797 0.000000
1119 1 10.262000 39.780588 2.342000
1120 1 8.796000 37.241402 2.342000
1121 1 8.796000 35.548611 4.684000
1122 1 10.262000 38.087797 4.684000
1123 1 10.262000 39.780588 7.026000
1124 1 8.796000 37.241402 7.026000
1125 1 8.796000 35.548611 9.368000
1126 1 10.262000 38.087797 9.368000
1127 1 10.262000 39.780588 11.710000
1128 1 8.796000 37.241402 11.710000
1129 2 8.796000 35.548611 14.052000
1130 1 10.262000 38.087797 14.052000
1131 2 10.262000 39.780588 16.394000
1132 1 8.796000 37.241402 16.394000
1133 2 8.796000 35.548611 18.736000
1134 1 10.262000 38.087797 18.736000
1135 1 10.262000 39.780588 21.078000
1136 1 8.796000 37.241402 21.078000
1137 1 8.796000 35.548611 23.420000
1138 2 10.262000 38.087797 23.420000
1139 1 10.262000 39.780588 25.762000
1140 1 8.796000 37.241402 25.762000
1141 1 8.796000 35.548611 28.104000
1142 2 10.262000 38.087797 28.104000
1143 1 10.262000 39.780588 30.446000
1144 1 8.796000 37.241402 30.446000
1145 1 8.796000 35.548611 32.788000
1146 1 10.262000 38.087797 32.788000
1147 1 10.262000 39.780588 35.130000
1148 1 8.796000 37.241402 35.130000
1149 1 8.796000 35.548611 37.472000
1150 1 10.262000 38.087797 37.472000
1151 1 10.262000 39.780588 39.814000
1152 1 8.796000 37.241402 39.814000
1153 1 11.728000 0.000000 0.000000
1154 1 13.194000 2.539186 0.000000
1155 1 13.194000 4.231977 2.342000
1156 1 11.728000 1.692791 2.342000
1157 1 11.728000 0.000000 4.684000
1158 1 13.194000 2.539186 4.684000
1159 1 13.194000 4.231977 7.026000
1160 1 11.728000 1.692791 7.026000
1161 2 11.728000 0.000000 9.368000
1162 1 13.194000 2.539186 9.368000
1163 1 13.194000 4.231977 11.710000
1164 1 11.728000 1.692791 11.710000
1165 1 11.728000 0.000000 14.052000
1166 1 13.194000 2.539186 14.052000
1167 1 13.194000 4.231977 16.394000
1168 1 11.728000 1.692791 16.394000
1169 1 11.728000 0.000000 18.736000
1170 1 13.194000 2.539186 18.736000
1171 1 13.194000 4.231977 21.078000
1172 1 11.728000 1.692791 21.078000
1173 1 11.728000 0.000000 23.420000
1174 1 13.194000 2.539186 23.420000
1175 2 13.194000 4.231977 25.762000
1176 1 11.728000 1.692791 25.762000
1177 1 11.728000 0.000000 28.104000
1178 1 13.194000 2.539186 28.104000
1179 1 13.194000 4.231977 30.446000
1180 1 11.728000 1.692791 30.446000
1181 1 11.728000 0.000000 32.788000
1182 1 13.194000 2.539186 32.788000
1183 1 13.194000 4.231977 35.130000
1184 1 11.728000 1.692791 35.130000
1185 2 11.728000 0.000000 37.472000
1186 1 13.194000 2.539186 37.472000
1187 1 13.194000 4.231977 39.814000
1188 1 11.728000 1.692791 39.814000
1189 1 11.728000 5.078373 0.000000
1190 1 13.194000 7.617559 0.000000
1191 1 13.194000 9.310350 2.342000
1192 1 11.728000 6.771164 2.342000
1193 1 11.728000 5.078373 4.684000
1194 1 13.194000 7.617559 4.684000
1195 1 13.194000 9.310350 7.026000
1196 1 11.728000 6.771164 7.026000
1197 1 11.728000 5.078373 9.368000
1198 2 13.194000 7.617559 9.368000
1199 1 13.194000 9.310350 11.710000
1200 1 11.728000 6.771164 11.710000
1201 1 11.728000 5.078373 14.052000
1202 1 13.194000 7.617559 14.052000
1203 1 13.194000 9.310350 16.394000
1204 2 11.728000 6.771164 16.394000
1205 1 11.728000 5.078373 18.736000
1206 1 13.194000 7.617559 18.736000
1207 1 13.194000 9.310350 21.078000
1208 1 11.728000 6.771164 21.078000
1209 1 11.728000 5.078373 23.420000
1210 1 13.194000 7.617559 23.420000
1211 1 13.194000 9.310350 25.762000
1212 1 11.728000 6.771164 25.762000
1213 1 11.728000 5.078373 28.104000
1214 1 13.194000 7.617559 28.104000
1215 1 13.194000 9.310350 30.446000
1216 2 11.728000 6.771164 30.446000
1217 1 11.728000 5.078373 32.788000
1218 1 13.194000 7.617559 32.788000
1219 1 13.194000 9.310350 35.130000
1220 1 11.728000 6.771164 35.130000
1221 1 11.728000 5.078373 37.472000
1222 1 13.194000 7.617559 37.472000
1223 2 13.194000 9.310350 39.814000
1224 1 11.728000 6.771164 39.814000
1225 1 11.728000 10.156746 0.000000
1226 1 13.194000 12.695932 0.000000
1227 1 13.194000 14.388723 2.342000
1228 2 11.728000 11.849537 2.342000
1229 1 11.728000 10.156746 4.684000
1230 1 13.194000 12.695932 4.684000
1231 1 13.194000 14.388723 7.026000
1232 1 11.728000 11.849537 7.026000
1233 1 11.728000 10.156746 9.368000
1234 2 13.194000 12.695932 9.368000
1235 1 13.194000 14.388723 11.710000
1236 1 11.728000 11.849537 11.710000
1237 1 11.728000 10.156746 14.052000
1238 2 13.194000 12.695932 14.052000
1239 1 13.194000 14.388723 16.394000
1240 1 11.728000 11.849537 16.394000
1241 1 11.728000 10.156746 18.736000
1242 2 13.194000 12.695932 18.736000
1243 1 13.194000 14.388723 21.078000
1244 1 11.728000 11.849537 21.078000
1245 1 11.728000 10.156746 23.420000
1246 1 13.194000 12.695932 23.420000
1247 1 13.194000 14.388723 25.762000
1248 1 11.728000 11.849537 25.762000
1249 1 11.728000 10.156746 28.104000
1250 1 13.194000 12.695932 28.104000
1251 1 13.194000 14.388723 30.446000
1252 1 11.728000 11.849537 30.446000
1253 1 11.728000 10.156746 32.788000
1254 1 13.194000 12.695932 32.788000
1255 1 13.194000 14.388723 35.130000
1256 1 11.728000 11.849537 35.130000
1257 1 11.728000 10.156746 37.472000
1258 2 13.194000 12.695932 37.472000
1259 1 13.194000 14.388723 39.814000
1260 1 11.728000 11.849537 39.814000
1261 1 11.728000 15.235119 0.000000
1262 1 13.194000 17.774305 0.000000
1263 1 13.194000 19.467096 2.342000
1264 1 11.728000 16.927910 2.342000
1265 1 11.728000 15.235119 4.684000
1266 1 13.194000 17.774305 4.684000
1267 1 13.194000 19.467096 7.026000
1268 1 11.728000 16.927910 7.026000
1269 1 11.728000 15.235119 9.368000
1270 2 13.194000 17.774305 9.368000
1271 1 13.194000 19.467096 11.710000
1272 1 11.728000 16.927910 11.710000
1273 1 11.728000 15.235119 14.052000
1274 1 13.194000 17.774305 14.052000
1275 1 13.194000 19.467096 16.394000
1276 1 11.728000 16.927910 16.394000
1277 1 11.728000 15.235119 18.736000
1278 2 13.194000 17.774305 18.736000
1279 1 13.194000 19.467096 21.078000
1280 1 11.728000 16.927910 21.078000
1281 1 11.728000 15.235119 23.420000
1282 1 13.194000 17.774305 23.420000
1283 1 13.194000 19.467096 25.762000
1284 2 11.728000 16.927910 25.762000
1285 1 11.728000 15.235119 28.104000
1286 1 13.194000 17.774305 28.104000
1287 1 13.194000 19.467096 30.446000
1288 1 11.728000 16.927910 30.446000
1289 1 11.728000 15.235119 32.788000
1290 1 13.194000 17.774305 32.788000
1291 1 13.194000 19.467096 35.130000
1292 1 11.728000 16.927910 35.130000
1293 1 11.728000 15.235119 37.472000
1294 1 13.194000 17.774305 37.472000
1295 1 13.194000 19.467096 39.814000
1296 2 11.728000 16.927910 39.814000
1297 1 11.728000 20.313492 0.000000
1298 1 13.194000 22.852678 0.000000
1299 1 13.194000 24.545469 2.342000
1300 1 11.728000 22.006283 2.342000
1301 1 11.728000 20.313492 4.684000
1302 1 13.194000 22.852678 4.684000
1303 2 13.194000 24.545469 7.026000
1304 1 11.728000 22.006283 7.026000
1305 1 11.728000 20.313492 9.368000
1306 1 13.194000 22.852678 9.368000
1307 1 13.194000 24.545469 11.710000
1308 1 11.728000 22.006283 11.710000
1309 1 11.728000 20.313492 14.052000
1310 2 13.194000 22.852678 14.052000
1311 1 13.194000 24.545469 16.394000
1312 1 11.728000 22.006283 16.394000
1313 1 11.728000 20.313492 18.736000
1314 1 13.194000 22.852678 18.736000
1315 1 13.194000 24.545469 21.078000
1316 2 11.728000 22.006283 21.078000
1317 1 11.728000 20.313492 23.420000
1318 1 13.194000 22.852678 23.420000
1319 1 13.194000 24.545469 25.762000
1320 1 11.728000 22.006283 25.762000
1321 2 11.728000 20.313492 28.104000
1322 1 13.194000 22.852678 28.104000
1323 1 13.194000 24.545469 30.446000
1324 1 11.728000 22.006283 30.446000
1325 1 11.728000 20.313492 32.788000
1326 1 13.194000 22.852678 32.788000
1327 1 13.194000 24.545469 35.130000
1328 1 11.728000 22.006283 35.130000
1329 1 11.728000 20.313492 37.472000
1330 1 13.194000 22.852678 37.472000
1331 1 13.194000 24.545469 39.814000
1332 2 11.728000 22.006283 39.814000
1333 1 11.728000 25.391865 0.000000
1334 1 13.194000 27.931051 0.000000
1335 1 13.194000 29.623842 2.342000
1336 1 11.728000 27.084656 2.342000
1337 1 11.728000 25.391865 4.684000
1338 1 13.194000 27.931051 4.684000
1339 1 13.194000 29.623842 7.026000
1340 1 11.728000 27.084656 7.026000
1341 1 11.728000 25.391865 9.368000
1342 1 13.194000 27.931051 9.368000
1343 1 13.194000 29.623842 11.710000
1344 2 11.728000 27.084656 11.710000
1345 1 11.728000 25.391865 14.052000
1346 1 13.194000 27.931051 14.052000
1347 1 13.194000 29.623842 16.394000
1348 1 11.728000 27.084656 16.394000
1349 1 11.728000 25.391865 18.736000
1350 1 13.194000 27.931051 18.736000
1351 1 13.194000 29.623842 21.078000
1352 1 11.728000 27.084656 21.078000
1353 1 11.728000 25.391865 23.420000
1354 2 13.194000 27.931051 23.420000
1355 1 13.194000 29.623842 25.762000
1356 1 11.728000 27.084656 25.762000
1357 1 11.728000 25.391865 28.104000
1358 1 13.194000 27.931051 28.104000
1359 2 13.194000 29.623842 30.446000
1360 1 11.728000 27.084656 30.446000
1361 1 11.728000 25.391865 32.788000
1362 1 13.194000 27.931051 32.788000
1363 1 13.194000 29.623842 35.130000
1364 2 11.728000 27.084656 35.130000
1365 1 11.728000 25.391865 37.472000
1366 1 13.194000 27.931051 37.472000
1367 1 13.194000 29.623842 39.814000
1368 2 11.728000 27.084656 39.814000
1369 1 11.728000 30.470238 0.000000
1370 1 13.194000 33.009424 0.000000
1371 1 13.194000 34.702215 2.342000
1372 1 11.728000 32.163029 2.342000
1373 1 11.728000 30.470238 4.684000
1374 1 13.194000 33.009424 4.684000
1375 1 13.194000 34.702215 7.026000
1376 1 11.728000 32.163029 7.026000
1377 1 11.728000 30.470238 9.368000
1378 1 13.194000 33.009424 9.368000
1379 1 13.194000 34.702215 11.710000
1380 1 11.728000 32.163029 11.710000
1381 1 11.728000 30.470238 14.052000
1382 1 13.194000 33.009424 14.052000
1383 1 13.194000 34.702215 16.394000
1384 1 11.728000 32.163029 16.394000
1385 1 11.728000 30.470238 18.736000
1386 2 13.194000 33.009424 18.736000
1387 1 13.194000 34.702215 21.078000
1388 1 11.728000 32.163029 21.078000
1389 1 11.728000 30.470238 23.420000
1390 1 13.194000 33.009424 23.420000
1391 1 13.194000 34.702215 25.762000
1392 1 11.728000 32.163029 25.762000
1393 1 11.728000 30.470238 28.104000
1394 1 13.194000 33.009424 28.104000
1395 1 13.194000 34.702215 30.446000
1396 1 11.728000 32.163029 30.446000
1397 2 11.728000 30.470238 32.788000
1398 1 13.194000 33.009424 32.788000
1399 1 13.194000 34.702215 35.130000
1400 1 11.728000 32.163029 35.130000
1401 1 11.728000 30.470238 37.472000
1402 2 13.194000 33.009424 37.472000
1403 1 13.194000 34.702215 39.814000
1404 1 11.728000 32.163029 39.814000
1405 1 11.728000 35.548611 0.000000
1406 1 13.194000 38.087797 0.000000
1407 1 13.194000 39.780588 2.342000
1408 1 11.728000 37.241402 2.342000
1409 1 11.728000 35.548611 4.684000
1410 1 13.194000 38.087797 4.684000
1411 1 13.194000 39.780588 7.026000
1412 1 11.728000 37.241402 7.026000
1413 1 11.728000 35.548611 9.368000
1414 1 13.194000 38.087797 9.368000
1415 1 13.194000 39.780588 11.710000
1416 1 11.728000 37.241402 11.710000
1417 1 11.728000 35.548611 14.052000
1418 1 13.194000 38.087797 14.052000
1419 2 13.194000 39.780588 16.394000
1420 1 11.728000 37.241402 16.394000
1421 1 11.728000 35.548611 18.736000
1422 1 13.194000 38.087797 18.736000
1423 1 13.194000 39.780588 21.078000
1424 1 11.728000 37.241402 21.078000
1425 1 11.728000 35.548611 23.420000
1426 1 13.194000 38.087797 23.420000
1427 1 13.194000 39.780588 25.762000
1428 1 11.728000 37.241402 25.762000
1429 1 11.728000 35.548611 28.104000
1430 1 13.194000 38.087797 28.104000
1431 1 13.194000 39.780588 30.446000
1432 1 11.728000 37.241402 30.446000
1433 1 11.728000 35.548611 32.788000
1434 2 13.194000 38.087797 32.788000
1435 1 13.194000 39.780588 35.130000
1436 2 11.728000 37.241402 35.130000
1437 1 11.728000 35.548611 37.472000
1438 1 13.194000 38.087797 37.472000
1439 1 13.194000 39.780588 39.814000
1440 1 11.728000 37.241402 39.814000
1441 2 14.660000 0.000000 0.000000
1442 1 16.126000 2.539186 0.000000
1443 1 16.126000 4.231977 2.342000
1444 2 14.660000 1.692791 2.342000
1445 1 14.660000 0.000000 4.684000
1446 1 16.126000 2.539186 4.684000
1447 2 16.126000 4.231977 7.026000
1448 1 14.660000 1.692791 7.026000
1449 1 14.660000 0.000000 9.368000
1450 1 16.126000 2.539186 9.368000
1451 1 16.126000 4.231977 11.710000
1452 1 14.660000 1.692791 11.710000
1453 1 14.660000 0.000000 14.052000
1454 2 16.126000 2.539186 14.052000
1455 1 16.126000 4.231977 16.394000
1456 1 14.660000 1.692791 16.394000
1457 1 14.660000 0.000000 18.736000
1458 1 16.126000 2.539186 18.736000
1459 1 16.126000 4.231977 21.078000
1460 1 14.660000 1.692791 21.078000
1461 1 14.660000 0.000000 23.420000
1462 1 16.126000 2.539186 23.420000
1463 1 16.126000 4.231977 25.762000
1464 1 14.660000 1.692791 25.762000
1465 1 14.660000 0.000000 28.104000
1466 1 16.126000 2.539186 28.104000
1467 2 16.126000 4.231977 30.446000
1468 1 14.660000 1.692791 30.446000
1469 1 14.660000 0.000000 32.788000
1470 1 16.126000 2.539186 32.788000
1471 1 16.126000 4.231977 35.130000
1472 1 14.660000 1.692791 35.130000
1473 1 14.660000 0.000000 37.472000
1474 1 16.126000 2.539186 37.472000
1475 2 16.126000 4.231977 39.814000
1476 1 14.660000 1.692791 39.814000
1477 1 14.660000 5.078373 0.000000
1478 1 16.126000 7.617559 0.000000
1479 1 16.126000 9.310350 2.342000
1480 1 14.660000 6.771164 2.342000
1481 1 14.660000 5.078373 4.684000
1482 2 16.126000 7.617559 4.684000
1483 1 16.126000 9.310350 7.026000
1484 1 14.660000 6.771164 7.026000
1485 1 14.660000 5.078373 9.368000
1486 1 16.126000 7.617559 9.368000
1487 1 16.126000 9.310350 11.710000
1488 1 14.660000 6.771164 11.710000
1489 1 14.660000 5.078373 14.052000
1490 1 16.126000 7.617559 14.052000
1491 1 16.126000 9.310350 16.394000
1492 1 14.660000 6.771164 16.394000
1493 1 14.660000 5.078373 18.736000
1494 1 16.126000 7.617559 18.736000
1495 1 16.126000 9.310350 21.078000
1496 1 14.660000 6.771164 21.078000
1497 1 14.660000 5.078373 23.420000
1498 1 16.126000 7.617559 23.420000
1499 1 16.126000 9.310350 25.762000
1500 1 14.660000 6.771164 25.762000
1501 1 14.660000 5.078373 28.104000
1502 1 16.126000 7.617559 28.104000
1503 1 16.126000 9.310350 30.446000
1504 1 14.660000 6.771164 30.446000
1505 1 14.660000 5.078373 32.788000
1506 1 16.126000 7.617559 32.788000
1507 1 16.126000 9.310350 35.130000
1508 1 14.660000 6.771164 35.130000
1509 1 14.660000 5.078373 37.472000
1510 1 16.126000 7.617559 37.472000
1511 1 16.126000 9.310350 39.814000
1512 1 14.660000 6.771164 39.814000
1513 1 14.660000 10.156746 0.000000
1514 1 16.126000 12.695932 0.000000
1515 1 16.126000 14.388723 2.342000
1516 1 14.660000 11.849537 2.342000
1517 1 14.660000 10.156746 4.684000
1518 1 16.126000 12.695932 4.684000
1519 1 16.126000 14.388723 7.026000
1520 1 14.660000 11.849537 7.026000
1521 1 14.660000 10.156746 9.368000
1522 1 16.126000 12.695932 9.368000
1523 1 16.126000 14.388723 11.710000
1524 1 14.660000 11.849537 11.710000
1525 2 14.660000 10.156746 14.052000
1526 1 16.126000 12.695932 14.052000
1527 2 16.126000 14.388723 16.394000
1528 1 14.660000 11.849537 16.394000
1529 1 14.660000 10.156746 18.736000
1530 1 16.126000 12.695932 18.736000
1531 1 16.126000 14.388723 21.078000
1532 1 14.660000 11.849537 21.078000
1533 1 14.660000 10.156746 23.420000
1534 1 16.126000 12.695932 23.420000
1535 1 16.126000 14.388723 25.762000
1536 2 14.660000 11.849537 25.762000
1537 1 14.660000 10.156746 28.104000
1538 1 16.126000 12.695932 28.104000
1539 1 16.126000 14.388723 30.446000
1540 1 14.660000 11.849537 30.446000
1541 1 14.660000 10.156746 32.788000
1542 2 16.126000 12.695932 32.788000
1543 1 16.126000 14.388723 35.130000
1544 1 14.660000 11.849537 35.130000
1545 1 14.660000 10.156746 37.472000
1546 1 16.126000 12.695932 37.472000
1547 2 16.126000 14.388723 39.814000
1548 1 14.660000 11.849537 39.814000
1549 1 14.660000 15.235119 0.000000
1550 1 16.126000 17.774305 0.000000
1551 1 16.126000 19.467096 2.342000
1552 2 14.660000 16.927910 2.342000
1553 1 14.660000 15.235119 4.684000
1554 1 16.126000 17.774305 4.684000
1555 1 16.126000 19.467096 7.026000
1556 1 14.660000 16.927910 7.026000
1557 1 14.660000 15.235119 9.368000
1558 1 16.126000 17.774305 9.368000
1559 1 16.126000 19.467096 11.710000
1560 1 14.660000 16.927910 11.710000
1561 1 14.660000 15.235119 14.052000
1562 2 16.126000 17.774305 14.052000
1563 1 16.126000 19.467096 16.394000
1564 1 14.660000 16.927910 16.394000
1565 1 14.660000 15.235119 18.736000
1566 1 16.126000 17.774305 18.736000
1567 1 16.126000 19.467096 21.078000
1568 1 14.660000 16.927910 21.078000
1569 1 14.660000 15.235119 23.420000
1570 1 16.126000 17.774305 23.420000
1571 1 16.126000 19.467096 25.762000
1572 1 14.660000 16.927910 25.762000
1573 1 14.660000 15.235119 28.104000
1574 1 16.126000 17.774305 28.104000
1575 1 16.126000 19.467096 30.446000
1576 1 14.660000 16.927910 30.446000
1577 1 14.660000 15.235119 32.788000
1578 1 16.126000 17.774305 32.788000
1579 1 16.126000 19.467096 35.130000
1580 1 14.660000 16.927910 35.130000
1581 1 14.660000 15.235119 37.472000
1582 2 16.126000 17.774305 37.472000
1583 1 16.126000 19.467096 39.814000
1584 1 14.660000 16.927910 39.814000
1585 2 14.660000 20.313492 0.000000
1586 1 16.126000 22.852678 0.000000
1587 2 16.126000 24.545469 2.342000
1588 1 14.660000 22.006283 2.342000
1589 2 14.660000 20.313492 4.684000
1590 1 16.126000 22.852678 4.684000
1591 1 16.126000 24.545469 7.026000
1592 1 14.660000 22.006283 7.026000
1593 1 14.660000 20.313492 9.368000
1594 2 16.126000 22.852678 9.368000
1595 1 16.126000 24.545469 11.710000
1596 1 14.660000 22.006283 11.710000
1597 1 14.660000 20.313492 14.052000
1598 1 16.126000 22.852678 14.052000
1599 1 16.126000 24.545469 16.394000
1600 1 14.660000 22.006283 16.394000
1601 1 14.660000 20.313492 18.736000
1602 1 16.126000 22.852678 18.736000
1603 1 16.126000 24.545469 21.078000
1604 1 14.660000 22.006283 21.078000
1605 1 14.660000 20.313492 23.420000
1606 1 16.126000 22.852678 23.420000
1607 1 16.126000 24.545469 25.762000
1608 2 14.660000 22.006283 25.762000
1609 1 14.660000 20.313492 28.104000
1610 1 16.126000 22.852678 28.104000
1611 1 16.126000 24.545469 30.446000
1612 1 14.660000 22.006283 30.446000
1613 2 14.660000 20.313492 32.788000
1614 1 16.126000 22.852678 32.788000
1615 1 16.126000 24.545469 35.130000
1616 1 14.660000 22.006283 35.130000
1617 1 14.660000 20.313492 37.472000
1618 2 16.126000 22.852678 37.472000
1619 1 16.126000 24.545469 39.814000
1620 1 14.660000 22.006283 39.814000
1621 1 14.660000 25.391865 0.000000
1622 1 16.126000 27.931051 0.000000
1623 1 16.126000 29.623842 2.342000
1624 1 14.660000 27.084656 2.342000
1625 1 14.660000 25.391865 4.684000
1626 2 16.126000 27.931051 4.684000
1627 1 16.126000 29.623842 7.026000
1628 1 14.660000 27.084656 7.026000
1629 1 14.660000 25.391865 9.368000
1630 1 16.126000 27.931051 9.368000
1631 1 16.126000 29.623842 11.710000
1632 1 14.660000 27.084656 11.710000
1633 1 14.660000 25.391865 14.052000
1634 1 16.126000 27.931051 14.052000
1635 1 16.126000 29.623842 16.394000
1636 2 14.660000 27.084656 16.394000
1637 1 14.660000 25.391865 18.736000
1638 1 16.126000 27.931051 18.736000
1639 1 16.126000 29.623842 21.078000
1640 1 14.660000 27.084656 21.078000
1641 1 14.660000 25.391865 23.420000
1642 1 16.126000 27.931051 23.420000
1643 1 16.126000 29.623842 25.762000
1644 1 14.660000 27.084656 25.762000
1645 1 14.660000 25.391865 28.104000
1646 1 16.126000 27.931051 28.104000
1647 1 16.126000 29.623842 30.446000
1648 1 14.660000 27.084656 30.446000
1649 1 14.660000 25.391865 32.788000
1650 1 16.126000 27.931051 32.788000
1651 1 16.126000 29.623842 35.130000
1652 1 14.660000 27.084656 35.130000
1653 1 14.660000 25.391865 37.472000
1654 1 16.126000 27.931051 37.472000
1655 1 16.126000 29.623842 39.814000
1656 1 14.660000 27.084656 39.814000
1657 1 14.660000 30.470238 0.000000
1658 1 16.126000 33.009424 0.000000
1659 1 16.126000 34.702215 2.342000
1660 2 14.660000 32.163029 2.342000
1661 1 14.660000 30.470238 4.684000
1662 1 16.126000 33.009424 4.684000
1663 1 16.126000 34.702215 7.026000
1664 1 14.660000 32.163029 7.026000
1665 1 14.660000 30.470238 9.368000
1666 2 16.126000 33.009424 9.368000
1667 1 16.126000 34.702215 11.710000
1668 1 14.660000 32.163029 11.710000
1669 2 14.660000 30.470238 14.052000
1670 1 16.126000 33.009424 14.052000
1671 1 16.126000 34.702215 16.394000
1672 1 14.660000 32.163029 16.394000
1673 1 14.660000 30.470238 18.736000
1674 1 16.126000 33.009424 18.736000
1675 2 16.126000 34.702215 21.078000
1676 1 14.660000 32.163029 21.078000
1677 1 14.660000 30.470238 23.420000
1678 1 16.126000 33.009424 23.420000
1679 1 16.126000 34.702215 25.762000
1680 1 14.660000 32.163029 25.762000
1681 1 14.660000 30.470238 28.104000
1682 2 16.126000 33.009424 28.104000
1683 1 16.126000 34.702215 30.446000
1684 1 14.660000 32.163029 30.446000
1685 1 14.660000 30.470238 32.788000
1686 2 16.126000 33.009424 32.788000
1687 1 16.126000 34.702215 35.130000
1688 1 14.660000 32.163029 35.130000
1689 1 14.660000 30.470238 37.472000
1690 1 16.126000 33.009424 37.472000
1691 1 16.126000 34.702215 39.814000
1692 1 14.660000 32.163029 39.814000
1693 2 14.660000 35.548611 0.000000
1694 1 16.126000 38.087797 0.000000
1695 1 16.126000 39.780588 2.342000
1696 1 14.660000 37.241402 2.342000
1697 2 14.660000 35.548611 4.684000
1698 1 16.126000 38.087797 4.684000
1699 2 16.126000 39.780588 7.026000
1700 1 14.660000 37.241402 7.026000
1701 1 14.660000 35.548611 9.368000
1702 1 16.126000 38.087797 9.368000
1703 2 16.126000 39.780588 11.710000
1704 1 14.660000 37.241402 11.710000
1705 2 14.660000 35.548611 14.052000
1706 1 16.126000 38.087797 14.052000
1707 1 16.126000 39.780588 16.394000
1708 1 14.660000 37.241402 16.394000
1709 1 14.660000 35.548611 18.736000
1710 2 16.126000 38.087797 18.736000
1711 1 16.126000 39.780588 21.078000
1712 1 14.660000 37.241402 21.078000
1713 1 14.660000 35.548611 23.420000
1714 2 16.126000 38.087797 23.420000
1715 1 16.126000 39.780588 25.762000
1716 1 14.660000 37.241402 25.762000
1717 1 14.660000 35.548611 28.104000
1718 1 16.126000 38.087797 28.104000
1719 2 16.126000 39.780588 30.446000
1720 1 14.660000 37.241402 30.446000
1721 1 14.660000 35.548611 32.788000
1722 1 16.126000 38.087797 32.788000
1723 1 16.126000 39.780588 35.130000
1724 1 14.660000 37.241402 35.130000
1725 1 14.660000 35.548611 37.472000
1726 1 16.126000 38.087797 37.472000
1727 1 16.126000 39.780588 39.814000
1728 1 14.660000 37.241402 39.814000
1729 1 17.592000 0.000000 0.000000
1730 1 19.058000 2.539186 0.000000
1731 1 19.058000 4.231977 2.342000
1732 1 17.592000 1.692791 2.342000
1733 1 17.592000 0.000000 4.684000
1734 1 19.058000 2.539186 4.684000
1735 1 19.058000 4.231977 7.026000
1736 1 17.592000 1.692791 7.026000
1737 1 17.592000 0.000000 9.368000
1738 1 19.058000 2.539186 9.368000
1739 1 19.058000 4.231977 11.710000
1740 1 17.592000 1.692791 11.710000
1741 1 17.592000 0.000000 14.052000
1742 1 19.058000 2.539186 14.052000
1743 1 19.058000 4.231977 16.394000
1744 1 17.592000 1.692791 16.394000
1745 1 17.592000 0.000000 18.736000
1746 1 19.058000 2.539186 18.736000
1747 1 19.058000 4.231977 21.078000
1748 1 17.592000 1.692791 21.078000
1749 1 17.592000 0.000000 23.420000
1750 1 19.058000 2.539186 23.420000
1751 1 19.058000 4.231977 25.762000
1752 1 17.592000 1.692791 25.762000
1753 1 17.592000 0.000000 28.104000
1754 2 19.058000 2.539186 28.104000
1755 1 19.058000 4.231977 30.446000
1756 1 17.592000 1.692791 30.446000
1757 1 17.592000 0.000000 32.788000
1758 2 19.058000 2.539186 32.788000
1759 1 19.058000 4.231977 35.130000
1760 1 17.592000 1.692791 35.130000
1761 1 17.592000 0.000000 37.472000
1762 1 19.058000 2.539186 37.472000
1763 1 19.058000 4.231977 39.814000
1764 1 17.592000 1.692791 39.814000
1765 1 17.592000 5.078373 0.000000
1766 1 19.058000 7.617559 0.000000
1767 1 19.058000 9.310350 2.342000
1768 1 17.592000 6.771164 2.342000
1769 1 17.592000 5.078373 4.684000
1770 1 19.058000 7.617559 4.684000
1771 2 19.058000 9.310350 7.026000
1772 1 17.592000 6.771164 7.026000
1773 2 17.592000 5.078373 9.368000
1774 1 19.058000 7.617559 9.368000
1775 1 19.058000 9.310350 11.710000
1776 1 17.592000 6.771164 11.710000
1777 1 17.592000 5.078373 14.052000
1778 1 19.058000 7.617559 14.052000
1779 1 19.058000 9.310350 16.394000
1780 1 17.592000 6.771164 16.394000
1781 1 17.592000 5.078373 18.736000
1782 1 19.058000 7.617559 18.736000
1783 1 19.058000 9.310350 21.078000
1784 1 17.592000 6.771164 21.078000
1785 1 17.592000 5.078373 23.420000
1786 1 19.058000 7.617559 23.420000
1787 1 19.058000 9.310350 25.762000
1788 1 17.592000 6.771164 25.762000
1789 1 17.592000 5.078373 28.104000
1790 1 19.058000 7.617559 28.104000
1791 1 19.058000 9.310350 30.446000
1792 1 17.592000 6.771164 30.446000
1793 1 17.592000 5.078373 32.788000
1794 2 19.058000 7.617559 32.788000
1795 1 19.058000 9.310350 35.130000
1796 1 17.592000 6.771164 35.130000
1797 1 17.592000 5.078373 37.472000
1798 1 19.058000 7.617559 37.472000
1799 1 19.058000 9.310350 39.814000
1800 1 17.592000 6.771164 39.814000
1801 1 17.592000 10.156746 0.000000
1802 1 19.058000 12.695932 0.000000
1803 1 19.058000 14.388723 2.342000
1804 2 17.592000 11.849537 2.342000
1805 1 17.592000 10.156746 4.684000
1806 1 19.058000 12.695932 4.684000
1807 1 19.058000 14.388723 7.026000
1808 1 17.592000 11.849537 7.026000
1809 1 17.592000 10.156746 9.368000
1810 1 19.058000 12.695932 9.368000
1811 1 19.058000 14.388723 11.710000
1812 1 17.592000 11.849537 11.710000
1813 1 17.592000 10.156746 14.052000
1814 1 19.058000 12.695932 14.052000
1815 1 19.058000 14.388723 16.394000
1816 1 17.592000 11.849537 16.394000
1817 1 17.592000 10.156746 18.736000
1818 1 19.058000 12.695932 18.736000
1819 1 19.058000 14.388723 21.078000
1820 2 17.592000 11.849537 21.078000
1821 1 17.592000 10.156746 23.420000
1822 1 19.058000 12.695932 23.420000
1823 1 19.058000 14.388723 25.762000
1824 1 17.592000 11.849537 25.762000
1825 1 17.592000 10.156746 28.104000
1826 1 19.058000 12.695932 28.104000
1827 1 19.058000 14.388723 30.446000
1828 1 17.592000 11.849537 30.446000
1829 1 17.592000 10.156746 32.788000
1830 1 19.058000 12.695932 32.788000
1831 1 19.058000 14.388723 35.130000
1832 1 17.592000 11.849537 35.130000
1833 1 17.592000 10.156746 37.472000
1834 1 19.058000 12.695932 37.472000
1835 1 19.058000 14.388723 39.814000
1836 1 17.592000 11.849537 39.814000
1837 1 17.592000 15.235119 0.000000
1838 1 19.058000 17.774305 0.000000
1839 2 19.058000 19.467096 2.342000
1840 1 17.592000 16.927910 2.342000
1841 1 17.592000 15.235119 4.684000
1842 1 19.058000 17.774305 4.684000
1843 2 19.058000 19.467096 7.026000
1844 1 17.592000 16.927910 7.026000
1845 1 17.592000 15.235119 9.368000
1846 1 19.058000 17.774305 9.368000
1847 2 19.058000 19.467096 11.710000
1848 1 17.592000 16.927910 11.710000
1849 1 17.592000 15.235119 14.052000
1850 1 19.058000 17.774305 14.052000
1851 1 19.058000 19.467096 16.394000
1852 1 17.592000 16.927910 16.394000
1853 2 17.592000 15.235119 18.736000
1854 1 19.058000 17.774305 18.736000
1855 1 19.058000 19.467096 21.078000
1856 1 17.592000 16.927910 21.078000
1857 1 17.592000 15.235119 23.420000
1858 1 19.058000 17.774305 23.420000
1859 1 19.058000 19.467096 25.762000
1860 2 17.592000 16.927910 25.762000
1861 1 17.592000 15.235119 28.104000
1862 1 19.058000 17.774305 28.104000
1863 1 19.058000 19.467096 30.446000
1864 1 17.592000 16.927910 30.446000
1865 1 17.592000 15.235119 32.788000
1866 2 19.058000 17.774305 32.788000
1867 1 19.058000 19.467096 35.130000
1868 1 17.592000 16.927910 35.130000
1869 1 17.592000 15.235119 37.472000
1870 1 19.058000 17.774305 37.472000
1871 1 19.058000 19.467096 39.814000
1872 1 17.592000 16.927910 39.814000
1873 1 17.592000 20.313492 0.000000
1874 1 19.058000 22.852678 0.000000
1875 1 19.058000 24.545469 2.342000
1876 1 17.592000 22.006283 2.342000
1877 1 17.592000 20.313492 4.684000
1878 1 19.058000 22.852678 4.684000
1879 1 19.058000 24.545469 7.026000
1880 1 17.592000 22.006283 7.026000
1881 1 17.592000 20.313492 9.368000
1882 1 19.058000 22.852678 9.368000
1883 1 19.058000 24.545469 11.710000
1884 1 17.592000 22.006283 11.710000
1885 1 17.592000 20.313492 14.052000
1886 2 19.058000 22.852678 14.052000
1887 1 19.058000 24.545469 16.394000
1888 2 17.592000 22.006283 16.394000
1889 1 17.592000 20.313492 18.736000
1890 1 19.058000 22.852678 18.736000
1891 1 19.058000 24.545469 21.078000
1892 1 17.592000 22.006283 21.078000
1893 2 17.592000 20.313492 23.420000
1894 1 19.058000 22.852678 23.420000
1895 1 19.058000 24.545469 25.762000
1896 1 17.592000 22.006283 25.762000
1897 2 17.592000 20.313492 28.104000
1898 1 19.058000 22.852678 28.104000
1899 1 19.058000 24.545469 30.446000
1900 1 17.592000 22.006283 30.446000
1901 1 17.592000 20.313492 32.788000
1902 1 19.058000 22.852678 32.788000
1903 1 19.058000 24.545469 35.130000
1904 1 17.592000 22.006283 35.130000
1905 1 17.592000 20.313492 37.472000
1906 1 19.058000 22.852678 37.472000
1907 1 19.058000 24.545469 39.814000
1908 1 17.592000 22.006283 39.814000
1909 2 17.592000 25.391865 0.000000
1910 1 19.058000 27.931051 0.000000
1911 2 19.058000 29.623842 2.342000
1912 1 17.592000 27.084656 2.342000
1913 1 17.592000 25.391865 4.684000
1914 1 19.058000 27.931051 4.684000
1915 1 19.058000 29.623842 7.026000
1916 1 17.592000 27.084656 7.026000
1917 1 17.592000 25.391865 9.368000
1918 1 19.058000 27.931051 9.368000
1919 1 19.058000 29.623842 11.710000
1920 1 17.592000 27.084656 11.710000
1921 1 17.592000 25.391865 14.052000
1922 1 19.058000 27.931051 14.052000
1923 1 19.058000 29.623842 16.394000
1924 1 17.592000 27.084656 16.394000
1925 1 17.592000 25.391865 18.736000
1926 1 19.058000 27.931051 18.736000
1927 1 19.058000 29.623842 21.078000
1928 2 17.592000 27.084656 21.078000
1929 1 17.592000 25.391865 23.420000
1930 1 19.058000 27.931051 23.420000
1931 1 19.058000 29.623842 25.762000
1932 1 17.592000 27.084656 25.762000
1933 1 17.592000 25.391865 28.104000
1934 2 19.058000 27.931051 28.104000
1935 1 19.058000 29.623842 30.446000
1936 1 17.592000 27.084656 30.446000
1937 1 17.592000 25.391865 32.788000
1938 1 19.058000 27.931051 32.788000
1939 1 19.058000 29.623842 35.130000
1940 1 17.592000 27.084656 35.130000
1941 1 17.592000 25.391865 37.472000
1942 1 19.058000 27.931051 37.472000
1943 1 19.058000 29.623842 39.814000
1944 1 17.592000 27.084656 39.814000
1945 1 17.592000 30.470238 0.000000
1946 2 19.058000 33.009424 0.000000
1947 1 19.058000 34.702215 2.342000
1948 1 17.592000 32.163029 2.342000
1949 1 17.592000 30.470238 4.684000
1950 1 19.058000 33.009424 4.684000
1951 2 19.058000 34.702215 7.026000
1952 1 17.592000 32.163029 7.026000
1953 1 17.592000 30.470238 9.368000
1954 1 19.058000 33.009424 9.368000
1955 2 19.058000 34.702215 11.710000
1956 1 17.592000 32.163029 11.710000
1957 1 17.592000 30.470238 14.052000
1958 1 19.058000 33.009424 14.052000
1959 1 19.058000 34.702215 16.394000
1960 1 17.592000 32.163029 16.394000
1961 1 17.592000 30.470238 18.736000
1962 1 19.058000 33.009424 18.736000
1963 1 19.058000 34.702215 21.078000
1964 1 17.592000 32.163029 21.078000
1965 1 17.592000 30.470238 23.420000
1966 1 19.058000 33.009424 23.420000
1967 2 19.058000 34.702215 25.762000
1968 1 17.592000 32.163029 25.762000
1969 1 17.592000 30.470238 28.104000
1970 1 19.058000 33.009424 28.104000
1971 1 19.058000 34.702215 30.446000
1972 1 17.592000 32.163029 30.446000
1973 1 17.592000 30.470238 32.788000
1974 1 19.058000 33.009424 32.788000
1975 2 19.058000 34.702215 35.130000
1976 1 17.592000 32.163029 35.130000
1977 1 17.592000 30.470238 37.472000
1978 1 19.058000 33.009424 37.472000
1979 1 19.058000 34.702215 39.814000
1980 1 17.592000 32.163029 39.814000
1981 1 17.592000 35.548611 0.000000
1982 1 19.058000 38.087797 0.000000
1983 2 19.058000 39.780588 2.342000
1984 1 17.592000 37.241402 2.342000
1985 1 17.592000 35.548611 4.684000
1986 1 19.058000 38.087797 4.684000
1987 1 19.058000 39.780588 7.026000
1988 1 17.592000 37.241402 7.026000
1989 1 17.592000 35.548611 9.368000
1990 1 19.058000 38.087797 9.368000
1991 1 19.058000 39.780588 11.710000
1992 1 17.592000 37.241402 11.710000
1993 1 17.592000 35.548611 14.052000
1994 1 19.058000 38.087797 14.052000
1995 2 19.058000 39.780588 16.394000
1996 1 17.592000 37.241402 16.394000
1997 1 17.592000 35.548611 18.736000
1998 1 19.058000 38.087797 18.736000
1999 2 19.058000 39.780588 21.078000
2000 1 17.592000 37.241402 21.078000
2001 1 17.592000 35.548611 23.420000
2002 1 19.058000 38.087797 23.420000
2003 1 19.058000 39.780588 25.762000
2004 1 17.592000 37.241402 25.762000
2005 1 17.592000 35.548611 28.104000
2006 2 19.058000 38.087797 28.104000
2007 1 19.058000 39.780588 30.446000
2008 1 17.592000 37.241402 30.446000
2009 1 17.592000 35.548611 32.788000
2010 2 19.058000 38.087797 32.788000
2011 1 19.058000 39.780588 35.130000
2012 1 17.592000 37.241402 35.130000
2013 1 17.592000 35.548611 37.472000
2014 1 19.058000 38.087797 37.472000
2015 1 19.058000 39.780588 39.814000
2016 1 17.592000 37.241402 39.814000
2017 1 20.524000 0.000000 0.000000
2018 1 21.990000 2.539186 0.000000
2019 1 21.990000 4.231977 2.342000
2020 1 20.524000 1.692791 2.342000
2021 1 20.524000 0.000000 4.684000
2022 1 21.990000 2.539186 4.684000
2023 1 21.990000 4.231977 7.026000
2024 2 20.524000 1.692791 7.026000
2025 1 20.524000 0.000000 9.368000
2026 1 21.990000 2.539186 9.368000
2027 1 21.990000 4.231977 11.710000
2028 1 20.524000 1.692791 11.710000
2029 1 20.524000 0.000000 14.052000
2030 2 21.990000 2.539186 14.052000
2031 1 21.990000 4.231977 16.394000
2032 1 20.524000 1.692791 16.394000
2033 1 20.524000 0.000000 18.736000
2034 1 21.990000 2.539186 18.736000
2035 2 21.990000 4.231977 21.078000
2036 1 20.524000 1.692791 21.078000
2037 1 20.524000 0.000000 23.420000
2038 1 21.990000 2.539186 23.420000
2039 1 21.990000 4.231977 25.762000
2040 1 20.524000 1.692791 25.762000
2041 1 20.524000 0.000000 28.104000
2042 1 21.990000 2.539186 28.104000
2043 1 21.990000 4.231977 30.446000
2044 1 20.524000 1.692791 30.446000
2045 1 20.524000 0.000000 32.788000
2046 1 21.990000 2.539186 32.788000
2047 1 21.990000 4.231977 35.130000
2048 1 20.524000 1.692791 35.130000
2049 1 20.524000 0.000000 37.472000
2050 1 21.990000 2.539186 37.472000
2051 1 21.990000 4.231977 39.814000
2052 2 20.524000 1.692791 39.814000
2053 2 20.524000 5.078373 0.000000
2054 1 21.990000 7.617559 0.000000
2055 1 21.990000 9.310350 2.342000
2056 1 20.524000 6.771164 2.342000
2057 2 20.524000 5.078373 4.684000
2058 1 21.990000 7.617559 4.684000
2059 1 21.990000 9.310350 7.026000
2060 1 20.524000 6.771164 7.026000
2061 1 20.524000 5.078373 9.368000
2062 1 21.990000 7.617559 9.368000
2063 1 21.990000 9.310350 11.710000
2064 1 20.524000 6.771164 11.710000
2065 1 20.524000 5.078373 14.052000
2066 1 21.990000 7.617559 14.052000
2067 1 21.990000 9.310350 16.394000
2068 1 20.524000 6.771164 16.394000
2069 1 20.524000 5.078373 18.736000
2070 1 21.990000 7.617559 18.736000
2071 1 21.990000 9.310350 21.078000
2072 1 20.524000 6.771164 21.078000
2073 1 20.524000 5.078373 23.420000
2074 1 21.990000 7.617559 23.420000
2075 2 21.990000 9.310350 25.762000
2076 1 20.524000 6.771164 25.762000
2077 1 20.524000 5.078373 28.104000
2078 1 21.990000 7.617559 28.104000
2079 1 21.990000 9.310350 30.446000
2080 1 20.524000 6.771164 30.446000
2081 1 20.524000 5.078373 32.788000
2082 1 21.990000 7.617559 32.788000
2083 1 21.990000 9.310350 35.130000
2084 1 20.524000 6.771164 35.130000
2085 1 20.524000 5.078373 37.472000
2086 2 21.990000 7.617559 37.472000
2087 1 21.990000 9.310350 39.814000
2088 1 20.524000 6.771164 39.814000
2089 2 20.524000 10.156746 0.000000
2090 1 21.990000 12.695932 0.000000
2091 1 21.990000 14.388723 2.342000
2092 1 20.524000 11.849537 2.342000
2093 1 20.524000 10.156746 4.684000
2094 1 21.990000 12.695932 4.684000
2095 1 21.990000 14.388723 7.026000
2096 1 20.524000 11.849537 7.026000
2097 1 20.524000 10.156746 9.368000
2098 1 21.990000 12.695932 9.368000
2099 1 21.990000 14.388723 11.710000
2100 1 20.524000 11.849537 11.710000
2101 2 20.524000 10.156746 14.052000
2102 1 21.990000 12.695932 14.052000
2103 1 21.990000 14.388723 16.394000
2104 1 20.524000 11.849537 16.394000
2105 1 20.524000 10.156746 18.736000
2106 1 21.990000 12.695932 18.736000
2107 1 21.990000 14.388723 21.078000
2108 1 20.524000 11.849537 21.078000
2109 1 20.524000 10.156746 23.420000
2110 1 21.990000 12.695932 23.420000
2111 1 21.990000 14.388723 25.762000
2112 1 20.524000 11.849537 25.762000
2113 1 20.524000 10.156746 28.104000
2114 1 21.990000 12.695932 28.104000
2115 1 21.990000 14.388723 30.446000
2116 2 20.524000 11.849537 30.446000
2117 1 20.524000 10.156746 32.788000
2118 1 21.990000 12.695932 32.788000
2119 1 21.990000 14.388723 35.130000
2120 1 20.524000 11.849537 35.130000
2121 1 20.524000 10.156746 37.472000
2122 1 21.990000 12.695932 37.472000
2123 1 21.990000 14.388723 39.814000
2124 1 20.524000 11.849537 39.814000
2125 2 20.524000 15.235119 0.000000
2126 1 21.990000 17.774305 0.000000
2127 1 21.990000 19.467096 2.342000
2128 1 20.524000 16.927910 2.342000
2129 2 20.524000 15.235119 4.684000
2130 1 21.990000 17.774305 4.684000
2131 1 21.990000 19.467096 7.026000
2132 1 20.524000 16.927910 7.026000
2133 2 20.524000 15.235119 9.368000
2134 1 21.990000 17.774305 9.368000
2135 1 21.990000 19.467096 11.710000
2136 1 20.524000 16.927910 11.710000
2137 1 20.524000 15.235119 14.052000
2138 1 21.990000 17.774305 14.052000
2139 1 21.990000 19.467096 16.394000
2140 1 20.524000 16.927910 16.394000
2141 1 20.524000 15.235119 18.736000
2142 1 21.990000 17.774305 18.736000
2143 1 21.990000 19.467096 21.078000
2144 2 20.524000 16.927910 21.078000
2145 1 20.524000 15.235119 23.420000
2146 1 21.990000 17.774305 23.420000
2147 1 21.990000 19.467096 25.762000
2148 1 20.524000 16.927910 25.762000
2149 2 20.524000 15.235119 28.104000
2150 1 21.990000 17.774305 28.104000
2151 1 21.990000 19.467096 30.446000
2152 1 20.524000 16.927910 30.446000
2153 1 20.524000 15.235119 32.788000
2154 1 21.990000 17.774305 32.788000
2155 1 21.990000 19.467096 35.130000
2156 1 20.524000 16.927910 35.130000
2157 1 20.524000 15.235119 37.472000
2158 1 21.990000 17.774305 37.472000
2159 2 21.990000 19.467096 39.814000
2160 1 20.524000 16.927910 39.814000
2161 1 20.524000 20.313492 0.000000
2162 1 21.990000 22.852678 0.000000
2163 1 21.990000 24.545469 2.342000
2164 1 20.524000 22.006283 2.342000
2165 1 20.524000 20.313492 4.684000
2166 1 21.990000 22.852678 4.684000
2167 1 21.990000 24.545469 7.026000
2168 1 20.524000 22.006283 7.026000
2169 1 20.524000 20.313492 9.368000
2170 1 21.990000 22.852678 9.368000
2171 1 21.990000 24.545469 11.710000
2172 2 20.524000 22.006283 11.710000
2173 1 20.524000 20.313492 14.052000
2174 1 21.990000 22.852678 14.052000
2175 1 21.990000 24.545469 16.394000
2176 1 20.524000 22.006283 16.394000
2177 1 20.524000 20.313492 18.736000
2178 1 21.990000 22.852678 18.736000
2179 1 21.990000 24.545469 21.078000
2180 1 20.524000 22.006283 21.078000
2181 1 20.524000 20.313492 23.420000
2182 1 21.990000 22.852678 23.420000
2183 1 21.990000 24.545469 25.762000
2184 2 20.524000 22.006283 25.762000
2185 1 20.524000 20.313492 28.104000
2186 1 21.990000 22.852678 28.104000
2187 1 21.990000 24.545469 30.446000
2188 2 20.524000 22.006283 30.446000
2189 1 20.524000 20.313492 32.788000
2190 1 21.990000 22.852678 32.788000
2191 1 21.990000 24.545469 35.130000
2192 1 20.524000 22.006283 35.130000
2193 1 20.524000 20.313492 37.472000
2194 1 21.990000 22.852678 37.472000
2195 1 21.990000 24.545469 39.814000
2196 1 20.524000 22.006283 39.814000
2197 1 20.524000 25.391865 0.000000
2198 2 21.990000 27.931051 0.000000
2199 1 21.990000 29.623842 2.342000
2200 1 20.524000 27.084656 2.342000
2201 1 20.524000 25.391865 4.684000
2202 2 21.990000 27.931051 4.684000
2203 1 21.990000 29.623842 7.026000
2204 1 20.524000 27.084656 7.026000
2205 2 20.524000 25.391865 9.368000
2206 1 21.990000 27.931051 9.368000
2207 2 21.990000 29.623842 11.710000
2208 1 20.524000 27.084656 11.710000
2209 1 20.524000 25.391865 14.052000
2210 1 21.990000 27.931051 14.052000
2211 1 21.990000 29.623842 16.394000
2212 2 20.524000 27.084656 16.394000
2213 1 20.524000 25.391865 18.736000
2214 1 21.990000 27.931051 18.736000
2215 1 21.990000 29.623842 21.078000
2216 1 20.524000 27.084656 21.078000
2217 1 20.524000 25.391865 23.420000
2218 1 21.990000 27.931051 23.420000
2219 1 21.990000 29.623842 25.762000
2220 1 20.524000 27.084656 25.762000
2221 1 20.524000 25.391865 28.104000
2222 1 21.990000 27.931051 28.104000
2223 1 21.990000 29.623842 30.446000
2224 1 20.524000 27.084656 30.446000
2225 2 20.524000 25.391865 32.788000
2226 1 21.990000 27.931051 32.788000
2227 1 21.990000 29.623842 35.130000
2228 1 20.524000 27.084656 35.130000
2229 2 20.524000 25.391865 37.472000
2230 1 21.990000 27.931051 37.472000
2231 1 21.990000 29.623842 39.814000
2232 1 20.524000 27.084656 39.814000
2233 1 20.524000 30.470238 0.000000
2234 1 21.990000 33.009424 0.000000
2235 1 21.990000 34.702215 2.342000
2236 1 20.524000 32.163029 2.342000
2237 1 20.524000 30.470238 4.684000
2238 1 21.990000 33.009424 4.684000
2239 1 21.990000 34.702215 7.026000
2240 1 20.524000 32.163029 7.026000
2241 1 20.524000 30.470238 9.368000
2242 1 21.990000 33.009424 9.368000
2243 1 21.990000 34.702215 11.710000
2244 1 20.524000 32.163029 11.710000
2245 1 20.524000 30.470238 14.052000
2246 1 21.990000 33.009424 14.052000
2247 1 21.990000 34.702215 16.394000
2248 1 20.524000 32.163029 16.394000
2249 1 20.524000 30.470238 18.736000
2250 2 21.990000 33.009424 18.736000
2251 1 21.990000 34.702215 21.078000
2252 1 20.524000 32.163029 21.078000
2253 2 20.524000 30.470238 23.420000
2254 1 21.990000 33.009424 23.420000
2255 1 21.990000 34.702215 25.762000
2256 1 20.524000 32.163029 25.762000
2257 1 20.524000 30.470238 28.104000
2258 2 21.990000 33.009424 28.104000
2259 1 21.990000 34.702215 30.446000
2260 1 20.524000 32.163029 30.446000
2261 1 20.524000 30.470238 32.788000
2262 2 21.990000 33.009424 32.788000
2263 1 21.990000 34.702215 35.130000
2264 1 20.524000 32.163029 35.130000
2265 2 20.524000 30.470238 37.472000
2266 1 21.990000 33.009424 37.472000
2267 2 21.990000 34.702215 39.814000
2268 1 20.524000 32.163029 39.814000
2269 1 20.524000 35.548611 0.000000
2270 2 21.990000 38.087797 0.000000
2271 1 21.990000 39.780588 2.342000
2272 1 20.524000 37.241402 2.342000
2273 1 20.524000 35.548611 4.684000
2274 2 21.990000 38.087797 4.684000
2275 1 21.990000 39.780588 7.026000
2276 1 20.524000 37.241402 7.026000
2277 1 20.524000 35.548611 9.368000
2278 1 21.990000 38.087797 9.368000
2279 2 21.990000 39.780588 11.710000
2280 1 20.524000 37.241402 11.710000
2281 1 20.524000 35.548611 14.052000
2282 1 21.990000 38.087797 14.052000
2283 1 21.990000 39.780588 16.394000
2284 1 20.524000 37.241402 16.394000
2285 1 20.524000 35.548611 18.736000
2286 1 21.990000 38.087797 18.736000
2287 1 21.990000 39.780588 21.078000
2288 1 20.524000 37.241402 21.078000
2289 1 20.524000 35.548611 23.420000
2290 1 21.990000 38.087797 23.420000
2291 1 21.990000 39.780588 25.762000
2292 1 20.524000 37.241402 25.762000
2293 1 20.524000 35.548611 28.104000
2294 1 21.990000 38.087797 28.104000
2295 1 21.990000 39.780588 30.446000
2296 1 20.524000 37.241402 30.446000
2297 1 20.524000 35.548611 32.788000
2298 1 21.990000 38.087797 32.788000
2299 1 21.990000 39.780588 35.130000
2300 1 20.524000 37.241402 35.130000
2301 1 20.524000 35.548611 37.472000
2302 2 21.990000 38.087797 37.472000
2303 1 21.990000 39.780588 39.814000
2304 1 20.524000 37.241402 39.814000
2305 1 23.456000 0.000000 0.000000
2306 1 24.922000 2.539186 0.000000
2307 1 24.922000 4.231977 2.342000
2308 1 23.456000 1.692791 2.342000
2309 1 23.456000 0.000000 4.684000
2310 1 24.922000 2.539186 4.684000
2311 2 24.922000 4.231977 7.026000
2312 1 23.456000 1.692791 7.026000
2313 1 23.456000 0.000000 9.368000
2314 1 24.922000 2.539186 9.368000
2315 2 24.922000 4.231977 11.710000
2316 1 23.456000 1.692791 11.710000
2317 1 23.456000 0.000000 14.052000
2318 1 24.922000 2.539186 14.052000
2319 2 24.922000 4.231977 16.394000
2320 1 23.456000 1.692791 16.394000
2321 2 23.456000 0.000000 18.736000
2322 1 24.922000 2.539186 18.736000
2323 1 24.922000 4.231977 21.078000
2324 1 23.456000 1.692791 21.078000
2325 2 23.456000 0.000000 23.420000
2326 1 24.922000 2.539186 23.420000
2327 1 24.922000 4.231977 25.762000
2328 1 23.456000 1.692791 25.762000
2329 1 23.456000 0.000000 28.104000
2330 1 24.922000 2.539186 28.104000
2331 1 24.922000 4.231977 30.446000
2332 2 23.456000 1.692791 30.446000
2333 1 23.456000 0.000000 32.788000
2334 1 24.922000 2.539186 32.788000
2335 1 24.922000 4.231977 35.130000
2336 1 23.456000 1.692791 35.130000
2337 1 23.456000 0.000000 37.472000
2338 2 24.922000 2.539186 37.472000
2339 1 24.922000 4.231977 39.814000
2340 1 23.456000 1.692791 39.814000
2341 1 23.456000 5.078373 0.000000
2342 1 24.922000 7.617559 0.000000
2343 1 24.922000 9.310350 2.342000
2344 1 23.456000 6.771164 2.342000
2345 1 23.456000 5.078373 4.684000
2346 1 24.922000 7.617559 4.684000
2347 1 24.922000 9.310350 7.026000
2348 1 23.456000 6.771164 7.026000
2349 1 23.456000 5.078373 9.368000
2350 1 24.922000 7.617559 9.368000
2351 1 24.922000 9.310350 11.710000
2352 1 23.456000 6.771164 11.710000
2353 1 23.456000 5.078373 14.052000
2354 1 24.922000 7.617559 14.052000
2355 1 24.922000 9.310350 16.394000
2356 1 23.456000 6.771164 16.394000
2357 1 23.456000 5.078373 18.736000
2358 1 24.922000 7.617559 18.736000
2359 1 24.922000 9.310350 21.078000
2360 1 23.456000 6.771164 21.078000
2361 1 23.456000 5.078373 23.420000
2362 2 24.922000 7.617559 23.420000
2363 1 24.922000 9.310350 25.762000
2364 1 23.456000 6.771164 25.762000
2365 1 23.456000 5.078373 28.104000
2366 1 24.922000 7.617559 28.104000
2367 1 24.922000 9.310350 30.446000
2368 1 23.456000 6.771164 30.446000
2369 1 23.456000 5.078373 32.788000
2370 1 24.922000 7.617559 32.788000
2371 1 24.922000 9.310350 35.130000
2372 1 23.456000 6.771164 35.130000
2373 1 23.456000 5.078373 37.472000
2374 1 24.922000 7.617559 37.472000
2375 1 24.922000 9.310350 39.814000
2376 1 23.456000 6.771164 39.814000
2377 1 23.456000 10.156746 0.000000
2378 1 24.922000 12.695932 0.000000
2379 1 24.922000 14.388723 2.342000
2380 2 23.456000 11.849537 2.342000
2381 1 23.456000 10.156746 4.684000
2382 1 24.922000 12.695932 4.684000
2383 1 24.922000 14.388723 7.026000
2384 1 23.456000 11.849537 7.026000
2385 1 23.456000 10.156746 9.368000
2386 1 24.922000 12.695932 9.368000
2387 1 24.922000 14.388723 11.710000
2388 1 23.456000 11.849537 11.710000
2389 1 23.456000 10.156746 14.052000
2390 1 24.922000 12.695932 14.052000
2391 1 24.922000 14.388723 16.394000
2392 2 23.456000 11.849537 16.394000
2393 1 23.456000 10.156746 18.736000
2394 1 24.922000 12.695932 18.736000
2395 1 24.922000 14.388723 21.078000
2396 1 23.456000 11.849537 21.078000
2397 1 23.456000 10.156746 23.420000
2398 2 24.922000 12.695932 23.420000
2399 1 24.922000 14.388723 25.762000
2400 1 23.456000 11.849537 25.762000
2401 1 23.456000 10.156746 28.104000
2402 1 24.922000 12.695932 28.104000
2403 1 24.922000 14.388723 30.446000
2404 1 23.456000 11.849537 30.446000
2405 2 23.456000 10.156746 32.788000
2406 1 24.922000 12.695932 32.788000
2407 1 24.922000 14.388723 35.130000
2408 1 23.456000 11.849537 35.130000
2409 1 23.456000 10.156746 37.472000
2410 1 24.922000 12.695932 37.472000
2411 1 24.922000 14.388723 39.814000
2412 2 23.456000 11.849537 39.814000
2413 1 23.456000 15.235119 0.000000
2414 1 24.922000 17.774305 0.000000
2415 1 24.922000 19.467096 2.342000
2416 1 23.456000 16.927910 2.342000
2417 1 23.456000 15.235119 4.684000
2418 2 24.922000 17.774305 4.684000
2419 1 24.922000 19.467096 7.026000
2420 1 23.456000 16.927910 7.026000
2421 1 23.456000 15.235119 9.368000
2422 1 24.922000 17.774305 9.368000
2423 1 24.922000 19.467096 11.710000
2424 2 23.456000 16.927910 11.710000
2425 1 23.456000 15.235119 14.052000
2426 1 24.922000 17.774305 14.052000
2427 1 24.922000 19.467096 16.394000
2428 2 23.456000 16.927910 16.394000
2429 1 23.456000 15.235119 18.736000
2430 1 24.922000 17.774305 18.736000
2431 1 24.922000 19.467096 21.078000
2432 1 23.456000 16.927910 21.078000
2433 1 23.456000 15.235119 23.420000
2434 1 24.922000 17.774305 23.420000
2435 1 24.922000 19.467096 25.762000
2436 1 23.456000 16.927910 25.762000
2437 1 23.456000 15.235119 28.104000
2438 2 24.922000 17.774305 28.104000
2439 1 24.922000 19.467096 30.446000
2440 1 23.456000 16.927910 30.446000
2441 2 23.456000 15.235119 32.788000
2442 1 24.922000 17.774305 32.788000
2443 1 24.922000 19.467096 35.130000
2444 1 23.456000 16.927910 35.130000
2445 1 23.456000 15.235119 37.472000
2446 2 24.922000 17.774305 37.472000
2447 1 24.922000 19.467096 39.814000
2448 1 23.456000 16.927910 39.814000
2449 1 23.456000 20.313492 0.000000
2450 2 24.922000 22.852678 0.000000
2451 1 24.922000 24.545469 2.342000
2452 1 23.456000 22.006283 2.342000
2453 1 23.456000 20.313492 4.684000
2454 1 24.922000 22.852678 4.684000
2455 1 24.922000 24.545469 7.026000
2456 1 23.456000 22.006283 7.026000
2457 1 23.456000 20.313492 9.368000
2458 2 24.922000 22.852678 9.368000
2459 1 24.922000 24.545469 11.710000
2460 1 23.456000 22.006283 11.710000
2461 2 23.456000 20.313492 14.052000
2462 1 24.922000 22.852678 14.052000
2463 1 24.922000 24.545469 16.394000
2464 1 23.456000 22.006283 16.394000
2465 1 23.456000 20.313492 18.736000
2466 1 24.922000 22.852678 18.736000
2467 1 24.922000 24.545469 21.078000
2468 1 23.456000 22.006283 21.078000
2469 1 23.456000 20.313492 23.420000
2470 2 24.922000 22.852678 23.420000
2471 1 24.922000 24.545469 25.762000
2472 1 23.456000 22.006283 25.762000
2473 1 23.456000 20.313492 28.104000
2474 2 24.922000 22.852678 28.104000
2475 1 24.922000 24.545469 30.446000
2476 1 23.456000 22.006283 30.446000
2477 1 23.456000 20.313492 32.788000
2478 1 24.922000 22.852678 32.788000
2479 1 24.922000 24.545469 35.130000
2480 1 23.456000 22.006283 35.130000
2481 1 23.456000 20.313492 37.472000
2482 2 24.922000 22.852678 37.472000
2483 1 24.922000 24.545469 39.814000
2484 1 23.456000 22.006283 39.814000
2485 1 23.456000 25.391865 0.000000
2486 1 24.922000 27.931051 0.000000
2487 1 24.922000 29.623842 2.342000
2488 1 23.456000 27.084656 2.342000
2489 1 23.456000 25.391865 4.684000
2490 1 24.922000 27.931051 4.684000
2491 1 24.922000 29.623842 7.026000
2492 1 23.456000 27.084656 7.026000
2493 1 23.456000 25.391865 9.368000
2494 1 24.922000 27.931051 9.368000
2495 1 24.922000 29.623842 11.710000
2496 1 23.456000 27.084656 11.710000
2497 1 23.456000 25.391865 14.052000
2498 1 24.922000 27.931051 14.052000
2499 1 24.922000 29.623842 16.394000
2500 1 23.456000 27.084656 16.394000
2501 1 23.456000 25.391865 18.736000
2502 1 24.922000 27.931051 18.736000
2503 1 24.922000 29.623842 21.078000
2504 1 23.456000 27.084656 21.078000
2505 1 23.456000 25.391865 23.420000
2506 1 24.922000 27.931051 23.420000
2507 1 24.922000 29.623842 25.762000
2508 2 23.456000 27.084656 25.762000
2509 1 23.456000 25.391865 28.104000
2510 1 24.922000 27.931051 28.104000
2511 1 24.922000 29.623842 30.446000
2512 1 23.456000 27.084656 30.446000
2513 1 23.456000 25.391865 32.788000
2514 1 24.922000 27.931051 32.788000
2515 1 24.922000 29.623842 35.130000
2516 2 23.456000 27.084656 35.130000
2517 1 23.456000 25.391865 37.472000
2518 1 24.922000 27.931051 37.472000
2519 1 24.922000 29.623842 39.814000
2520 1 23.456000 27.084656 39.814000
2521 1 23.456000 30.470238 0.000000
2522 1 24.922000 33.009424 0.000000
2523 1 24.922000 34.702215 2.342000
2524 1 23.456000 32.163029 2.342000
2525 1 23.456000 30.470238 4.684000
2526 1 24.922000 33.009424 4.684000
2527 1 24.922000 34.702215 7.026000
2528 2 23.456000 32.163029 7.026000
2529 1 23.456000 30.470238 9.368000
2530 1 24.922000 33.009424 9.368000
2531 1 24.922000 34.702215 11.710000
2532 1 23.456000 32.163029 11.710000
2533 1 23.456000 30.470238 14.052000
2534 1 24.922000 33.009424 14.052000
2535 1 24.922000 34.702215 16.394000
2536 2 23.456000 32.163029 16.394000
2537 1 23.456000 30.470238 18.736000
2538 1 24.922000 33.009424 18.736000
2539 2 24.922000 34.702215 21.078000
2540 1 23.456000 32.163029 21.078000
2541 1 23.456000 30.470238 23.420000
2542 1 24.922000 33.009424 23.420000
2543 2 24.922000 34.702215 25.762000
2544 1 23.456000 32.163029 25.762000
2545 1 23.456000 30.470238 28.104000
2546 1 24.922000 33.009424 28.104000
2547 1 24.922000 34.702215 30.446000
2548 1 23.456000 32.163029 30.446000
2549 1 23.456000 30.470238 32.788000
2550 1 24.922000 33.009424 32.788000
2551 1 24.922000 34.702215 35.130000
2552 1 23.456000 32.163029 35.130000
2553 1 23.456000 30.470238 37.472000
2554 1 24.922000 33.009424 37.472000
2555 1 24.922000 34.702215 39.814000
2556 1 23.456000 32.163029 39.814000
2557 1 23.456000 35.548611 0.000000
2558 1 24.922000 38.087797 0.000000
2559 1 24.922000 39.780588 2.342000
2560 1 23.456000 37.241402 2.342000
2561 1 23.456000 35.548611 4.684000
2562 1 24.922000 38.087797 4.684000
2563 1 24.922000 39.780588 7.026000
2564 1 23.456000 37.241402 7.026000
2565 1 23.456000 35.548611 9.368000
2566 1 24.922000 38.087797 9.368000
2567 1 24.922000 39.780588 11.710000
2568 1 23.456000 37.241402 11.710000
2569 1 23.456000 35.548611 14.052000
2570 1 24.922000 38.087797 14.052000
2571 1 24.922000 39.780588 16.394000
2572 2 23.456000 37.241402 16.394000
2573 1 23.456000 35.548611 18.736000
2574 1 24.922000 38.087797 18.736000
2575 1 24.922000 39.780588 21.078000
2576 1 23.456000 37.241402 21.078000
2577 1 23.456000 35.548611 23.420000
2578 1 24.922000 38.087797 23.420000
2579 1 24.922000 39.780588 25.762000
2580 1 23.456000 37.241402 25.762000
2581 1 23.456000 35.548611 28.104000
2582 2 24.922000 38.087797 28.104000
2583 1 24.922000 39.780588 30.446000
2584 1 23.456000 37.241402 30.446000
2585 1 23.456000 35.548611 32.788000
2586 1 24.922000 38.087797 32.788000
2587 1 24.922000 39.780588 35.130000
2588 2 23.456000 37.241402 35.130000
2589 1 23.456000 35.548611 37.472000
2590 1 24.922000 38.087797 37.472000
2591 1 24.922000 39.780588 39.814000
2592 1 23.456000 37.241402 39.814000
2593 1 26.388000 0.000000 0.000000
2594 2 27.854000 2.539186 0.000000
2595 1 27.854000 4.231977 2.342000
2596 1 26.388000 1.692791 2.342000
2597 1 26.388000 0.000000 4.684000
2598 2 27.854000 2.539186 4.684000
2599 1 27.854000 4.231977 7.026000
2600 1 26.388000 1.692791 7.026000
2601 1 26.388000 0.000000 9.368000
2602 1 27.854000 2.539186 9.368000
2603 1 27.854000 4.231977 11.710000
2604 1 26.388000 1.692791 11.710000
2605 1 26.388000 0.000000 14.052000
2606 2 27.854000 2.539186 14.052000
2607 1 27.854000 4.231977 16.394000
2608 1 26.388000 1.692791 16.394000
2609 1 26.388000 0.000000 18.736000
2610 1 27.854000 2.539186 18.736000
2611 1 27.854000 4.231977 21.078000
2612 1 26.388000 1.692791 21.078000
2613 1 26.388000 0.000000 23.420000
2614 1 27.854000 2.539186 23.420000
2615 1 27.854000 4.231977 25.762000
2616 1 26.388000 1.692791 25.762000
2617 1 26.388000 0.000000 28.104000
2618 1 27.854000 2.539186 28.104000
2619 1 27.854000 4.231977 30.446000
2620 1 26.388000 1.692791 30.446000
2621 2 26.388000 0.000000 32.788000
2622 1 27.854000 2.539186 32.788000
2623 1 27.854000 4.231977 35.130000
2624 1 26.388000 1.692791 35.130000
2625 1 26.388000 0.000000 37.472000
2626 1 27.854000 2.539186 37.472000
2627 1 27.854000 4.231977 39.814000
2628 1 26.388000 1.692791 39.814000
2629 1 26.388000 5.078373 0.000000
2630 1 27.854000 7.617559 0.000000
2631 1 27.854000 9.310350 2.342000
2632 2 26.388000 6.771164 2.342000
2633 1 26.388000 5.078373 4.684000
2634 1 27.854000 7.617559 4.684000
2635 1 27.854000 9.310350 7.026000
2636 1 26.388000 6.771164 7.026000
2637 1 26.388000 5.078373 9.368000
2638 2 27.854000 7.617559 9.368000
2639 1 27.854000 9.310350 11.710000
2640 1 26.388000 6.771164 11.710000
2641 1 26.388000 5.078373 14.052000
2642 1 27.854000 7.617559 14.052000
2643 1 27.854000 9.310350 16.394000
2644 1 26.388000 6.771164 16.394000
2645 2 26.388000 5.078373 18.736000
2646 1 27.854000 7.617559 18.736000
2647 1 27.854000 9.310350 21.078000
2648 1 26.388000 6.771164 21.078000
2649 1 26.388000 5.078373 23.420000
2650 1 27.854000 7.617559 23.420000
2651 1 27.854000 9.310350 25.762000
2652 1 26.388000 6.771164 25.762000
2653 1 26.388000 5.078373 28.104000
2654 2 27.854000 7.617559 28.104000
2655 1 27.854000 9.310350 30.446000
2656 1 26.388000 6.771164 30.446000
2657 2 26.388000 5.078373 32.788000
2658 1 27.854000 7.617559 32.788000
2659 1 27.854000 9.310350 35.130000
2660 1 26.388000 6.771164 35.130000
2661 1 26.388000 5.078373 37.472000
2662 1 27.854000 7.617559 37.472000
2663 1 27.854000 9.310350 39.814000
2664 2 26.388000 6.771164 39.814000
2665 2 26.388000 10.156746 0.000000
2666 1 27.854000 12.695932 0.000000
2667 1 27.854000 14.388723 2.342000
2668 1 26.388000 11.849537 2.342000
2669 1 26.388000 10.156746 4.684000
2670 1 27.854000 12.695932 4.684000
2671 1 27.854000 14.388723 7.026000
2672 2 26.388000 11.849537 7.026000
2673 1 26.388000 10.156746 9.368000
2674 1 27.854000 12.695932 9.368000
2675 2 27.854000 14.388723 11.710000
2676 1 26.388000 11.849537 11.710000
2677 1 26.388000 10.156746 14.052000
2678 1 27.854000 12.695932 14.052000
2679 1 27.854000 14.388723 16.394000
2680 1 26.388000 11.849537 16.394000
2681 2 26.388000 10.156746 18.736000
2682 1 27.854000 12.695932 18.736000
2683 1 27.854000 14.388723 21.078000
2684 1 26.388000 11.849537 21.078000
2685 1 26.388000 10.156746 23.420000
2686 1 27.854000 12.695932 23.420000
2687 1 27.854000 14.388723 25.762000
2688 1 26.388000 11.849537 25.762000
2689 1 26.388000 10.156746 28.104000
2690 1 27.854000 12.695932 28.104000
2691 1 27.854000 14.388723 30.446000
2692 2 26.388000 11.849537 30.446000
2693 1 26.388000 10.156746 32.788000
2694 1 27.854000 12.695932 32.788000
2695 1 27.854000 14.388723 35.130000
2696 1 26.388000 11.849537 35.130000
2697 1 26.388000 10.156746 37.472000
2698 1 27.854000 12.695932 37.472000
2699 1 27.854000 14.388723 39.814000
2700 1 26.388000 11.849537 39.814000
2701 2 26.388000 15.235119 0.000000
2702 1 27.854000 17.774305 0.000000
2703 1 27.854000 19.467096 2.342000
2704 1 26.388000 16.927910 2.342000
2705 1 26.388000 15.235119 4.684000
2706 1 27.854000 17.774305 4.684000
2707 1 27.854000 19.467096 7.026000
2708 1 26.388000 16.927910 7.026000
2709 1 26.388000 15.235119 9.368000
2710 1 27.854000 17.774305 9.368000
2711 2 27.854000 19.467096 11.710000
2712 1 26.388000 16.927910 11.710000
2713 1 26.388000 15.235119 14.052000
2714 1 27.854000 17.774305 14.052000
2715 2 27.854000 19.467096 16.394000
2716 1 26.388000 16.927910 16.394000
2717 1 26.388000 15.235119 18.736000
2718 1 27.854000 17.774305 18.736000
2719 1 27.854000 19.467096 21.078000
2720 1 26.388000 16.927910 21.078000
2721 1 26.388000 15.235119 23.420000
2722 1 27.854000 17.774305 23.420000
2723 1 27.854000 19.467096 25.762000
2724 1 26.388000 16.927910 25.762000
2725 1 26.388000 15.235119 28.104000
2726 1 27.854000 17.774305 28.104000
2727 1 27.854000 19.467096 30.446000
2728 1 26.388000 16.927910 30.446000
2729 1 26.388000 15.235119 32.788000
2730 1 27.854000 17.774305 32.788000
2731 1 27.854000 19.467096 35.130000
2732 1 26.388000 16.927910 35.130000
2733 1 26.388000 15.235119 37.472000
2734 1 27.854000 17.774305 37.472000
2735 1 27.854000 19.467096 39.814000
2736 1 26.388000 16.927910 39.814000
2737 1 26.388000 20.313492 0.000000
2738 1 27.854000 22.852678 0.000000
2739 2 27.854000 24.545469 2.342000
2740 1 26.388000 22.006283 2.342000
2741 1 26.388000 20.313492 4.684000
2742 1 27.854000 22.852678 4.684000
2743 2 27.854000 24.545469 7.026000
2744 1 26.388000 22.006283 7.026000
2745 1 26.388000 20.313492 9.368000
2746 1 27.854000 22.852678 9.368000
2747 1 27.854000 24.545469 11.710000
2748 1 26.388000 22.006283 11.710000
2749 1 26.388000 20.313492 14.052000
2750 1 27.854000 22.852678 14.052000
2751 1 27.854000 24.545469 16.394000
2752 1 26.388000 22.006283 16.394000
2753 1 26.388000 20.313492 18.736000
2754 1 27.854000 22.852678 18.736000
2755 1 27.854000 24.545469 21.078000
2756 1 26.388000 22.006283 21.078000
2757 1 26.388000 20.313492 23.420000
2758 1 27.854000 22.852678 23.420000
2759 2 27.854000 24.545469 25.762000
2760 1 26.388000 22.006283 25.762000
2761 1 26.388000 20.313492 28.104000
2762 1 27.854000 22.852678 28.104000
2763 1 27.854000 24.545469 30.446000
2764 1 26.388000 22.006283 30.446000
2765 1 26.388000 20.313492 32.788000
2766 1 27.854000 22.852678 32.788000
2767 1 27.854000 24.545469 35.130000
2768 1 26.388000 22.006283 35.130000
2769 1 26.388000 20.313492 37.472000
2770 1 27.854000 22.852678 37.472000
2771 1 27.854000 24.545469 39.814000
2772 1 26.388000 22.006283 39.814000
2773 1 26.388000 25.391865 0.000000
2774 1 27.854000 27.931051 0.000000
2775 1 27.854000 29.623842 2.342000
2776 1 26.388000 27.084656 2.342000
2777 1 26.388000 25.391865 4.684000
2778 1 27.854000 27.931051 4.684000
2779 1 27.854000 29.623842 7.026000
2780 1 26.388000 27.084656 7.026000
2781 1 26.388000 25.391865 9.368000
2782 1 27.854000 27.931051 9.368000
2783 1 27.854000 29.623842 11.710000
2784 1 26.388000 27.084656 11.710000
2785 2 26.388000 25.391865 14.052000
2786 1 27.854000 27.931051 14.052000
2787 1 27.854000 29.623842 16.394000
2788 1 26.388000 27.084656 16.394000
2789 2 26.388000 25.391865 18.736000
2790 1 27.854000 27.931051 18.736000
2791 1 27.854000 29.623842 21.078000
2792 1 26.388000 27.084656 21.078000
2793 1 26.388000 25.391865 23.420000
2794 1 27.854000 27.931051 23.420000
2795 1 27.854000 29.623842 25.762000
2796 1 26.388000 27.084656 25.762000
2797 1 26.388000 25.391865 28.104000
2798 1 27.854000 27.931051 28.104000
2799 1 27.854000 29.623842 30.446000
2800 1 26.388000 27.084656 30.446000
2801 1 26.388000 25.391865 32.788000
2802 1 27.854000 27.931051 32.788000
2803 1 27.854000 29.623842 35.130000
2804 1 26.388000 27.084656 35.130000
2805 1 26.388000 25.391865 37.472000
2806 1 27.854000 27.931051 37.472000
2807 1 27.854000 29.623842 39.814000
2808 1 26.388000 27.084656 39.814000
2809 1 26.388000 30.470238 0.000000
2810 1 27.854000 33.009424 0.000000
2811 1 27.854000 34.702215 2.342000
2812 2 26.388000 32.163029 2.342000
2813 1 26.388000 30.470238 4.684000
2814 1 27.854000 33.009424 4.684000
2815 1 27.854000 34.702215 7.026000
2816 1 26.388000 32.163029 7.026000
2817 1 26.388000 30.470238 9.368000
2818 1 27.854000 33.009424 9.368000
2819 2 27.854000 34.702215 11.710000
2820 1 26.388000 32.163029 11.710000
2821 2 26.388000 30.470238 14.052000
2822 1 27.854000 33.009424 14.052000
2823 1 27.854000 34.702215 16.394000
2824 1 26.388000 32.163029 16.394000
2825 2 26.388000 30.470238 18.736000
2826 1 27.854000 33.009424 18.736000
2827 1 27.854000 34.702215 21.078000
2828 1 26.388000 32.163029 21.078000
2829 1 26.388000 30.470238 23.420000
2830 1 27.854000 33.009424 23.420000
2831 1 27.854000 34.702215 25.762000
2832 1 26.388000 32.163029 25.762000
2833 1 26.388000 30.470238 28.104000
2834 2 27.854000 33.009424 28.104000
2835 1 27.854000 34.702215 30.446000
2836 1 26.388000 32.163029 30.446000
2837 1 26.388000 30.470238 32.788000
2838 1 27.854000 33.009424 32.788000
2839 1 27.854000 34.702215 35.130000
2840 1 26.388000 32.163029 35.130000
2841 1 26.388000 30.470238 37.472000
2842 1 27.854000 33.009424 37.472000
2843 1 27.854000 34.702215 39.814000
2844 2 26.388000 32.163029 39.814000
2845 2 26.388000 35.548611 0.000000
2846 1 27.854000 38.087797 0.000000
2847 1 27.854000 39.780588 2.342000
2848 1 26.388000 37.241402 2.342000
2849 1 26.388000 35.548611 4.684000
2850 1 27.854000 38.087797 4.684000
2851 1 27.854000 39.780588 7.026000
2852 1 26.388000 37.241402 7.026000
2853 1 26.388000 35.548611 9.368000
2854 1 27.854000 38.087797 9.368000
2855 1 27.854000 39.780588 11.710000
2856 1 26.388000 37.241402 11.710000
2857 1 26.388000 35.548611 14.052000
2858 1 27.854000 38.087797 14.052000
2859 1 27.854000 39.780588 16.394000
2860 1 26.388000 37.241402 16.394000
2861 1 26.388000 35.548611 18.736000
2862 1 27.854000 38.087797 18.736000
2863 1 27.854000 39.780588 21.078000
2864 1 26.388000 37.241402 21.078000
2865 1 26.388000 35.548611 23.420000
2866 2 27.854000 38.087797 23.420000
2867 1 27.854000 39.780588 25.762000
2868 1 26.388000 37.241402 25.762000
2869 1 26.388000 35.548611 28.104000
2870 1 27.854000 38.087797 28.104000
2871 1 27.854000 39.780588 30.446000
2872 1 26.388000 37.241402 30.446000
2873 2 26.388000 35.548611 32.788000
2874 1 27.854000 38.087797 32.788000
2875 1 27.854000 39.780588 35.130000
2876 1 26.388000 37.241402 35.130000
2877 2 26.388000 35.548611 37.472000
2878 1 27.854000 38.087797 37.472000
2879 2 27.854000 39.780588 39.814000
2880 1 26.388000 37.241402 39.814000
2881 1 29.320000 0.000000 0.000000
2882 1 30.786000 2.539186 0.000000
2883 2 30.786000 4.231977 2.342000
2884 1 29.320000 1.692791 2.342000
2885 1 29.320000 0.000000 4.684000
2886 1 30.786000 2.539186 4.684000
2887 2 30.786000 4.231977 7.026000
2888 1 29.320000 1.692791 7.026000
2889 1 29.320000 0.000000 9.368000
2890 1 30.786000 2.539186 9.368000
2891 1 30.786000 4.231977 11.710000
2892 2 29.320000 1.692791 11.710000
2893 1 29.320000 0.000000 14.052000
2894 1 30.786000 2.539186 14.052000
2895 1 30.786000 4.231977 16.394000
2896 1 29.320000 1.692791 16.394000
2897 2 29.320000 0.000000 18.736000
2898 1 30.786000 2.539186 18.736000
2899 1 30.786000 4.231977 21.078000
2900 1 29.320000 1.692791 21.078000
2901 1 29.320000 0.000000 23.420000
2902 1 30.786000 2.539186 23.420000
2903 2 30.786000 4.231977 25.762000
2904 1 29.320000 1.692791 25.762000
2905 2 29.320000 0.000000 28.104000
2906 1 30.786000 2.539186 28.104000
2907 1 30.786000 4.231977 30.446000
2908 1 29.320000 1.692791 30.446000
2909 1 29.320000 0.000000 32.788000
2910 1 30.786000 2.539186 32.788000
2911 1 30.786000 4.231977 35.130000
2912 2 29.320000 1.692791 35.130000
2913 1 29.320000 0.000000 37.472000
2914 1 30.786000 2.539186 37.472000
2915 1 30.786000 4.231977 39.814000
2916 1 29.320000 1.692791 39.814000
2917 1 29.320000 5.078373 0.000000
2918 1 30.786000 7.617559 0.000000
2919 1 30.786000 9.310350 2.342000
2920 1 29.320000 6.771164 2.342000
2921 1 29.320000 5.078373 4.684000
2922 1 30.786000 7.617559 4.684000
2923 1 30.786000 9.310350 7.026000
2924 1 29.320000 6.771164 7.026000
2925 1 29.320000 5.078373 9.368000
2926 1 30.786000 7.617559 9.368000
2927 1 30.786000 9.310350 11.710000
2928 1 29.320000 6.771164 11.710000
2929 1 29.320000 5.078373 14.052000
2930 2 30.786000 7.617559 14.052000
2931 1 30.786000 9.310350 16.394000
2932 1 29.320000 6.771164 16.394000
2933 1 29.320000 5.078373 18.736000
2934 1 30.786000 7.617559 18.736000
2935 2 30.786000 9.310350 21.078000
2936 1 29.320000 6.771164 21.078000
2937 1 29.320000 5.078373 23.420000
2938 1 30.786000 7.617559 23.420000
2939 2 30.786000 9.310350 25.762000
2940 1 29.320000 6.771164 25.762000
2941 1 29.320000 5.078373 28.104000
2942 1 30.786000 7.617559 28.104000
2943 1 30.786000 9.310350 30.446000
2944 1 29.320000 6.771164 30.446000
2945 1 29.320000 5.078373 32.788000
2946 2 30.786000 7.617559 32.788000
2947 1 30.786000 9.310350 35.130000
2948 1 29.320000 6.771164 35.130000
2949 1 29.320000 5.078373 37.472000
2950 1 30.786000 7.617559 37.472000
2951 1 30.786000 9.310350 39.814000
2952 1 29.320000 6.771164 39.814000
2953 1 29.320000 10.156746 0.000000
2954 1 30.786000 12.695932 0.000000
2955 1 30.786000 14.388723 2.342000
2956 1 29.320000 11.849537 2.342000
2957 1 29.320000 10.156746 4.684000
2958 2 30.786000 12.695932 4.684000
2959 1 30.786000 14.388723 7.026000
2960 1 29.320000 11.849537 7.026000
2961 1 29.320000 10.156746 9.368000
2962 1 30.786000 12.695932 9.368000
2963 1 30.786000 14.388723 11.710000
2964 1 29.320000 11.849537 11.710000
2965 1 29.320000 10.156746 14.052000
2966 1 30.786000 12.695932 14.052000
2967 1 30.786000 14.388723 16.394000
2968 1 29.320000 11.849537 16.394000
2969 1 29.320000 10.156746 18.736000
2970 1 30.786000 12.695932 18.736000
2971 1 30.786000 14.388723 21.078000
2972 1 29.320000 11.849537 21.078000
2973 1 29.320000 10.156746 23.420000
2974 1 30.786000 12.695932 23.420000
2975 1 30.786000 14.388723 25.762000
2976 1 29.320000 11.849537 25.762000
2977 1 29.320000 10.156746 28.104000
2978 1 30.786000 12.695932 28.104000
2979 1 30.786000 14.388723 30.446000
2980 1 29.320000 11.849537 30.446000
2981 1 29.320000 10.156746 32.788000
2982 1 30.786000 12.695932 32.788000
2983 1 30.786000 14.388723 35.130000
2984 2 29.320000 11.849537 35.130000
2985 1 29.320000 10.156746 37.472000
2986 1 30.786000 12.695932 37.472000
2987 2 30.786000 14.388723 39.814000
2988 1 29.320000 11.849537 39.814000
2989 1 29.320000 15.235119 0.000000
2990 1 30.786000 17.774305 0.000000
2991 1 30.786000 19.467096 2.342000
2992 2 29.320000 16.927910 2.342000
2993 1 29.320000 15.235119 4.684000
2994 1 30.786000 17.774305 4.684000
2995 2 30.786000 19.467096 7.026000
2996 1 29.320000 16.927910 7.026000
2997 1 29.320000 15.235119 9.368000
2998 1 30.786000 17.774305 9.368000
2999 2 30.786000 19.467096 11.710000
3000 1 29.320000 16.927910 11.710000
3001 1 29.320000 15.235119 14.052000
3002 1 30.786000 17.774305 14.052000
3003 1 30.786000 19.467096 16.394000
3004 1 29.320000 16.927910 16.394000
3005 1 29.320000 15.235119 18.736000
3006 1 30.786000 17.774305 18.736000
3007 2 30.786000 19.467096 21.078000
3008 1 29.320000 16.927910 21.078000
3009 2 29.320000 15.235119 23.420000
3010 1 30.786000 17.774305 23.420000
3011 1 30.786000 19.467096 25.762000
3012 1 29.320000 16.927910 25.762000
3013 2 29.320000 15.235119 28.104000
3014 1 30.786000 17.774305 28.104000
3015 1 30.786000 19.467096 30.446000
3016 1 29.320000 16.927910 30.446000
3017 1 29.320000 15.235119 32.788000
3018 1 30.786000 17.774305 32.788000
3019 1 30.786000 19.467096 35.130000
3020 1 29.320000 16.927910 35.130000
3021 1 29.320000 15.235119 37.472000
3022 1 30.786000 17.774305 37.472000
3023 1 30.786000 19.467096 39.814000
3024 1 29.320000 16.927910 39.814000
3025 1 29.320000 20.313492 0.000000
3026 1 30.786000 22.852678 0.000000
3027 1 30.786000 24.545469 2.342000
3028 1 29.320000 22.006283 2.342000
3029 1 29.320000 20.313492 4.684000
3030 1 30.786000 22.852678 4.684000
3031 2 30.786000 24.545469 7.026000
3032 1 29.320000 22.006283 7.026000
3033 1 29.320000 20.313492 9.368000
3034 1 30.786000 22.852678 9.368000
3035 2 30.786000 24.545469 11.710000
3036 1 29.320000 22.006283 11.710000
3037 1 29.320000 20.313492 14.052000
3038 1 30.786000 22.852678 14.052000
3039 1 30.786000 24.545469 16.394000
3040 1 29.320000 22.006283 16.394000
3041 1 29.320000 20.313492 18.736000
3042 1 30.786000 22.852678 18.736000
3043 1 30.786000 24.545469 21.078000
3044 1 29.320000 22.006283 21.078000
3045 1 29.320000 20.313492 23.420000
3046 1 30.786000 22.852678 23.420000
3047 1 30.786000 24.545469 25.762000
3048 1 29.320000 22.006283 25.762000
3049 1 29.320000 20.313492 28.104000
3050 1 30.786000 22.852678 28.104000
3051 1 30.786000 24.545469 30.446000
3052 1 29.320000 22.006283 30.446000
3053 1 29.320000 20.313492 32.788000
3054 1 30.786000 22.852678 32.788000
3055 1 30.786000 24.545469 35.130000
3056 2 29.320000 22.006283 35.130000
3057 1 29.320000 20.313492 37.472000
3058 1 30.786000 22.852678 37.472000
3059 1 30.786000 24.545469 39.814000
3060 2 29.320000 22.006283 39.814000
3061 1 29.320000 25.391865 0.000000
3062 1 30.786000 27.931051 0.000000
3063 1 30.786000 29.623842 2.342000
3064 1 29.320000 27.084656 2.342000
3065 1 29.320000 25.391865 4.684000
3066 1 30.786000 27.931051 4.684000
3067 1 30.786000 29.623842 7.026000
3068 1 29.320000 27.084656 7.026000
3069 1 29.320000 25.391865 9.368000
3070 1 30.786000 27.931051 9.368000
3071 1 30.786000 29.623842 11.710000
3072 1 29.320000 27.084656 11.710000
3073 1 29.320000 25.391865 14.052000
3074 1 30.786000 27.931051 14.052000
3075 1 30.786000 29.623842 16.394000
3076 2 29.320000 27.084656 16.394000
3077 1 29.320000 25.391865 18.736000
3078 1 30.786000 27.931051 18.736000
3079 1 30.786000 29.623842 21.078000
3080 2 29.320000 27.084656 21.078000
3081 1 29.320000 25.391865 23.420000
3082 1 30.786000 27.931051 23.420000
3083 1 30.786000 29.623842 25.762000
3084 1 29.320000 27.084656 25.762000
3085 1 29.320000 25.391865 28.104000
3086 1 30.786000 27.931051 28.104000
3087 2 30.786000 29.623842 30.446000
3088 1 29.320000 27.084656 30.446000
3089 2 29.320000 25.391865 32.788000
3090 1 30.786000 27.931051 32.788000
3091 1 30.786000 29.623842 35.130000
3092 1 29.320000 27.084656 35.130000
3093 1 29.320000 25.391865 37.472000
3094 1 30.786000 27.931051 37.472000
3095 1 30.786000 29.623842 39.814000
3096 2 29.320000 27.084656 39.814000
3097 2 29.320000 30.470238 0.000000
3098 1 30.786000 33.009424 0.000000
3099 1 30.786000 34.702215 2.342000
3100 1 29.320000 32.163029 2.342000
3101 2 29.320000 30.470238 4.684000
3102 1 30.786000 33.009424 4.684000
3103 1 30.786000 34.702215 7.026000
3104 1 29.320000 32.163029 7.026000
3105 1 29.320000 30.470238 9.368000
3106 1 30.786000 33.009424 9.368000
3107 1 30.786000 34.702215 11.710000
3108 2 29.320000 32.163029 11.710000
3109 1 29.320000 30.470238 14.052000
3110 1 30.786000 33.009424 14.052000
3111 1 30.786000 34.702215 16.394000
3112 1 29.320000 32.163029 16.394000
3113 1 29.320000 30.470238 18.736000
3114 1 30.786000 33.009424 18.736000
3115 1 30.786000 34.702215 21.078000
3116 1 29.320000 32.163029 21.078000
3117 1 29.320000 30.470238 23.420000
3118 1 30.786000 33.009424 23.420000
3119 1 30.786000 34.702215 25.762000
3120 1 29.320000 32.163029 25.762000
3121 1 29.320000 30.470238 28.104000
3122 1 30.786000 33.009424 28.104000
3123 1 30.786000 34.702215 30.446000
3124 1 29.320000 32.163029 30.446000
3125 1 29.320000 30.470238 32.788000
3126 2 30.786000 33.009424 32.788000
3127 1 30.786000 34.702215 35.130000
3128 1 29.320000 32.163029 35.130000
3129 1 29.320000 30.470238 37.472000
3130 1 30.786000 33.009424 37.472000
3131 1 30.786000 34.702215 39.814000
3132 1 29.320000 32.163029 39.814000
3133 1 29.320000 35.548611 0.000000
3134 2 30.786000 38.087797 0.000000
3135 1 30.786000 39.780588 2.342000
3136 1 29.320000 37.241402 2.342000
3137 1 29.320000 35.548611 4.684000
3138 2 30.786000 38.087797 4.684000
3139 1 30.786000 39.780588 7.026000
3140 1 29.320000 37.241402 7.026000
3141 1 29.320000 35.548611 9.368000
3142 1 30.786000 38.087797 9.368000
3143 1 30.786000 39.780588 11.710000
3144 1 29.320000 37.241402 11.710000
3145 1 29.320000 35.548611 14.052000
3146 1 30.786000 38.087797 14.052000
3147 1 30.786000 39.780588 16.394000
3148 1 29.320000 37.241402 16.394000
3149 2 29.320000 35.548611 18.736000
3150 1 30.786000 38.087797 18.736000
3151 1 30.786000 39.780588 21.078000
3152 1 29.320000 37.241402 21.078000
3153 1 29.320000 35.548611 23.420000
3154 1 30.786000 38.087797 23.420000
3155 1 30.786000 39.780588 25.762000
3156 1 29.320000 37.241402 25.762000
3157 1 29.320000 35.548611 28.104000
3158 1 30.786000 38.087797 28.104000
3159 1 30.786000 39.780588 30.446000
3160 1 29.320000 37.241402 30.446000
3161 1 29.320000 35.548611 32.788000
3162 1 30.786000 38.087797 32.788000
3163 1 30.786000 39.780588 35.130000
3164 1 29.320000 37.241402 35.130000
3165 1 29.320000 35.548611 37.472000
3166 1 30.786000 38.087797 37.472000
3167 1 30.786000 39.780588 39.814000
3168 1 29.320000 37.241402 39.814000
3169 1 32.252000 0.000000 0.000000
3170 1 33.718000 2.539186 0.000000
3171 1 33.718000 4.231977 2.342000
3172 1 32.252000 1.692791 2.342000
3173 1 32.252000 0.000000 4.684000
3174 1 33.718000 2.539186 4.684000
3175 1 33.718000 4.231977 7.026000
3176 1 32.252000 1.692791 7.026000
3177 1 32.252000 0.000000 9.368000
3178 1 33.718000 2.539186 9.368000
3179 1 33.718000 4.231977 11.710000
3180 2 32.252000 1.692791 11.710000
3181 1 32.252000 0.000000 14.052000
3182 1 33.718000 2.539186 14.052000
3183 2 33.718000 4.231977 16.394000
3184 1 32.252000 1.692791 16.394000
3185 1 32.252000 0.000000 18.736000
3186 1 33.718000 2.539186 18.736000
3187 1 33.718000 4.231977 21.078000
3188 1 32.252000 1.692791 21.078000
3189 1 32.252000 0.000000 23.420000
3190 1 33.718000 2.539186 23.420000
3191 1 33.718000 4.231977 25.762000
3192 1 32.252000 1.692791 25.762000
3193 1 32.252000 0.000000 28.104000
3194 1 33.718000 2.539186 28.104000
3195 1 33.718000 4.231977 30.446000
3196 2 32.252000 1.692791 30.446000
3197 1 32.252000 0.000000 32.788000
3198 1 33.718000 2.539186 32.788000
3199 1 33.718000 4.231977 35.130000
3200 1 32.252000 1.692791 35.130000
3201 1 32.252000 0.000000 37.472000
3202 1 33.718000 2.539186 37.472000
3203 1 33.718000 4.231977 39.814000
3204 1 32.252000 1.692791 39.814000
3205 1 32.252000 5.078373 0.000000
3206 1 33.718000 7.617559 0.000000
3207 1 33.718000 9.310350 2.342000
3208 1 32.252000 6.771164 2.342000
3209 1 32.252000 5.078373 4.684000
3210 2 33.718000 7.617559 4.684000
3211 1 33.718000 9.310350 7.026000
3212 1 32.252000 6.771164 7.026000
3213 1 32.252000 5.078373 9.368000
3214 1 33.718000 7.617559 9.368000
3215 2 33.718000 9.310350 11.710000
3216 1 32.252000 6.771164 11.710000
3217 1 32.252000 5.078373 14.052000
3218 1 33.718000 7.617559 14.052000
3219 1 33.718000 9.310350 16.394000
3220 1 32.252000 6.771164 16.394000
3221 1 32.252000 5.078373 18.736000
3222 2 33.718000 7.617559 18.736000
3223 1 33.718000 9.310350 21.078000
3224 1 32.252000 6.771164 21.078000
3225 1 32.252000 5.078373 23.420000
3226 2 33.718000 7.617559 23.420000
3227 1 33.718000 9.310350 25.762000
3228 1 32.252000 6.771164 25.762000
3229 1 32.252000 5.078373 28.104000
3230 1 33.718000 7.617559 28.104000
3231 1 33.718000 9.310350 30.446000
3232 1 32.252000 6.771164 30.446000
3233 1 32.252000 5.078373 32.788000
3234 1 33.718000 7.617559 32.788000
3235 1 33.718000 9.310350 35.130000
3236 1 32.252000 6.771164 35.130000
3237 2 32.252000 5.078373 37.472000
3238 1 33.718000 7.617559 37.472000
3239 1 33.718000 9.310350 39.814000
3240 1 32.252000 6.771164 39.814000
3241 2 32.252000 10.156746 0.000000
3242 1 33.718000 12.695932 0.000000
3243 1 33.718000 14.388723 2.342000
3244 1 32.252000 11.849537 2.342000
3245 1 32.252000 10.156746 4.684000
3246 1 33.718000 12.695932 4.684000
3247 1 33.718000 14.388723 7.026000
3248 1 32.252000 11.849537 7.026000
3249 1 32.252000 10.156746 9.368000
3250 1 33.718000 12.695932 9.368000
3251 1 33.718000 14.388723 11.710000
3252 1 32.252000 11.849537 11.710000
3253 1 32.252000 10.156746 14.052000
3254 1 33.718000 12.695932 14.052000
3255 1 33.718000 14.388723 16.394000
3256 1 32.252000 11.849537 16.394000
3257 1 32.252000 10.156746 18.736000
3258 1 33.718000 12.695932 18.736000
3259 1 33.718000 14.388723 21.078000
3260 1 32.252000 11.849537 21.078000
3261 1 32.252000 10.156746 23.420000
3262 1 33.718000 12.695932 23.420000
3263 1 33.718000 14.388723 25.762000
3264 1 32.252000 11.849537 25.762000
3265 1 32.252000 10.156746 28.104000
3266 1 33.718000 12.695932 28.104000
3267 1 33.718000 14.388723 30.446000
3268 2 32.252000 11.849537 30.446000
3269 1 32.252000 10.156746 32.788000
3270 1 33.718000 12.695932 32.788000
3271 1 33.718000 14.388723 35.130000
3272 1 32.252000 11.849537 35.130000
3273 2 32.252000 10.156746 37.472000
3274 1 33.718000 12.695932 37.472000
3275 1 33.718000 14.388723 39.814000
3276 1 32.252000 11.849537 39.814000
3277 1 32.252000 15.235119 0.000000
3278 1 33.718000 17.774305 0.000000
3279 1 33.718000 19.467096 2.342000
3280 1 32.252000 16.927910 2.342000
3281 1 32.252000 15.235119 4.684000
3282 1 33.718000 17.774305 4.684000
3283 1 33.718000 19.467096 7.026000
3284 1 32.252000 16.927910 7.026000
3285 1 32.252000 15.235119 9.368000
3286 2 33.718000 17.774305 9.368000
3287 1 33.718000 19.467096 11.710000
3288 1 32.252000 16.927910 11.710000
3289 2 32.252000 15.235119 14.052000
3290 1 33.718000 17.774305 14.052000
3291 2 33.718000 19.467096 16.394000
3292 1 32.252000 16.927910 16.394000
3293 2 32.252000 15.235119 18.736000
3294 1 33.718000 17.774305 18.736000
3295 1 33.718000 19.467096 21.078000
3296 1 32.252000 16.927910 21.078000
3297 1 32.252000 15.235119 23.420000
3298 1 33.718000 17.774305 23.420000
3299 2 33.718000 19.467096 25.762000
3300 1 32.252000 16.927910 25.762000
3301 1 32.252000 15.235119 28.104000
3302 1 33.718000 17.774305 28.104000
3303 2 33.718000 19.467096 30.446000
3304 1 32.252000 16.927910 30.446000
3305 1 32.252000 15.235119 32.788000
3306 1 33.718000 17.774305 32.788000
3307 1 33.718000 19.467096 35.130000
3308 1 32.252000 16.927910 35.130000
3309 1 32.252000 15.235119 37.472000
3310 1 33.718000 17.774305 37.472000
3311 2 33.718000 19.467096 39.814000
3312 1 32.252000 16.927910 39.814000
3313 1 32.252000 20.313492 0.000000
3314 1 33.718000 22.852678 0.000000
3315 2 33.718000 24.545469 2.342000
3316 1 32.252000 22.006283 2.342000
3317 1 32.252000 20.313492 4.684000
3318 1 33.718000 22.852678 4.684000
3319 1 33.718000 24.545469 7.026000
3320 1 32.252000 22.006283 7.026000
3321 1 32.252000 20.313492 9.368000
3322 1 33.718000 22.852678 9.368000
3323 1 33.718000 24.545469 11.710000
3324 1 32.252000 22.006283 11.710000
3325 1 32.252000 20.313492 14.052000
3326 1 33.718000 22.852678 14.052000
3327 2 33.718000 24.545469 16.394000
3328 1 32.252000 22.006283 16.394000
3329 1 32.252000 20.313492 18.736000
3330 1 33.718000 22.852678 18.736000
3331 1 33.718000 24.545469 21.078000
3332 1 32.252000 22.006283 21.078000
3333 1 32.252000 20.313492 23.420000
3334 1 33.718000 22.852678 23.420000
3335 1 33.718000 24.545469 25.762000
3336 1 32.252000 22.006283 25.762000
3337 1 32.252000 20.313492 28.104000
3338 1 33.718000 22.852678 28.104000
3339 1 33.718000 24.545469 30.446000
3340 1 32.252000 22.006283 30.446000
3341 1 32.252000 20.313492 32.788000
3342 1 33.718000 22.852678 32.788000
3343 1 33.718000 24.545469 35.130000
3344 1 32.252000 22.006283 35.130000
3345 1 32.252000 20.313492 37.472000
3346 1 33.718000 22.852678 37.472000
3347 1 33.718000 24.545469 39.814000
3348 1 32.252000 22.006283 39.814000
3349 1 32.252000 25.391865 0.000000
3350 1 33.718000 27.931051 0.000000
3351 1 33.718000 29.623842 2.342000
3352 1 32.252000 27.084656 2.342000
3353 1 32.252000 25.391865 4.684000
3354 2 33.718000 27.931051 4.684000
3355 1 33.718000 29.623842 7.026000
3356 1 32.252000 27.084656 7.026000
3357 1 32.252000 25.391865 9.368000
3358 1 33.718000 27.931051 9.368000
3359 2 33.718000 29.623842 11.710000
3360 1 32.252000 27.084656 11.710000
3361 1 32.252000 25.391865 14.052000
3362 1 33.718000 27.931051 14.052000
3363 2 33.718000 29.623842 16.394000
3364 1 32.252000 27.084656 16.394000
3365 1 32.252000 25.391865 18.736000
3366 1 33.718000 27.931051 18.736000
3367 2 33.718000 29.623842 21.078000
3368 1 32.252000 27.084656 21.078000
3369 1 32.252000 25.391865 23.420000
3370 1 33.718000 27.931051 23.420000
3371 1 33.718000 29.623842 25.762000
3372 2 32.252000 27.084656 25.762000
3373 1 32.252000 25.391865 28.104000
3374 1 33.718000 27.931051 28.104000
3375 1 33.718000 29.623842 30.446000
3376 1 32.252000 27.084656 30.446000
3377 1 32.252000 25.391865 32.788000
3378 1 33.718000 27.931051 32.788000
3379 1 33.718000 29.623842 35.130000
3380 2 32.252000 27.084656 35.130000
3381 1 32.252000 25.391865 37.472000
3382 1 33.718000 27.931051 37.472000
3383 1 33.718000 29.623842 39.814000
3384 1 32.252000 27.084656 39.814000
3385 1 32.252000 30.470238 0.000000
3386 2 33.718000 33.009424 0.000000
3387 1 33.718000 34.702215 2.342000
3388 1 32.252000 32.163029 2.342000
3389 1 32.252000 30.470238 4.684000
3390 1 33.718000 33.009424 4.684000
3391 1 33.718000 34.702215 7.026000
3392 1 32.252000 32.163029 7.026000
3393 1 32.252000 30.470238 9.368000
3394 1 33.718000 33.009424 9.368000
3395 1 33.718000 34.702215 11.710000
3396 1 32.252000 32.163029 11.710000
3397 1 32.252000 30.470238 14.052000
3398 1 33.718000 33.009424 14.052000
3399 1 33.718000 34.702215 16.394000
3400 1 32.252000 32.163029 16.394000
3401 1 32.252000 30.470238 18.736000
3402 2 33.718000 33.009424 18.736000
3403 1 33.718000 34.702215 21.078000
3404 1 32.252000 32.163029 21.078000
3405 1 32.252000 30.470238 23.420000
3406 1 33.718000 33.009424 23.420000
3407 2 33.718000 34.702215 25.762000
3408 1 32.252000 32.163029 25.762000
3409 1 32.252000 30.470238 28.104000
3410 1 33.718000 33.009424 28.104000
3411 1 33.718000 34.702215 30.446000
3412 1 32.252000 32.163029 30.446000
3413 1 32.252000 30.470238 32.788000
3414 1 33.718000 33.009424 32.788000
3415 1 33.718000 34.702215 35.130000
3416 1 32.252000 32.163029 35.130000
3417 2 32.252000 30.470238 37.472000
3418 1 33.718000 33.009424 37.472000
3419 1 33.718000 34.702215 39.814000
3420 1 32.252000 32.163029 39.814000
3421 1 32.252000 35.548611 0.000000
3422 1 33.718000 38.087797 0.000000
3423 1 33.718000 39.780588 2.342000
3424 1 32.252000 37.241402 2.342000
3425 1 32.252000 35.548611 4.684000
3426 1 33.718000 38.087797 4.684000
3427 1 33.718000 39.780588 7.026000
3428 1 32.252000 37.241402 7.026000
3429 1 32.252000 35.548611 9.368000
3430 1 33.718000 38.087797 9.368000
3431 1 33.718000 39.780588 11.710000
3432 2 32.252000 37.241402 11.710000
3433 1 32.252000 35.548611 14.052000
3434 1 33.718000 38.087797 14.052000
3435 1 33.718000 39.780588 16.394000
3436 1 32.252000 37.241402 16.394000
3437 1 32.252000 35.548611 18.736000
3438 1 33.718000 38.087797 18.736000
3439 1 33.718000 39.780588 21.078000
3440 1 32.252000 37.241402 21.078000
3441 1 32.252000 35.548611 23.420000
3442 1 33.718000 38.087797 23.420000
3443 1 33.718000 39.780588 25.762000
3444 1 32.252000 37.241402 25.762000
3445 2 32.252000 35.548611 28.104000
3446 1 33.718000 38.087797 28.104000
3447 1 33.718000 39.780588 30.446000
3448 1 32.252000 37.241402 30.446000
3449 1 32.252000 35.548611 32.788000
3450 1 33.718000 38.087797 32.788000
3451 1 33.718000 39.780588 35.130000
3452 2 32.252000 37.241402 35.130000
3453 1 32.252000 35.548611 37.472000
3454 1 33.718000 38.087797 37.472000
3455 1 33.718000 39.780588 39.814000
3456 1 32.252000 37.241402 39.814000
3457 1 35.184000 0.000000 0.000000
3458 1 36.650000 2.539186 0.000000
3459 1 36.650000 4.231977 2.342000
3460 1 35.184000 1.692791 2.342000
3461 1 35.184000 0.000000 4.684000
3462 1 36.650000 2.539186 4.684000
3463 1 36.650000 4.231977 7.026000
3464 1 35.184000 1.692791 7.026000
3465 1 35.184000 0.000000 9.368000
3466 1 36.650000 2.539186 9.368000
3467 1 36.650000 4.231977 11.710000
3468 1 35.184000 1.692791 11.710000
3469 1 35.184000 0.000000 14.052000
3470 1 36.650000 2.539186 14.052000
3471 1 36.650000 4.231977 16.394000
3472 1 35.184000 1.692791 16.394000
3473 1 35.184000 0.000000 18.736000
3474 1 36.650000 2.539186 18.736000
3475 1 36.650000 4.231977 21.078000
3476 1 35.184000 1.692791 21.078000
3477 2 35.184000 0.000000 23.420000
3478 1 36.650000 2.539186 23.420000
3479 1 36.650000 4.231977 25.762000
3480 1 35.184000 1.692791 25.762000
3481 1 35.184000 0.000000 28.104000
3482 1 36.650000 2.539186 28.104000
3483 1 36.650000 4.231977 30.446000
3484 1 35.184000 1.692791 30.446000
3485 2 35.184000 0.000000 32.788000
3486 1 36.650000 2.539186 32.788000
3487 2 36.650000 4.231977 35.130000
3488 1 35.184000 1.692791 35.130000
3489 1 35.184000 0.000000 37.472000
3490 1 36.650000 2.539186 37.472000
3491 1 36.650000 4.231977 39.814000
3492 1 35.184000 1.692791 39.814000
3493 2 35.184000 5.078373 0.000000
3494 1 36.650000 7.617559 0.000000
3495 2 36.650000 9.310350 2.342000
3496 1 35.184000 6.771164 2.342000
3497 1 35.184000 5.078373 4.684000
3498 1 36.650000 7.617559 4.684000
3499 1 36.650000 9.310350 7.026000
3500 1 35.184000 6.771164 7.026000
3501 1 35.184000 5.078373 9.368000
3502 1 36.650000 7.617559 9.368000
3503 1 36.650000 9.310350 11.710000
3504 1 35.184000 6.771164 11.710000
3505 1 35.184000 5.078373 14.052000
3506 2 36.650000 7.617559 14.052000
3507 1 36.650000 9.310350 16.394000
3508 1 35.184000 6.771164 16.394000
3509 1 35.184000 5.078373 18.736000
3510 1 36.650000 7.617559 18.736000
3511 1 36.650000 9.310350 21.078000
3512 1 35.184000 6.771164 21.078000
3513 1 35.184000 5.078373 23.420000
3514 1 36.650000 7.617559 23.420000
3515 2 36.650000 9.310350 25.762000
3516 1 35.184000 6.771164 25.762000
3517 2 35.184000 5.078373 28.104000
3518 1 36.650000 7.617559 28.104000
3519 1 36.650000 9.310350 30.446000
3520 1 35.184000 6.771164 30.446000
3521 1 35.184000 5.078373 32.788000
3522 1 36.650000 7.617559 32.788000
3523 1 36.650000 9.310350 35.130000
3524 1 35.184000 6.771164 35.130000
3525 1 35.184000 5.078373 37.472000
3526 1 36.650000 7.617559 37.472000
3527 1 36.650000 9.310350 39.814000
3528 1 35.184000 6.771164 39.814000
3529 1 35.184000 10.156746 0.000000
3530 1 36.650000 12.695932 0.000000
3531 1 36.650000 14.388723 2.342000
3532 1 35.184000 11.849537 2.342000
3533 1 35.184000 10.156746 4.684000
3534 1 36.650000 12.695932 4.684000
3535 1 36.650000 14.388723 7.026000
3536 2 35.184000 11.849537 7.026000
3537 1 35.184000 10.156746 9.368000
3538 1 36.650000 12.695932 9.368000
3539 1 36.650000 14.388723 11.710000
3540 1 35.184000 11.849537 11.710000
3541 1 35.184000 10.156746 14.052000
3542 1 36.650000 12.695932 14.052000
3543 1 36.650000 14.388723 16.394000
3544 2 35.184000 11.849537 16.394000
3545 1 35.184000 10.156746 18.736000
3546 1 36.650000 12.695932 18.736000
3547 1 36.650000 14.388723 21.078000
3548 1 35.184000 11.849537 21.078000
3549 1 35.184000 10.156746 23.420000
3550 1 36.650000 12.695932 23.420000
3551 1 36.650000 14.388723 25.762000
3552 1 35.184000 11.849537 25.762000
3553 1 35.184000 10.156746 28.104000
3554 1 36.650000 12.695932 28.104000
3555 1 36.650000 14.388723 30.446000
3556 1 35.184000 11.849537 30.446000
3557 1 35.184000 10.156746 32.788000
3558 1 36.650000 12.695932 32.788000
3559 1 36.650000 14.388723 35.130000
3560 1 35.184000 11.849537 35.130000
3561 1 35.184000 10.156746 37.472000
3562 1 36.650000 12.695932 37.472000
3563 2 36.650000 14.388723 39.814000
3564 2 35.184000 11.849537 39.814000
3565 1 35.184000 15.235119 0.000000
3566 2 36.650000 17.774305 0.000000
3567 1 36.650000 19.467096 2.342000
3568 1 35.184000 16.927910 2.342000
3569 2 35.184000 15.235119 4.684000
3570 1 36.650000 17.774305 4.684000
3571 2 36.650000 19.467096 7.026000
3572 1 35.184000 16.927910 7.026000
3573 1 35.184000 15.235119 9.368000
3574 1 36.650000 17.774305 9.368000
3575 1 36.650000 19.467096 11.710000
3576 1 35.184000 16.927910 11.710000
3577 1 35.184000 15.235119 14.052000
3578 2 36.650000 17.774305 14.052000
3579 1 36.650000 19.467096 16.394000
3580 1 35.184000 16.927910 16.394000
3581 1 35.184000 15.235119 18.736000
3582 1 36.650000 17.774305 18.736000
3583 1 36.650000 19.467096 21.078000
3584 1 35.184000 16.927910 21.078000
3585 1 35.184000 15.235119 23.420000
3586 1 36.650000 17.774305 23.420000
3587 1 36.650000 19.467096 25.762000
3588 1 35.184000 16.927910 25.762000
3589 1 35.184000 15.235119 28.104000
3590 2 36.650000 17.774305 28.104000
3591 1 36.650000 19.467096 30.446000
3592 1 35.184000 16.927910 30.446000
3593 2 35.184000 15.235119 32.788000
3594 1 36.650000 17.774305 32.788000
3595 1 36.650000 19.467096 35.130000
3596 1 35.184000 16.927910 35.130000
3597 1 35.184000 15.235119 37.472000
3598 2 36.650000 17.774305 37.472000
3599 1 36.650000 19.467096 39.814000
3600 1 35.184000 16.927910 39.814000
3601 1 35.184000 20.313492 0.000000
3602 1 36.650000 22.852678 0.000000
3603 1 36.650000 24.545469 2.342000
3604 1 35.184000 22.006283 2.342000
3605 1 35.184000 20.313492 4.684000
3606 2 36.650000 22.852678 4.684000
3607 1 36.650000 24.545469 7.026000
3608 1 35.184000 22.006283 7.026000
3609 1 35.184000 20.313492 9.368000
3610 1 36.650000 22.852678 9.368000
3611 1 36.650000 24.545469 11.710000
3612 1 35.184000 22.006283 11.710000
3613 1 35.184000 20.313492 14.052000
3614 1 36.650000 22.852678 14.052000
3615 1 36.650000 24.545469 16.394000
3616 1 35.184000 22.006283 16.394000
3617 1 35.184000 20.313492 18.736000
3618 1 36.650000 22.852678 18.736000
3619 1 36.650000 24.545469 21.078000
3620 2 35.184000 22.006283 21.078000
3621 1 35.184000 20.313492 23.420000
3622 1 36.650000 22.852678 23.420000
3623 1 36.650000 24.545469 25.762000
3624 1 35.184000 22.006283 25.762000
3625 1 35.184000 20.313492 28.104000
3626 1 36.650000 22.852678 28.104000
3627 1 36.650000 24.545469 30.446000
3628 1 35.184000 22.006283 30.446000
3629 1 35.184000 20.313492 32.788000
3630 2 36.650000 22.852678 32.788000
3631 1 36.650000 24.545469 35.130000
3632 1 35.184000 22.006283 35.130000
3633 1 35.184000 20.313492 37.472000
3634 1 36.650000 22.852678 37.472000
3635 1 36.650000 24.545469 39.814000
3636 1 35.184000 22.006283 39.814000
3637 1 35.184000 25.391865 0.000000
3638 1 36.650000 27.931051 0.000000
3639 1 36.650000 29.623842 2.342000
3640 1 35.184000 27.084656 2.342000
3641 1 35.184000 25.391865 4.684000
3642 1 36.650000 27.931051 4.684000
3643 1 36.650000 29.623842 7.026000
3644 1 35.184000 27.084656 7.026000
3645 1 35.184000 25.391865 9.368000
3646 1 36.650000 27.931051 9.368000
3647 1 36.650000 29.623842 11.710000
3648 1 35.184000 27.084656 11.710000
3649 1 35.184000 25.391865 14.052000
3650 2 36.650000 27.931051 14.052000
3651 1 36.650000 29.623842 16.394000
3652 1 35.184000 27.084656 16.394000
3653 1 35.184000 25.391865 18.736000
3654 2 36.650000 27.931051 18.736000
3655 1 36.650000 29.623842 21.078000
3656 1 35.184000 27.084656 21.078000
3657 1 35.184000 25.391865 23.420000
3658 1 36.650000 27.931051 23.420000
3659 1 36.650000 29.623842 25.762000
3660 1 35.184000 27.084656 25.762000
3661 1 35.184000 25.391865 28.104000
3662 2 36.650000 27.931051 28.104000
3663 1 36.650000 29.623842 30.446000
3664 1 35.184000 27.084656 30.446000
3665 1 35.184000 25.391865 32.788000
3666 1 36.650000 27.931051 32.788000
3667 1 36.650000 29.623842 35.130000
3668 1 35.184000 27.084656 35.130000
3669 1 35.184000 25.391865 37.472000
3670 2 36.650000 27.931051 37.472000
3671 1 36.650000 29.623842 39.814000
3672 2 35.184000 27.084656 39.814000
3673 1 35.184000 30.470238 0.000000
3674 1 36.650000 33.009424 0.000000
3675 2 36.650000 34.702215 2.342000
3676 1 35.184000 32.163029 2.342000
3677 1 35.184000 30.470238 4.684000
3678 1 36.650000 33.009424 4.684000
3679 1 36.650000 34.702215 7.026000
3680 1 35.184000 32.163029 7.026000
3681 1 35.184000 30.470238 9.368000
3682 1 36.650000 33.009424 9.368000
3683 1 36.650000 34.702215 11.710000
3684 1 35.184000 32.163029 11.710000
3685 1 35.184000 30.470238 14.052000
3686 1 36.650000 33.009424 14.052000
3687 1 36.650000 34.702215 16.394000
3688 1 35.184000 32.163029 16.394000
3689 1 35.184000 30.470238 18.736000
3690 1 36.650000 33.009424 18.736000
3691 1 36.650000 34.702215 21.078000
3692 1 35.184000 32.163029 21.078000
3693 1 35.184000 30.470238 23.420000
3694 2 36.650000 33.009424 23.420000
3695 1 36.650000 34.702215 25.762000
3696 1 35.184000 32.163029 25.762000
3697 1 35.184000 30.470238 28.104000
3698 2 36.650000 33.009424 28.104000
3699 1 36.650000 34.702215 30.446000
3700 1 35.184000 32.163029 30.446000
3701 2 35.184000 30.470238 32.788000
3702 1 36.650000 33.009424 32.788000
3703 1 36.650000 34.702215 35.130000
3704 1 35.184000 32.163029 35.130000
3705 1 35.184000 30.470238 37.472000
3706 1 36.650000 33.009424 37.472000
3707 2 36.650000 34.702215 39.814000
3708 1 35.184000 32.163029 39.814000
3709 1 35.184000 35.548611 0.000000
3710 1 36.650000 38.087797 0.000000
3711 1 36.650000 39.780588 2.342000
3712 1 35.184000 37.241402 2.342000
3713 1 35.184000 35.548611 4.684000
3714 2 36.650000 38.087797 4.684000
3715 1 36.650000 39.780588 7.026000
3716 1 35.184000 37.241402 7.026000
3717 1 35.184000 35.548611 9.368000
3718 1 36.650000 38.087797 9.368000
3719 2 36.650000 39.780588 11.710000
3720 1 35.184000 37.241402 11.710000
3721 2 35.184000 35.548611 14.052000
3722 1 36.650000 38.087797 14.052000
3723 1 36.650000 39.780588 16.394000
3724 1 35.184000 37.241402 16.394000
3725 1 35.184000 35.548611 18.736000
3726 1 36.650000 38.087797 18.736000
3727 1 36.650000 39.780588 21.078000
3728 2 35.184000 37.241402 21.078000
3729 1 35.184000 35.548611 23.420000
3730 1 36.650000 38.087797 23.420000
3731 1 36.650000 39.780588 25.762000
3732 1 35.184000 37.241402 25.762000
3733 1 35.184000 35.548611 28.104000
3734 2 36.650000 38.087797 28.104000
3735 1 36.650000 39.780588 30.446000
3736 1 35.184000 37.241402 30.446000
3737 1 35.184000 35.548611 32.788000
3738 1 36.650000 38.087797 32.788000
3739 1 36.650000 39.780588 35.130000
3740 1 35.184000 37.241402 35.130000
3741 1 35.184000 35.548611 37.472000
3742 1 36.650000 38.087797 37.472000
3743 1 36.650000 39.780588 39.814000
3744 1 35.184000 37.241402 39.814000
3745 1 38.116000 0.000000 0.000000
3746 1 39.582000 2.539186 0.000000
3747 1 39.582000 4.231977 2.342000
3748 2 38.116000 1.692791 2.342000
3749 1 38.116000 0.000000 4.684000
3750 1 39.582000 2.539186 4.684000
3751 1 39.582000 4.231977 7.026000
3752 1 38.116000 1.692791 7.026000
3753 1 38.116000 0.000000 9.368000
3754 1 39.582000 2.539186 9.368000
3755 1 39.582000 4.231977 11.710000
3756 1 38.116000 1.692791 11.710000
3757 1 38.116000 0.000000 14.052000
3758 1 39.582000 2.539186 14.052000
3759 1 39.582000 4.231977 16.394000
3760 1 38.116000 1.692791 16.394000
3761 1 38.116000 0.000000 18.736000
3762 1 39.582000 2.539186 18.736000
3763 1 39.582000 4.231977 21.078000
3764 1 38.116000 1.692791 21.078000
3765 1 38.116000 0.000000 23.420000
3766 1 39.582000 2.539186 23.420000
3767 1 39.582000 4.231977 25.762000
3768 2 38.116000 1.692791 25.762000
3769 1 38.116000 0.000000 28.104000
3770 1 39.582000 2.539186 28.104000
3771 1 39.582000 4.231977 30.446000
3772 2 38.116000 1.692791 30.446000
3773 1 38.116000 0.000000 32.788000
3774 1 39.582000 2.539186 32.788000
3775 1 39.582000 4.231977 35.130000
3776 1 38.116000 1.692791 35.130000
3777 1 38.116000 0.000000 37.472000
3778 1 39.582000 2.539186 37.472000
3779 1 39.582000 4.231977 39.814000
3780 1 38.116000 1.692791 39.814000
3781 1 38.116000 5.078373 0.000000
3782 1 39.582000 7.617559 0.000000
3783 1 39.582000 9.310350 2.342000
3784 1 38.116000 6.771164 2.342000
3785 1 38.116000 5.078373 4.684000
3786 1 39.582000 7.617559 4.684000
3787 2 39.582000 9.310350 7.026000
3788 1 38.116000 6.771164 7.026000
3789 1 38.116000 5.078373 9.368000
3790 1 39.582000 7.617559 9.368000
3791 2 39.582000 9.310350 11.710000
3792 1 38.116000 6.771164 11.710000
3793 1 38.116000 5.078373 14.052000
3794 1 39.582000 7.617559 14.052000
3795 1 39.582000 9.310350 16.394000
3796 1 38.116000 6.771164 16.394000
3797 2 38.116000 5.078373 18.736000
3798 1 39.582000 7.617559 18.736000
3799 1 39.582000 9.310350 21.078000
3800 1 38.116000 6.771164 21.078000
3801 1 38.116000 5.078373 23.420000
3802 1 39.582000 7.617559 23.420000
3803 1 39.582000 9.310350 25.762000
3804 1 38.116000 6.771164 25.762000
3805 1 38.116000 5.078373 28.104000
3806 1 39.582000 7.617559 28.104000
3807 1 39.582000 9.310350 30.446000
3808 1 38.116000 6.771164 30.446000
3809 1 38.116000 5.078373 32.788000
3810 1 39.582000 7.617559 32.788000
3811 1 39.582000 9.310350 35.130000
3812 2 38.116000 6.771164 35.130000
3813 1 38.116000 5.078373 37.472000
3814 1 39.582000 7.617559 37.472000
3815 1 39.582000 9.310350 39.814000
3816 1 38.116000 6.771164 39.814000
3817 1 38.116000 10.156746 0.000000
3818 1 39.582000 12.695932 0.000000
3819 1 39.582000 14.388723 2.342000
3820 1 38.116000 11.849537 2.342000
3821 1 38.116000 10.156746 4.684000
3822 1 39.582000 12.695932 4.684000
3823 1 39.582000 14.388723 7.026000
3824 1 38.116000 11.849537 7.026000
3825 1 38.116000 10.156746 9.368000
3826 2 39.582000 12.695932 9.368000
3827 1 39.582000 14.388723 11.710000
3828 1 38.116000 11.849537 11.710000
3829 1 38.116000 10.156746 14.052000
3830 2 39.582000 12.695932 14.052000
3831 1 39.582000 14.388723 16.394000
3832 1 38.116000 11.849537 16.394000
3833 1 38.116000 10.156746 18.736000
3834 1 39.582000 12.695932 18.736000
3835 1 39.582000 14.388723 21.078000
3836 2 38.116000 11.849537 21.078000
3837 1 38.116000 10.156746 23.420000
3838 1 39.582000 12.695932 23.420000
3839 1 39.582000 14.388723 25.762000
3840 2 38.116000 11.849537 25.762000
3841 1 38.116000 10.156746 28.104000
3842 1 39.582000 12.695932 28.104000
3843 1 39.582000 14.388723 30.446000
3844 2 38.116000 11.849537 30.446000
3845 1 38.116000 10.156746 32.788000
3846 1 39.582000 12.695932 32.788000
3847 1 39.582000 14.388723 35.130000
3848 2 38.116000 11.849537 35.130000
3849 1 38.116000 10.156746 37.472000
3850 1 39.582000 12.695932 37.472000
3851 1 39.582000 14.388723 39.814000
3852 1 38.116000 11.849537 39.814000
3853 1 38.116000 15.235119 0.000000
3854 1 39.582000 17.774305 0.000000
3855 1 39.582000 19.467096 2.342000
3856 1 38.116000 16.927910 2.342000
3857 1 38.116000 15.235119 4.684000
3858 1 39.582000 17.774305 4.684000
3859 1 39.582000 19.467096 7.026000
3860 1 38.116000 16.927910 7.026000
3861 1 38.116000 15.235119 9.368000
3862 1 39.582000 17.774305 9.368000
3863 2 39.582000 19.467096 11.710000
3864 1 38.116000 16.927910 11.710000
3865 1 38.116000 15.235119 14.052000
3866 1 39.582000 17.774305 14.052000
3867 2 39.582000 19.467096 16.394000
3868 1 38.116000 16.927910 16.394000
3869 1 38.116000 15.235119 18.736000
3870 1 39.582000 17.774305 18.736000
3871 1 39.582000 19.467096 21.078000
3872 1 38.116000 16.927910 21.078000
3873 1 38.116000 15.235119 23.420000
3874 1 39.582000 17.774305 23.420000
3875 1 39.582000 19.467096 25.762000
3876 1 38.116000 16.927910 25.762000
3877 1 38.116000 15.235119 28.104000
3878 1 39.582000 17.774305 28.104000
3879 1 39.582000 19.467096 30.446000
3880 1 38.116000 16.927910 30.446000
3881 1 38.116000 15.235119 32.788000
3882 1 39.582000 17.774305 32.788000
3883 1 39.582000 19.467096 35.130000
3884 1 38.116000 16.927910 35.130000
3885 1 38.116000 15.235119 37.472000
3886 1 39.582000 17.774305 37.472000
3887 1 39.582000 19.467096 39.814000
3888 1 38.116000 16.927910 39.814000
3889 1 38.116000 20.313492 0.000000
3890 1 39.582000 22.852678 0.000000
3891 1 39.582000 24.545469 2.342000
3892 1 38.116000 22.006283 2.342000
3893 1 38.116000 20.313492 4.684000
3894 1 39.582000 22.852678 4.684000
3895 1 39.582000 24.545469 7.026000
3896 1 38.116000 22.006283 7.026000
3897 1 38.116000 20.313492 9.368000
3898 1 39.582000 22.852678 9.368000
3899 1 39.582000 24.545469 11.710000
3900 1 38.116000 22.006283 11.710000
3901 1 38.116000 20.313492 14.052000
3902 1 39.582000 22.852678 14.052000
3903 1 39.582000 24.545469 16.394000
3904 1 38.116000 22.006283 16.394000
3905 1 38.116000 20.313492 18.736000
3906 2 39.582000 22.852678 18.736000
3907 1 39.582000 24.545469 21.078000
3908 1 38.116000 22.006283 21.078000
3909 1 38.116000 20.313492 23.420000
3910 1 39.582000 22.852678 23.420000
3911 1 39.582000 24.545469 25.762000
3912 2 38.116000 22.006283 25.762000
3913 1 38.116000 20.313492 28.104000
3914 1 39.582000 22.852678 28.104000
3915 1 39.582000 24.545469 30.446000
3916 1 38.116000 22.006283 30.446000
3917 1 38.116000 20.313492 32.788000
3918 1 39.582000 22.852678 32.788000
3919 1 39.582000 24.545469 35.130000
3920 1 38.116000 22.006283 35.130000
3921 1 38.116000 20.313492 37.472000
3922 1 39.582000 22.852678 37.472000
3923 2 39.582000 24.545469 39.814000
3924 1 38.116000 22.006283 39.814000
3925 1 38.116000 25.391865 0.000000
3926 2 39.582000 27.931051 0.000000
3927 1 39.582000 29.623842 2.342000
3928 1 38.116000 27.084656 2.342000
3929 1 38.116000 25.391865 4.684000
3930 1 39.582000 27.931051 4.684000
3931 2 39.582000 29.623842 7.026000
3932 2 38.116000 27.084656 7.026000
3933 1 38.116000 25.391865 9.368000
3934 1 39.582000 27.931051 9.368000
3935 2 39.582000 29.623842 11.710000
3936 1 38.116000 27.084656 11.710000
3937 1 38.116000 25.391865 14.052000
3938 1 39.582000 27.931051 14.052000
3939 2 39.582000 29.623842 16.394000
3940 1 38.116000 27.084656 16.394000
3941 1 38.116000 25.391865 18.736000
3942 1 39.582000 27.931051 18.736000
3943 2 39.582000 29.623842 21.078000
3944 1 38.116000 27.084656 21.078000
3945 1 38.116000 25.391865 23.420000
3946 1 39.582000 27.931051 23.420000
3947 1 39.582000 29.623842 25.762000
3948 1 38.116000 27.084656 25.762000
3949 1 38.116000 25.391865 28.104000
3950 1 39.582000 27.931051 28.104000
3951 1 39.582000 29.623842 30.446000
3952 1 38.116000 27.084656 30.446000
3953 1 38.116000 25.391865 32.788000
3954 1 39.582000 27.931051 32.788000
3955 1 39.582000 29.623842 35.130000
3956 1 38.116000 27.084656 35.130000
3957 1 38.116000 25.391865 37.472000
3958 1 39.582000 27.931051 37.472000
3959 1 39.582000 29.623842 39.814000
3960 1 38.116000 27.084656 39.814000
3961 1 38.116000 30.470238 0.000000
3962 1 39.582000 33.009424 0.000000
3963 1 39.582000 34.702215 2.342000
3964 2 38.116000 32.163029 2.342000
3965 1 38.116000 30.470238 4.684000
3966 1 39.582000 33.009424 4.684000
3967 1 39.582000 34.702215 7.026000
3968 1 38.116000 32.163029 7.026000
3969 1 38.116000 30.470238 9.368000
3970 1 39.582000 33.009424 9.368000
3971 1 39.582000 34.702215 11.710000
3972 1 38.116000 32.163029 11.710000
3973 1 38.116000 30.470238 14.052000
3974 1 39.582000 33.009424 14.052000
3975 1 39.582000 34.702215 16.394000
3976 1 38.116000 32.163029 16.394000
3977 1 38.116000 30.470238 18.736000
3978 1 39.582000 33.009424 18.736000
3979 1 39.582000 34.702215 21.078000
3980 1 38.116000 32.163029 21.078000
3981 1 38.116000 30.470238 23.420000
3982 1 39.582000 33.009424 23.420000
3983 2 39.582000 34.702215 25.762000
3984 1 38.116000 32.163029 25.762000
3985 1 38.116000 30.470238 28.104000
3986 1 39.582000 33.009424 28.104000
3987 2 39.582000 34.702215 30.446000
3988 1 38.116000 32.163029 30.446000
3989 1 38.116000 30.470238 32.788000
3990 1 39.582000 33.009424 32.788000
3991 1 39.582000 34.702215 35.130000
3992 1 38.116000 32.163029 35.130000
3993 1 38.116000 30.470238 37.472000
3994 2 39.582000 33.009424 37.472000
3995 1 39.582000 34.702215 39.814000
3996 1 38.116000 32.163029 39.814000
3997 1 38.116000 35.548611 0.000000
3998 1 39.582000 38.087797 0.000000
3999 1 39.582000 39.780588 2.342000
4000 1 38.116000 37.241402 2.342000
4001 1 38.116000 35.548611 4.684000
4002 1 39.582000 38.087797 4.684000
4003 1 39.582000 39.780588 7.026000
4004 1 38.116000 37.241402 7.026000
4005 1 38.116000 35.548611 9.368000
4006 1 39.582000 38.087797 9.368000
4007 1 39.582000 39.780588 11.710000
4008 1 38.116000 37.241402 11.710000
4009 1 38.116000 35.548611 14.052000
4010 1 39.582000 38.087797 14.052000
4011 1 39.582000 39.780588 16.394000
4012 1 38.116000 37.241402 16.394000
4013 1 38.116000 35.548611 18.736000
4014 1 39.582000 38.087797 18.736000
4015 1 39.582000 39.780588 21.078000
4016 1 38.116000 37.241402 21.078000
4017 1 38.116000 35.548611 23.420000
4018 2 39.582000 38.087797 23.420000
4019 1 39.582000 39.780588 25.762000
4020 1 38.116000 37.241402 25.762000
4021 1 38.116000 35.548611 28.104000
4022 1 39.582000 38.087797 28.104000
4023 1 39.582000 39.780588 30.446000
4024 1 38.116000 37.241402 30.446000
4025 1 38.116000 35.548611 32.788000
4026 2 39.582000 38.087797 32.788000
4027 1 39.582000 39.780588 35.130000
4028 1 38.116000 37.241402 35.130000
4029 1 38.116000 35.548611 37.472000
4030 1 39.582000 38.087797 37.472000
4031 1 39.582000 39.780588 39.814000
4032 1 38.116000 37.241402 39.814000
