LAMMPS data file via write_data, version 22 Jul 2025, timestep = 15000, units = metal

4032 atoms
2 atom types

-3.102186750527061 44.15018675052754 xlo xhi
2.211443997248196 38.41554000274988 ylo yhi
0.7076652927234655 41.44833470727745 zlo zhi

Masses

1 47.88
2 26.982

Atoms # atomic

614 1 5.3317907335294095 8.538059272736671 0.7129262489943153 0 0 0
292 1 0.19540908716941896 4.0333378244885205 2.9683016733261365 0 0 0
1225 1 10.42920434473363 10.769634912264035 0.785348517521665 0 0 0
580 2 3.7507288359639754 3.921269140909016 3.135035703442444 0 0 0
145 1 -3.020898966660773 19.894989150189343 0.8622297701573609 0 0 0
868 1 7.088374392359864 4.141733206197893 2.863082529266134 0 0 0
578 1 5.32587105995664 4.024431412769569 0.7102149548805132 0 0 0
1156 1 10.495174195393275 4.002457602255237 2.931670278847026 0 0 0
3 1 -1.5604798624066754 6.354701113194381 3.2209366484516098 0 0 0
291 1 2.2235006041611203 6.295830231986915 3.0644012337228492 0 0 0
1267 1 12.091038359959677 19.966715856826546 7.7025836376673515 0 0 0
579 1 5.169904617657872 6.197052916619798 3.044049878702694 0 0 0
1301 1 10.440165635150706 20.039491243242757 5.338091606222311 0 0 0
867 2 8.809129285266202 6.349433095430534 2.8532303704368647 0 0 0
978 1 8.92067424005785 17.67529635132747 5.206020075593046 0 0 0
1155 1 12.287019580907636 6.234618117225999 3.1417559313988135 0 0 0
980 1 7.12476845290548 17.53237603354426 7.300076863977499 0 0 0
1013 2 6.973045170571892 19.797776804079724 5.274817740107328 0 0 0
39 1 -1.336530824650577 10.726258462852337 2.989300620801376 0 0 0
76 1 -2.8734956592758016 13.280265472278076 3.1490103875335365 0 0 0
649 1 3.6866158315283877 10.853036717445269 0.7575596231268275 0 0 0
328 1 0.46294109877795675 8.554384656661153 3.1901052914899135 0 0 0
327 1 1.8720620706918996 10.96708549466803 2.983662877949617 0 0 0
616 2 3.7144457808445135 8.689819783093537 3.006387710295255 0 0 0
615 1 5.546597404993033 10.783964248958146 3.0873624829286155 0 0 0
904 1 6.921868126826146 8.422248299454383 2.9269625867288993 0 0 0
903 1 8.726815569491695 10.720077632459025 3.0858431623370413 0 0 0
979 1 8.658234292332738 19.98324672925867 7.536632256359766 0 0 0
1192 1 10.57249851000537 8.485300178853489 2.9199612603265535 0 0 0
1191 1 12.038454178377933 10.858319661230944 2.8380103398610075 0 0 0
80 1 -2.9842261714293747 13.128426888660844 7.662693632844901 0 0 0
973 1 6.976939136066145 15.393600809839036 0.7348033633007451 0 0 0
364 2 0.1418354271447826 13.014224283616954 3.0033217836876767 0 0 0
901 1 6.932058424024813 6.319935805463768 0.7485694732673066 0 0 0
652 1 3.7775540719741847 13.111427370454352 3.0726165051413914 0 0 0
940 1 7.195580421326039 13.110072697609043 3.034188463801749 0 0 0
1228 2 10.281316613311494 13.183214854962678 3.0289114497968703 0 0 0
75 1 -1.3449364020897012 15.515245659093802 2.989229251326583 0 0 0
363 1 1.7551481073835027 15.297028055305768 2.983859074059722 0 0 0
651 1 5.479199678906868 15.405032489935968 2.954896745506187 0 0 0
939 1 8.828060737776894 15.47284017610014 2.9204202677762545 0 0 0
1227 1 12.012977349167222 15.401571843521237 3.128451267543362 0 0 0
111 1 -1.3698250726350751 20.11884271197781 3.055871244558379 0 0 0
400 1 0.37400545511463124 17.642649743833456 3.0741688248557817 0 0 0
399 1 1.8956168906115196 19.912400349503176 3.046812164440709 0 0 0
725 1 3.6925192038889114 19.781925515415814 5.305314814279234 0 0 0
688 2 3.5540857737668046 17.513038582596167 3.0747666335851203 0 0 0
687 1 5.22990430293294 19.79452346062103 3.0320590918614285 0 0 0
692 1 3.505540635799275 17.544316190339032 7.481861015066219 0 0 0
1009 2 6.985878229770284 19.828536554477118 0.8613494590941527 0 0 0
976 1 7.090888710629969 17.717866792543013 3.159817523679076 0 0 0
975 1 8.762059609847096 19.966595669934875 3.128232037924451 0 0 0
1264 1 10.380038302798528 17.795286522398566 2.980081064173975 0 0 0
1263 1 12.240547993438271 19.88862872144145 2.9088928947846076 0 0 0
6 1 -1.2897628734519992 4.202537949365991 5.295923511443647 0 0 0
296 1 0.4491457248284232 3.921910139739534 7.497628004425346 0 0 0
294 1 1.8897431778147538 3.9670835836527982 5.168879309050439 0 0 0
584 1 3.528568211522486 4.080365670202896 7.53400865134877 0 0 0
582 1 5.516603328653137 3.9452319164903065 5.385273564314569 0 0 0
872 1 7.197917925672078 3.829577373411718 7.605971181265453 0 0 0
870 1 8.822128576337784 4.036530401062815 5.213338072029196 0 0 0
1160 1 10.414671324698853 4.196695893454849 7.550525028140884 0 0 0
1158 1 12.02753442515008 3.968978582260886 5.323646963274652 0 0 0
8 1 -2.9306121432990793 4.266471600483848 7.517379040784523 0 0 0
7 1 -0.9863331324462723 6.355334397684422 7.501455377279521 0 0 0
329 1 0.5069590068637901 6.425493262574926 5.1416962351518825 0 0 0
295 2 1.913284501215505 6.394122864227772 7.515102634422934 0 0 0
617 1 3.7040526739480373 6.195810634866087 5.321740614177435 0 0 0
583 1 5.575306305691161 6.13421106433675 7.554782732126317 0 0 0
905 1 7.033573235125855 6.298765573926608 5.14040680819886 0 0 0
871 1 8.83388210172206 6.366275924837134 7.51144163023879 0 0 0
1159 1 12.284889601193996 6.395083391199532 7.619428500426106 0 0 0
1193 1 10.582355517942581 6.192754065282349 5.239224400377188 0 0 0
1266 1 12.215827700166221 17.727993756304734 5.069659091001056 0 0 0
42 1 -1.459853690750166 8.520538647559295 5.259421495659558 0 0 0
43 1 -1.5728272110729509 10.772914953954402 7.566107549646239 0 0 0
332 1 0.34368438062737106 8.739184688427773 7.454784466330483 0 0 0
330 1 2.263013324445406 8.609393553096393 5.391793322976421 0 0 0
331 1 2.191625142744708 10.812370422793459 7.558029478818481 0 0 0
365 1 0.3302401967895152 10.715658076088593 5.192090480603511 0 0 0
620 2 3.832527818199616 8.322967720739555 7.755739461728745 0 0 0
618 1 5.238025400648539 8.593374370145312 5.32950558528288 0 0 0
619 1 5.201973417907354 10.73899423150635 7.504455662008433 0 0 0
653 2 3.6453991073531715 10.99453889567629 5.187888637209194 0 0 0
908 1 7.176590931135522 8.468475809200452 7.384370383346298 0 0 0
907 1 8.852119793044364 10.875300950143082 7.498657647411567 0 0 0
906 1 8.877369301617536 8.392201370015108 5.190708557152081 0 0 0
941 1 7.145161511549473 10.615633048990533 5.4169954263579365 0 0 0
1196 1 10.604195398305158 8.47313212590636 7.517182104417632 0 0 0
1195 1 12.212778730385905 10.796897308113529 7.5476784049239845 0 0 0
1229 1 10.447947301671213 10.749598057001533 5.2834288894923125 0 0 0
1194 1 12.301453327966849 8.530036394405663 5.2658768130352245 0 0 0
1268 1 10.516121459913252 17.752908635611497 7.485205130505646 0 0 0
78 1 -1.4133602637215992 13.041291504367587 5.403604465269927 0 0 0
368 1 0.33831979209995433 13.022200604615708 7.575609979358037 0 0 0
366 1 1.820060800783565 13.143107175696104 5.218986200581146 0 0 0
656 1 3.461348888444952 13.062766356426014 7.5782857639232075 0 0 0
654 1 5.579028576579246 13.072983385068303 5.3755779476159455 0 0 0
944 1 7.106708842381201 13.137178909568526 7.522466701602704 0 0 0
942 1 8.817788529407201 12.960601893414534 5.350791988198955 0 0 0
1230 1 12.156821335705606 13.255771058077604 5.318744415023037 0 0 0
1232 1 10.569791957091779 13.097752940758811 7.387311973837505 0 0 0
79 1 -1.419161618239482 15.246592212280335 7.698757510514553 0 0 0
401 1 0.20469738222048672 15.414606942204937 5.255101321938756 0 0 0
367 1 1.972226834446635 15.2603533279172 7.64410930491848 0 0 0
655 1 5.3243879589738885 15.243456814487981 7.415565648995178 0 0 0
689 1 3.669696663652068 15.311261215364118 5.1598012698805995 0 0 0
977 2 7.1377274505591135 15.3211106112485 5.271749927414525 0 0 0
943 1 8.913908264169658 15.364182424792613 7.59722236429873 0 0 0
1265 1 10.35503881103364 15.357969463282098 5.207504612418166 0 0 0
1231 1 12.117553074818758 15.423474805686178 7.375267672378634 0 0 0
114 1 -1.5517977846674618 17.505430853176215 5.351396098309439 0 0 0
115 1 -1.5558303682722008 19.902629948746387 7.603742486381499 0 0 0
404 1 0.3202832725753155 17.69436274082385 7.539061001833501 0 0 0
437 1 0.1330826639057574 19.964867040057044 5.297341039328379 0 0 0
402 1 1.927622405309363 17.721060438760816 5.352274881317367 0 0 0
403 2 2.040847132131639 19.891995367475992 7.478384621521615 0 0 0
691 1 5.438505571767482 19.81788558506127 7.523168226687527 0 0 0
690 1 5.318458345458705 17.52288484221584 5.195184234657887 0 0 0
433 1 0.2897509819465953 19.999600571607722 0.8210274275589863 0 0 0
685 1 3.6597714270925636 15.146445729185064 0.9072012599848809 0 0 0
937 1 7.081294142199678 10.910555069621307 0.8114416489967822 0 0 0
290 1 1.9830944719155874 4.137907626723879 0.7820510874121372 0 0 0
902 1 8.75638350895418 8.622189195607422 0.7302722323788889 0 0 0
116 1 -3.089485588144589 17.535736931623564 7.636297847288887 0 0 0
721 1 3.6381019542519053 20.00432672694045 0.7186349108793859 0 0 0
112 2 -3.0294440140506227 17.936938528722035 2.99909318987461 0 0 0
44 1 -3.024744636679268 8.401854730852593 7.4954316138469865 0 0 0
325 1 0.27493207000415687 6.352483631736863 1.0320279520827753 0 0 0
77 1 -3.075757311636163 10.72096554922398 5.242203501822873 0 0 0
686 1 5.154529669185141 17.633611868327087 0.7744893516846361 0 0 0
362 1 1.9298274588793016 12.959588317155012 0.8006775575623698 0 0 0
38 2 -1.3594747998328816 8.605889100059159 0.8130820804656653 0 0 0
110 1 -1.3381137457493455 17.622959833567663 0.7611000084338421 0 0 0
2 1 -1.471359391508803 4.097729172103532 0.7656682348763013 0 0 0
109 1 -3.0937464725746517 15.353181265712339 0.7888801281051059 0 0 0
73 1 -2.9770130940095503 10.705955802554225 0.8534747953353019 0 0 0
10 1 -1.2787080798974488 4.116245790199619 9.839781145440208 0 0 0
300 1 0.5003630259717671 3.871290798593968 12.157967727401221 0 0 0
298 1 2.126658850581592 4.0796194228597935 9.860222246733166 0 0 0
588 1 3.7385088002717475 4.052909235644779 12.033745291229367 0 0 0
586 2 5.372210791099027 3.996972368354662 9.673027009726622 0 0 0
876 1 7.027260215013813 4.219633722303359 12.127303047071821 0 0 0
874 1 8.711156484374063 4.012859771582621 9.798450527346953 0 0 0
1164 1 10.498237066804316 4.111272578584206 12.010624044621022 0 0 0
1162 1 12.220892704551824 4.089356981684326 9.777304934735044 0 0 0
11 2 -1.4388610593757036 6.113517314084024 12.032482204491496 0 0 0
333 1 0.43785519385887683 6.248106282270288 9.96100129968639 0 0 0
299 1 2.1323339579519085 6.429525506083292 12.079779765810205 0 0 0
621 1 3.782623730509838 6.396118829883312 9.717650620657894 0 0 0
587 1 5.225713335748422 6.419732198843711 12.016211347410215 0 0 0
909 1 7.050284383879973 6.308611283689005 9.83021692312501 0 0 0
875 1 9.016854419873802 6.4245460044677385 12.109982975350393 0 0 0
1197 1 10.55087230768881 6.485713286628574 9.86075391247926 0 0 0
1163 1 12.386538085558191 6.3277675829608055 11.9818436138565 0 0 0
46 1 -1.4054090287040122 8.589635057013243 9.695977278656555 0 0 0
47 1 -1.3258968210578368 10.74169049221728 12.167959239175179 0 0 0
84 1 -2.9634656615061674 13.082883404206425 12.136587518582795 0 0 0
88 1 -3.0669285659644063 13.147327662871922 16.550767297506425 0 0 0
336 1 0.17962948341217944 8.468381313212149 12.104420013663386 0 0 0
334 1 1.8458628069274332 8.602289603131627 9.889283838302982 0 0 0
335 1 1.7523010379754944 10.813118043003298 12.06881874762249 0 0 0
369 2 0.15611687504568383 10.778200481349556 9.66962022079839 0 0 0
624 2 3.484738973581631 8.796529073397764 12.066421698508723 0 0 0
622 1 5.427678440856221 8.672355083875225 9.916095492901547 0 0 0
623 1 5.437876382709126 10.818763823883053 12.066459185747696 0 0 0
657 1 3.748898264780372 10.72373607548257 10.080857165234969 0 0 0
912 2 7.18633843320147 8.553964685161088 12.089436770770048 0 0 0
945 1 7.175524268812747 10.947101176737982 9.699532659984348 0 0 0
911 1 8.753058258744462 10.81259687069454 11.966652675156645 0 0 0
910 1 8.838337553161272 8.472679864301977 9.7445062617243 0 0 0
1200 1 10.655503510844268 8.74313628113438 11.937719551499436 0 0 0
1198 2 12.24936452449767 8.677768956554658 9.703256709826443 0 0 0
1199 1 12.31535934593113 11.089777329900427 11.88674710692379 0 0 0
1233 1 10.423486894551576 10.951361035068857 9.804572793483878 0 0 0
82 1 -1.4060337053133731 12.995766277711816 9.9025814992218 0 0 0
372 1 0.21492893649877054 13.125573528490905 12.187068291143357 0 0 0
370 1 2.0612012189579594 12.992227974714307 9.838527254909158 0 0 0
660 2 3.714052068449473 12.92066420285149 12.108251491523566 0 0 0
658 1 5.2685157842347206 13.103891415701847 9.758294718914046 0 0 0
948 1 7.104796531867439 13.188166413596473 11.941054589973188 0 0 0
946 1 8.829119181552944 13.271614685392388 9.798292801610241 0 0 0
1234 2 12.12525318349583 13.082238793436552 9.885045903786702 0 0 0
1236 1 10.246992620499855 13.145239557878465 12.023991192369067 0 0 0
83 1 -1.2960716394628926 15.451958280717028 12.25711490617272 0 0 0
405 1 0.3191052326935866 15.394672118447303 9.909087148794029 0 0 0
371 1 2.007296719065008 15.35037583880853 12.095876623025312 0 0 0
693 1 3.6180078221460286 15.384523659845682 9.824497613002576 0 0 0
659 1 5.334889597060641 15.304017285837562 12.073323719768283 0 0 0
981 1 6.933780744544338 15.351159190014853 9.870707374992906 0 0 0
947 2 8.7188158207882 15.476156828307566 11.966624737765496 0 0 0
1235 1 12.154023196078839 15.392425697482658 12.072481638995443 0 0 0
1269 1 10.615515120159069 15.51947465102762 9.791872970671765 0 0 0
118 2 -1.2389188029199711 17.627602138361155 9.806417378936946 0 0 0
119 1 -1.3796858545158386 19.896875872368962 11.879686061213985 0 0 0
1275 1 12.168744907498057 19.8809825947651 16.54683960920955 0 0 0
408 1 0.34003940745249706 17.54323305855229 12.066129473032209 0 0 0
406 1 1.9214189576289251 17.664314301633034 9.838204053275234 0 0 0
407 2 2.06310746935274 19.82555951609632 12.090113825408023 0 0 0
441 1 0.5296778296591294 19.94718379106656 9.737869637811393 0 0 0
696 1 3.7360571578766684 17.607125982095994 11.983608118996282 0 0 0
694 1 5.284939388690162 17.70703498034104 9.660100271302115 0 0 0
695 1 5.412988832135845 19.975017947195862 11.976228879434691 0 0 0
729 1 3.6174221531370514 19.836251658907052 9.812144338575303 0 0 0
1017 1 7.092016803915142 19.97244150329256 9.877553250449054 0 0 0
984 1 6.995633617913802 17.47349904127855 11.941081580584065 0 0 0
983 1 8.781268831345812 19.926422535027612 12.05695986801468 0 0 0
982 1 8.655246953294748 17.57525515402393 9.77679447010604 0 0 0
1272 1 10.488372949761695 17.76996729341151 11.867132552510938 0 0 0
1270 2 12.085464822721365 17.879506616663996 9.796263298734079 0 0 0
1271 1 12.168836971769831 19.997260884408384 11.958925804523865 0 0 0
1305 1 10.281921643521658 19.922940351021538 9.769618657122633 0 0 0
14 1 -1.4182205622648012 3.9996467570303067 14.326945955843678 0 0 0
304 1 0.19401531458638166 3.996524562944892 16.578480208342146 0 0 0
302 1 2.0834443899137542 4.028023477191011 14.38324236894948 0 0 0
592 2 3.7568312358957816 4.028803148863912 16.640556136244207 0 0 0
590 1 5.371122513848039 4.014987784556809 14.433659653111528 0 0 0
880 1 7.1656851647848345 3.8536358771168047 16.565358364854742 0 0 0
878 2 8.738319095432761 4.2345669418127185 14.241190281028793 0 0 0
1168 1 10.317474323556528 3.8994662073054345 16.677048934082816 0 0 0
1166 1 12.245330272877617 3.934989770333787 14.365306749690921 0 0 0
15 1 -1.3775538360343447 6.246669686509014 16.457266480338646 0 0 0
337 1 0.3751032671236736 6.361045592246502 14.21050559396063 0 0 0
303 1 1.9589939051756429 6.256076702446985 16.55131531869371 0 0 0
625 1 3.6617427210926867 6.366298432383619 14.34956611070513 0 0 0
591 1 5.512903406339383 6.2334529750584196 16.55301927471559 0 0 0
913 1 6.96292093707668 6.417262129289414 14.035775094024874 0 0 0
879 1 8.654734822284707 6.194392056839257 16.413344250379428 0 0 0
1167 1 12.054697282965414 6.354507781680928 16.62903006539694 0 0 0
1201 1 10.715936754962092 6.277297538177208 14.330332847913372 0 0 0
50 1 -1.4253702845701366 8.406941387833463 14.437059932731522 0 0 0
51 1 -1.5373418612461742 10.885704466071608 16.735961356971412 0 0 0
340 2 0.23097157578294514 8.560210660499301 16.679087233653945 0 0 0
373 1 0.13835041307542761 10.798482665845203 14.450300350921982 0 0 0
338 1 1.9194779128950326 8.561184548395643 14.45913520215041 0 0 0
339 1 2.0104746152906503 10.856062778636357 16.610506543534555 0 0 0
628 1 3.7245421254571975 8.494040440358702 16.67666936914515 0 0 0
626 1 5.251783492181588 8.619357312694095 14.32265812592947 0 0 0
627 1 5.431959065596901 10.681002126106456 16.430046494470798 0 0 0
661 1 3.662794715436531 10.876897983613688 14.190955119807136 0 0 0
916 1 7.35852824201106 8.618163325426863 16.289998955313965 0 0 0
914 1 8.960336406555673 8.642930258665515 14.165675898677373 0 0 0
915 1 8.823166646834448 10.999510077945574 16.434537456237067 0 0 0
949 1 7.054322085869824 10.799397031301693 14.179907380533102 0 0 0
1204 2 10.385017490588226 8.665041328918473 16.550190310765142 0 0 0
1202 1 12.076631651365641 8.693521357849765 14.204800653646473 0 0 0
1203 1 12.051891998263796 11.002335388726868 16.517107482805848 0 0 0
1237 1 10.484268981231988 11.052227065092758 14.191788688782658 0 0 0
86 1 -1.3283460014572013 13.203694743832871 14.380210229883824 0 0 0
1309 1 10.506629807636255 19.782217086396106 14.260431535895124 0 0 0
376 1 0.35278184092426246 13.125455279946294 16.666285926704724 0 0 0
374 1 1.8815037460027644 13.058906484288197 14.26698704290482 0 0 0
664 1 3.74095495281026 13.109224103908565 16.394301892602208 0 0 0
662 1 5.52861591411436 13.072047049011228 14.164072919377242 0 0 0
952 1 6.773957934416842 13.09008542465682 16.496101759567807 0 0 0
950 1 8.66764951689414 13.142674827202473 14.318931488853863 0 0 0
1238 2 12.278434399417502 13.25810232496936 14.145501790224525 0 0 0
1240 1 10.554827403435656 13.30421214414221 16.589441148997373 0 0 0
87 1 -1.2573836357940256 15.411598733683574 16.56796323144229 0 0 0
1274 1 12.145452123131648 17.475932924058306 14.227510243706034 0 0 0
409 1 0.36258314053546137 15.391911354396864 14.457553306983668 0 0 0
375 1 1.9676604426411166 15.44329846443657 16.71317490820457 0 0 0
697 1 3.6068500127713503 15.468593369892771 14.17806469650361 0 0 0
663 1 5.370085780783986 15.399917880171715 16.531599552980147 0 0 0
985 1 7.000136958030279 15.335767503176546 14.279224812931572 0 0 0
951 1 8.717083481584158 15.420599562048324 16.51765296050063 0 0 0
1239 1 12.133320191992837 15.62184436514245 16.373025657469576 0 0 0
1273 1 10.4179881592566 15.304887094876559 14.244112543504189 0 0 0
122 1 -1.468561810276475 17.548433734961016 14.314967291771145 0 0 0
123 1 -1.5372177067917847 19.839199474495047 16.52650228148721 0 0 0
445 1 0.18569981596820329 19.829394656734024 14.350986474028039 0 0 0
412 1 0.2773274846752689 17.75195693733373 16.562345098896913 0 0 0
410 1 2.091076914274113 17.803913734822856 14.313412839082499 0 0 0
411 1 1.9252771583903496 20.12774610071807 16.571837097283062 0 0 0
733 1 3.7805480920900068 20.054050028579656 14.247606053533206 0 0 0
699 1 5.267608052885253 19.8835322696963 16.488575192646923 0 0 0
700 1 3.4349541489649087 17.76316988342316 16.618896666504952 0 0 0
698 1 5.288515514503963 17.692116807168965 14.401796204009937 0 0 0
988 2 7.114904146314403 17.6768661019321 16.431450262789653 0 0 0
987 1 8.604757374093516 19.974303792183612 16.50274622363652 0 0 0
986 1 8.746107300357266 17.566913721717548 14.063195679218534 0 0 0
1021 1 7.0374358129319425 19.850330429925002 14.296327340524789 0 0 0
1276 1 10.276255539931729 17.673448059249672 16.56858317179183 0 0 0
85 1 -2.8563756061916914 10.804459398504388 14.447630416164015 0 0 0
117 1 -2.8711476814550707 15.354889872178275 9.937476694947533 0 0 0
157 1 -2.9752358763850064 19.82407665438935 14.14556856059838 0 0 0
45 1 -2.8995444003827955 6.242209965872547 9.76835457186765 0 0 0
48 1 -3.0977426213066535 8.678692404139255 11.998475077937515 0 0 0
16 1 -3.0273098961430875 4.030902511467311 16.60967293980916 0 0 0
18 2 -1.3520362018873768 4.277818109167747 18.903021313674387 0 0 0
306 1 1.7982543417104835 4.05019832311279 18.77971088163639 0 0 0
594 1 5.48721513323553 4.123407828483223 18.82767149061404 0 0 0
882 2 8.74822465247095 3.8445490301644725 18.996429973108626 0 0 0
1170 1 12.320178614426528 4.072467786776691 18.686777086701223 0 0 0
341 1 0.4026280406718761 6.355866310596987 18.79199360478862 0 0 0
307 1 1.9720393275849255 6.394479102454472 21.072466374064366 0 0 0
629 2 3.7645653169965922 6.276233514521031 18.73564969402216 0 0 0
595 1 5.338062414772677 6.264325885455816 21.013023218475176 0 0 0
917 1 7.174970211100115 6.206841758437578 18.923705907321587 0 0 0
883 1 8.956230046474575 6.147343060494386 21.001072223132272 0 0 0
1205 1 10.450140543128688 6.267359205004468 18.811391445043324 0 0 0
54 1 -1.6106770375865092 8.502580578600348 18.874654221613227 0 0 0
55 1 -1.2575248267222245 10.939597187846733 21.14136726418093 0 0 0
342 1 2.1888467093652406 8.516839821960875 18.805325658967217 0 0 0
377 1 0.40911166719584546 10.977959248030897 18.89981436173809 0 0 0
343 1 1.9724332171231116 10.823915400478178 20.997044202561696 0 0 0
665 1 3.74506546808323 10.831511900654123 18.693906295358556 0 0 0
630 1 5.513068956856928 8.600951305359274 18.773971298203183 0 0 0
631 1 5.5586764294072974 10.856869832404428 21.02293023035833 0 0 0
632 1 3.749846298698619 8.556706636198046 21.11831979877696 0 0 0
918 1 8.747585940602967 8.61899144138231 18.620045821434374 0 0 0
953 2 7.217097763201389 10.933813032700764 18.575310464531725 0 0 0
919 1 8.626736714918446 10.699545946079818 20.971683568338438 0 0 0
920 2 7.216757885778126 8.361230410226835 21.082108895086986 0 0 0
1241 1 10.277569796368667 11.036895530034158 18.798205317833894 0 0 0
1206 1 11.998518000669748 8.702855631403136 18.77115321843849 0 0 0
1207 1 12.164465237201755 10.983723043616498 20.875603899117348 0 0 0
1208 1 10.277928655464821 8.643462800559877 20.942201650246016 0 0 0
90 1 -1.523145949195275 13.016680600475846 18.936255719954108 0 0 0
378 1 2.2044933507385918 13.121251728878745 18.872446791599785 0 0 0
380 2 0.29235273665429373 13.23235375656574 20.923042549802524 0 0 0
666 1 5.38231576729355 13.201305531594059 18.845446812580228 0 0 0
668 1 3.696536730110657 13.040107705486992 21.192752993217212 0 0 0
954 1 8.69364009268992 13.253461833794388 18.560000064108728 0 0 0
956 1 7.251999859034811 13.055764767738168 20.989471655524664 0 0 0
1242 2 12.002863435858771 13.259170552005447 18.973595897904733 0 0 0
1244 1 10.189542281385508 13.184702642120808 20.99997807996242 0 0 0
413 1 0.22411229473808936 15.310002328346567 18.994767918970428 0 0 0
379 1 2.2730782313120783 15.415966175064167 20.99556508939339 0 0 0
701 1 4.047829874338079 15.532836837749633 18.822030537893014 0 0 0
667 2 5.422967820814463 15.381389495488142 21.19075818074153 0 0 0
989 1 6.910545685838214 15.470973710077134 18.886599176423317 0 0 0
955 1 8.661923401077287 15.462731750684219 21.10136439326992 0 0 0
1277 1 10.451091733415225 15.481700350751199 18.71001949220284 0 0 0
1243 1 12.00102703820391 15.388885948215925 20.99362118375448 0 0 0
126 1 -1.2380979201917361 17.658498397817375 18.83860830317516 0 0 0
449 1 0.32967199327775276 19.964450298320447 18.772266332700205 0 0 0
414 2 2.012518623712944 17.670981390966126 18.967085916718414 0 0 0
415 1 1.870285411103326 19.830286423407724 21.161331552953374 0 0 0
416 1 0.19453515097452723 17.446899386808184 21.17767728722742 0 0 0
702 1 5.386397183738417 17.85673584334288 18.75573080747702 0 0 0
703 1 5.389158043085301 20.045719187906364 21.04587187849826 0 0 0
737 1 3.477844596465173 19.98556588771656 18.775370402789875 0 0 0
704 1 3.888743675712296 17.77414142633267 21.139206981148842 0 0 0
992 1 6.881588509339371 17.567054791402086 21.077223017189475 0 0 0
990 1 8.724625614681539 17.716826695101982 18.784249923751666 0 0 0
1025 1 7.049480628798104 19.970195502968462 18.731098302040813 0 0 0
991 1 8.595009401490406 19.763497589488388 21.03927655293391 0 0 0
1280 1 10.464745984911612 17.66753783299902 21.078809465102324 0 0 0
1313 1 10.376815754239885 19.96803655440561 18.762659408738628 0 0 0
1278 2 12.114108010039937 17.764423290693667 18.57618780480635 0 0 0
1279 1 12.055414547245121 19.954620264155924 20.975343167448106 0 0 0
22 1 -1.3696160618666309 4.082535452412757 23.23069170387122 0 0 0
308 1 0.22886192749744527 3.957399723643061 21.147008870033304 0 0 0
310 1 1.9695314156453265 4.015447238060643 23.33994791687074 0 0 0
596 1 3.5642090015928445 4.1530587681937305 21.015402065371983 0 0 0
598 1 5.350219056121354 3.836416992000154 23.33717568005345 0 0 0
884 1 7.008460734478419 3.924127370338243 21.07302275429675 0 0 0
886 1 8.646524341757264 3.945837095512985 23.23098735571924 0 0 0
1172 1 10.458577482677814 4.052891808781651 20.991690254982164 0 0 0
1174 1 12.04253980940172 3.9017549369381417 23.546386466375594 0 0 0
19 1 -1.4025806156707772 6.349190443806829 20.910735369549244 0 0 0
345 1 0.24532902324141714 6.371047864993593 23.266002964188182 0 0 0
633 1 3.734969328480608 6.383817182265957 23.34728332382114 0 0 0
921 1 7.15227152566068 6.237216322785375 23.268308893811213 0 0 0
1171 1 12.114559614382586 6.3490185649758395 21.1101707265153 0 0 0
1209 1 10.251556680952108 6.225415974299975 23.375144818962394 0 0 0
58 1 -1.336597495612688 8.686483882855235 23.318253257554602 0 0 0
1282 1 12.134438990904513 17.635006001743267 23.150405576218024 0 0 0
1317 1 10.555180626757853 19.90963440400054 23.290947804879476 0 0 0
344 1 0.329054243614173 8.64623559216138 21.05046437889062 0 0 0
346 1 1.957202778509648 8.68591148490247 23.340678129993186 0 0 0
381 1 0.4260654345350705 11.001248436749103 23.29896190993995 0 0 0
634 1 5.543730313616255 8.59502710348849 23.373110699540888 0 0 0
669 1 3.7538024371295964 10.91537056504368 23.20278401694418 0 0 0
922 1 8.738071866912897 8.589956168078611 23.380792329524443 0 0 0
957 1 7.0895627642763195 10.7881155472806 23.283924984026385 0 0 0
1210 1 12.018405066090656 8.65173531153662 23.37737808989629 0 0 0
1245 1 10.483434421163462 10.905282501165042 23.38282872179155 0 0 0
94 1 -1.2231729093265815 13.226220930708202 23.40550453119682 0 0 0
382 1 1.960991661754281 13.124337805608494 23.284401739161353 0 0 0
670 1 5.378118444270644 13.132948207322988 23.249717646345616 0 0 0
958 1 8.785249333710306 13.038341400871804 23.22616563263372 0 0 0
1246 1 12.165126522721117 13.120265625453023 23.216602287430366 0 0 0
91 1 -1.5604726390808992 15.31588595216163 21.13989626490415 0 0 0
417 2 0.4792476924280855 15.542660421257587 23.160075559643296 0 0 0
705 1 3.7363520677600603 15.395543530183941 23.34574045715719 0 0 0
993 1 7.141804991809352 15.351852188345324 23.354826622694002 0 0 0
1281 1 10.447450949999693 15.486304739740751 23.12387283106842 0 0 0
127 1 -1.341236571045972 19.997741816618483 20.939057594252983 0 0 0
130 1 -1.6598419413573895 17.572521851909844 23.35982355093662 0 0 0
418 1 2.140369996204208 17.820236499687766 23.2642183946244 0 0 0
453 1 0.11757439862701036 19.776300286452923 23.3645583321801 0 0 0
741 1 3.754487083058114 20.099055557039357 23.347584021993477 0 0 0
706 1 5.488324337749445 17.731289641097128 23.48296007591721 0 0 0
994 1 8.659512516500213 17.72731056351385 23.282105236370032 0 0 0
1029 2 6.984561706755061 19.9819134354253 23.332497026091964 0 0 0
93 2 -3.100961661956066 11.03377174993655 23.442802048974308 0 0 0
125 2 -3.025225134229436 15.45203334844185 18.810381581275028 0 0 0
57 1 -3.0728225288001827 6.376088872160074 23.23139262926027 0 0 0
92 1 -3.0706766471890035 13.18803408368571 21.22746350484256 0 0 0
26 2 -1.6014836923666922 4.092876653645838 27.808207034787383 0 0 0
312 1 0.2581382182951 3.9024537780531965 25.60175537226271 0 0 0
314 1 1.9037316992922517 4.035761008416629 27.890151190437194 0 0 0
600 1 3.5572421204133575 3.93769493252685 25.614079570075372 0 0 0
602 1 5.354783300028696 4.052238472472919 27.71803649977852 0 0 0
888 2 7.080631984579732 3.8873735699755523 25.527331432389914 0 0 0
890 1 8.73306163886656 3.9945200758421455 27.97991649647689 0 0 0
1176 1 10.284666766205993 4.089794752349213 25.551737266012136 0 0 0
1178 1 12.054990366591129 4.115129049211845 27.738116323584745 0 0 0
23 1 -1.3410498667438722 6.354602227519729 25.50503161046588 0 0 0
349 1 0.22623222291439848 6.292154111810539 27.95172538454758 0 0 0
311 1 1.8790671143531763 6.358671993297141 25.634895538958823 0 0 0
637 2 3.608473393776761 6.279240278332029 27.71121690519265 0 0 0
599 1 5.389348300754667 6.285537904369416 25.534280586242843 0 0 0
925 1 7.049097907936057 6.348613345767932 27.85976933432957 0 0 0
887 1 8.73914661398065 6.235463660805681 25.60735373202351 0 0 0
1213 1 10.509839649240302 6.270045202012717 27.86458114610921 0 0 0
1175 2 12.085208940000452 6.204857044083616 25.581767150685142 0 0 0
62 2 -1.3602223821581865 8.81495469995102 27.928569664966354 0 0 0
59 1 -1.3706393601409013 10.84743896150619 25.635202684086288 0 0 0
348 1 0.2579784733388495 8.624208466397558 25.587392147499557 0 0 0
385 1 0.42760157819773204 11.080623205805473 27.955419305447464 0 0 0
350 1 1.8424722071758235 8.592078745667857 27.9296941218935 0 0 0
347 1 2.003736574202162 10.750254622061963 25.589887816696884 0 0 0
636 1 3.6781877311683764 8.626813000863123 25.540850194913983 0 0 0
673 2 3.597444388800381 10.828579799686905 27.830891866750306 0 0 0
638 1 5.405634594945507 8.59539581163598 27.874693534350882 0 0 0
635 1 5.40422848574271 10.830281503311967 25.715174879210156 0 0 0
924 1 7.179131546679887 8.598398791377964 25.71192106733822 0 0 0
923 1 8.663500515111043 10.940920777241104 25.56001507015297 0 0 0
926 1 8.721172758783334 8.600446796060627 27.923613786643163 0 0 0
961 1 7.050858141887566 10.87164503309763 27.979174324276478 0 0 0
1212 1 10.422369030636801 8.577380040820792 25.60488900508425 0 0 0
1214 1 11.938698208777923 8.61266920968535 27.84652985745589 0 0 0
1211 1 12.130505282418904 10.863998838941916 25.568717914916128 0 0 0
1249 1 10.250826465916075 10.874239349484231 27.89687014639011 0 0 0
98 1 -1.503881045225385 13.33856690818777 27.89151300361079 0 0 0
1325 1 10.493764084039588 20.07640161549714 32.35131095795927 0 0 0
384 1 0.4285749882358165 13.111140967519322 25.683983357950417 0 0 0
386 1 2.1596773424696694 13.176667075318298 27.854519316769462 0 0 0
672 1 3.71817849887695 13.155828598363728 25.454912403044354 0 0 0
674 1 5.282633746144173 13.030607365871264 27.778468313296347 0 0 0
960 1 6.991958919127873 13.221261123053086 25.565274174190424 0 0 0
962 1 8.783388876219995 13.269769007299468 27.710021932077414 0 0 0
1248 1 10.590226354626436 13.052438041937512 25.546054226357725 0 0 0
1250 1 12.104631451334065 13.109316443155329 28.00846950560668 0 0 0
95 1 -1.184029603143139 15.363290068194527 25.510226163217602 0 0 0
1002 2 8.734618461459087 17.957474909637376 32.52892655289108 0 0 0
421 1 0.3741511094584675 15.284038435451757 28.07069061283104 0 0 0
383 1 1.9979584198748506 15.38226775767498 25.58147379340386 0 0 0
709 1 3.772064020313168 15.442409254610345 27.849203819290583 0 0 0
671 1 5.297806797448095 15.460305475949466 25.698239810322356 0 0 0
997 1 6.982755413977767 15.402216270836762 27.829921106724555 0 0 0
959 1 8.802360298708512 15.332387837554023 25.435965814524405 0 0 0
1247 1 12.174117794330881 15.361450724115166 25.549394059888076 0 0 0
1285 1 10.385622345148645 15.475983368182936 27.80331968534998 0 0 0
131 1 -1.5349219454466103 19.82166358080355 25.534348241237073 0 0 0
134 1 -1.316645904692662 17.596826287178942 27.74099545830347 0 0 0
1287 1 12.026258730429957 20.04336563797726 30.035460292309978 0 0 0
420 1 0.34152741534309117 17.584405961178597 25.310457970257538 0 0 0
419 1 1.7941374974897761 20.005901382268778 25.612273734657297 0 0 0
422 1 1.942939574576528 17.674927632594915 27.732608714256642 0 0 0
457 1 0.20882451301978833 19.919323764241113 27.761122082669537 0 0 0
708 1 3.60675468394732 17.788687441330385 25.62416889462602 0 0 0
707 1 5.307425008080468 20.04654581792359 25.66336088941647 0 0 0
710 1 5.371913959580828 17.826114476369 27.815002882536586 0 0 0
745 1 3.4315926708510793 19.96549407262059 27.777763346743654 0 0 0
996 1 7.116949692662111 17.621409673649573 25.594638193278232 0 0 0
995 1 8.779576611608967 19.78556288882634 25.53369867347485 0 0 0
998 1 8.799233989385769 17.804681048348414 27.865767375270234 0 0 0
1033 1 7.0974230150441695 20.13355060218492 27.74686081947164 0 0 0
1321 2 10.131753536462666 20.143771541756337 27.92394428078229 0 0 0
1284 2 10.39501102794443 17.555123394203825 25.522177237614535 0 0 0
1283 1 11.856965841510283 20.082636501586965 25.602422016192104 0 0 0
1286 1 11.97164742172595 17.828678506016793 27.724768779131047 0 0 0
30 1 -1.5772036360823145 4.22817808285312 32.46414369015042 0 0 0
97 1 -3.0057093388818945 10.963829075216587 27.93259156175992 0 0 0
316 1 0.24837303237759611 4.231151000180699 30.093588647265506 0 0 0
318 1 2.00569680350988 4.121710532611409 32.39981380622574 0 0 0
604 1 3.670718749104718 4.086630879960034 30.032975264477415 0 0 0
606 2 5.330362727491522 4.244273478524659 32.25591662592585 0 0 0
892 1 6.800476984661422 4.027510178821622 29.965351595181254 0 0 0
894 1 8.604350773686788 4.097839113647208 32.2509052890975 0 0 0
1180 1 10.586928075552683 4.052724466888616 30.245316634799718 0 0 0
1182 1 12.061135391817219 4.194303192007205 32.43177172063717 0 0 0
27 1 -1.6308811927794624 6.341451189609425 30.164885182114137 0 0 0
1290 1 12.013529889236565 17.68717900303716 32.319631722188845 0 0 0
353 1 0.15182628498452688 6.397857374147765 32.35429438934 0 0 0
315 1 1.9999838768268785 6.3849876950771485 30.135721072900022 0 0 0
641 1 3.6574608366502637 6.43770036630198 32.34662927853963 0 0 0
603 1 5.2215833259951605 6.301423577733311 30.088960601633783 0 0 0
929 1 7.106760221250035 6.446918111273272 32.44000976498794 0 0 0
891 1 8.62521748330488 6.459237048975223 30.093095653765214 0 0 0
1179 1 11.927195424683372 6.3336198013120555 30.304875954681687 0 0 0
1217 1 10.105062036819279 6.430119233719092 32.40581056117947 0 0 0
66 1 -1.3013149124673244 8.767287253787366 32.441823878910895 0 0 0
63 1 -1.3501738456524341 10.89273451005452 30.090202356173748 0 0 0
352 1 0.29127755543713096 8.704751307743129 30.1477962954572 0 0 0
354 1 2.0091754282671688 8.660361299383776 32.48434830954163 0 0 0
351 1 2.0179821281573216 10.969018596584437 30.19209934628056 0 0 0
389 1 0.3375780956095089 10.968927220493494 32.415879325449815 0 0 0
642 1 5.360347442200375 8.552275099763687 32.36958414717557 0 0 0
640 1 3.7878401395042416 8.702375839940864 30.080092094686922 0 0 0
639 1 5.363322320789001 11.014282691375975 30.13661910468175 0 0 0
677 1 3.697974304291853 10.858227491730025 32.466868762831915 0 0 0
928 1 6.831553478609949 8.600450326875576 30.16707689948543 0 0 0
930 1 8.612731530567943 8.693721423660723 32.309561975052404 0 0 0
965 1 6.948249796392027 10.742310508055255 32.51932148598892 0 0 0
927 1 8.634025920819273 10.902152214209222 30.141488894518393 0 0 0
1216 2 10.32713971862664 8.55832521445597 30.012856992245958 0 0 0
1218 1 11.93106995831438 8.598282934853964 32.36524144808402 0 0 0
1215 1 11.917574085087741 10.920244406525889 30.166364952533165 0 0 0
1253 1 10.338935694421284 10.905220249492094 32.62812438424661 0 0 0
102 1 -1.3445648253955433 13.116224444533726 32.58959968184981 0 0 0
388 1 0.45093225540076265 13.217657606376479 30.0880449049865 0 0 0
390 1 2.007783553889237 13.248492950702607 32.45820316077051 0 0 0
676 1 3.836639950188976 13.121931498685921 30.068001006209546 0 0 0
678 1 5.269465642526621 13.11462695116814 32.5174262358627 0 0 0
964 1 6.983282603087305 13.190057108661675 30.099818247656252 0 0 0
966 1 8.62371075135932 13.105985996508773 32.53118023874442 0 0 0
1252 1 10.267067029297888 13.127954647819276 30.1415477554724 0 0 0
1254 1 12.01603303666338 13.082254060469593 32.429708124856774 0 0 0
1000 1 7.002325095158573 17.731581715858027 30.210688147133776 0 0 0
99 1 -1.5306096009723245 15.294242884856098 30.187392160641053 0 0 0
425 1 0.2518924940103524 15.497013019529087 32.28730479917455 0 0 0
387 1 2.112185398465288 15.388512535367814 30.19259715664141 0 0 0
713 1 3.643893165034735 15.41297357790959 32.511103662251585 0 0 0
675 2 5.303566320838959 15.452015815717884 30.25439310320373 0 0 0
1001 1 7.099981333459326 15.50428560085191 32.285169300952504 0 0 0
963 1 8.655958165706936 15.654339517274435 29.976068969344947 0 0 0
1251 1 11.946557865058704 15.307635246400164 30.007110565136742 0 0 0
1289 1 10.345219601907036 15.484508122508668 32.38630774015287 0 0 0
138 1 -1.62439749275638 17.702934596330252 32.40863307161271 0 0 0
135 1 -1.4084713103615885 19.987564201742384 30.329139173527643 0 0 0
1288 1 10.430765200906043 17.876640628052805 30.097472322479387 0 0 0
461 2 0.3276589673030985 19.82418318353526 32.64650722686722 0 0 0
424 1 0.24245399304779713 17.641755121743174 30.16545000238985 0 0 0
423 1 1.723725908991058 20.02454364750699 30.130185869835454 0 0 0
426 1 1.9795563747470992 17.627872036938143 32.313914778890776 0 0 0
749 1 3.4106029003422296 19.92271394076682 32.33653723299739 0 0 0
712 1 3.697739007327941 17.812459430233332 30.072728257089125 0 0 0
714 1 5.411338014726683 17.70513282977481 32.4774347916048 0 0 0
711 1 5.2364920983182 20.02784250348798 30.039018475293418 0 0 0
999 1 8.58868102115008 20.092112536650415 30.17412856801704 0 0 0
1037 1 6.748913263276174 20.01072331507936 32.35401031514026 0 0 0
96 1 -2.9942900103264343 13.18778967381001 25.595191685111846 0 0 0
60 1 -3.0662033106096747 8.542403733249518 25.587733612585946 0 0 0
169 1 -3.059458191575533 19.849493614890353 27.8941062177403 0 0 0
61 1 -2.9916722183655224 6.543296285184052 27.797501493048458 0 0 0
100 1 -2.9558165942731733 13.012782354192124 30.39059884607513 0 0 0
137 2 -2.948896553269961 15.255109041178946 32.53087615204882 0 0 0
34 1 -1.520066646248278 3.962541576046312 36.98350130202252 0 0 0
320 1 0.2011763110450433 3.890713193115026 34.664973112089626 0 0 0
322 1 1.8042311622654013 4.212389776706406 36.98816425626015 0 0 0
608 1 3.692132713961652 4.235523074295213 34.77218251077379 0 0 0
610 1 5.340618187695403 4.266619355404666 36.94973965665427 0 0 0
896 1 6.995436451076294 4.125909664439231 34.57028596726762 0 0 0
898 1 8.766405266585833 4.097622440553885 36.97458753591647 0 0 0
1184 1 10.38329987305418 3.874327762443161 34.51126998713205 0 0 0
1186 1 11.960055541064905 4.006319921225213 36.84265017215458 0 0 0
31 1 -1.3938188469373205 6.303990311802672 34.67936304748015 0 0 0
144 1 -3.03728830233687 17.505753960223018 38.948090323070446 0 0 0
357 1 0.10526872442526791 6.471030179226369 37.07425198493854 0 0 0
319 1 1.9000289643171704 6.407327529988082 34.650569859409174 0 0 0
645 2 3.5748872075017926 6.29482449703294 36.98499949205626 0 0 0
607 1 5.36258839315269 6.4583820445935425 34.67460302597813 0 0 0
933 1 7.17145544050768 6.402107535246466 36.768753363393685 0 0 0
895 1 8.85498418262911 6.313510385683145 34.63546542817852 0 0 0
1221 1 10.452933806992952 6.313402778321324 36.85252757274809 0 0 0
1183 1 12.105328606726523 6.220722605202891 34.51721509554805 0 0 0
70 1 -1.514832831551411 8.712059098314766 36.87591632643094 0 0 0
67 1 -1.518964061933632 11.039869962986014 34.60139375013884 0 0 0
177 1 -3.0767630065994527 19.72196609973465 36.925338266610694 0 0 0
393 2 0.2883300137032032 10.865628068281373 36.87424850851039 0 0 0
356 1 0.19980424008967024 8.68743890992123 34.73788335996929 0 0 0
358 1 1.9358883941012066 8.666475864105443 36.873734894695716 0 0 0
355 1 2.025444405896161 10.877304286932754 34.54784784693926 0 0 0
644 1 3.647732735343881 8.563846214922837 34.71328229484068 0 0 0
646 1 5.274425625256793 8.590535022830263 37.0014818952269 0 0 0
643 1 5.301295963259049 10.907996680380363 34.64245204116895 0 0 0
681 1 3.7197196770436833 10.877210535078154 36.93752759782639 0 0 0
932 2 7.149633689567377 8.671970165415054 34.6286502626682 0 0 0
931 2 8.537093996066941 10.859166815355165 34.93860528708525 0 0 0
934 1 8.693709713592021 8.7171185575021 36.939241785256 0 0 0
969 1 6.819672055534953 10.931190501249574 37.14587524840924 0 0 0
1220 1 10.278269926233172 8.717146438708816 34.59640475340575 0 0 0
1219 1 12.126510288682024 10.93111812870588 34.646264915493575 0 0 0
1257 1 10.519566290043354 10.947296375623925 36.87442937848519 0 0 0
1222 1 11.928847443574803 8.590240524436396 36.87132606113886 0 0 0
106 1 -1.4233271557812393 13.07979877000058 37.00113627492655 0 0 0
141 2 -3.0010971348762183 15.42306758308265 36.77671298832412 0 0 0
392 1 0.3479764984556355 13.088654396424397 34.71159077638852 0 0 0
394 1 2.068221067311675 13.096478975331813 36.850285051253124 0 0 0
680 2 3.701032496152465 13.271351740797313 34.59770100313101 0 0 0
682 1 5.331972261352172 13.222939484919523 37.02409760125727 0 0 0
968 1 6.992978540796523 13.11983784784295 34.7460362009287 0 0 0
970 1 8.681754253798374 13.05149433126815 37.071155368287435 0 0 0
1256 1 10.292760766993661 13.158527000309284 34.795707285642365 0 0 0
1258 2 12.055026413987216 13.311608414391692 36.858379022239205 0 0 0
103 1 -1.1614714388771694 15.441347247742252 34.675813189438216 0 0 0
429 1 0.306103210254268 15.28078014029115 37.01342954130749 0 0 0
391 1 1.8573080233249866 15.37833890063213 34.714237998712406 0 0 0
717 1 3.6936619765578826 15.521797136081464 36.85334256575311 0 0 0
679 1 5.524473124348242 15.354405743494691 34.64022250119065 0 0 0
1005 1 7.048338914495936 15.396542721102362 36.88001939963408 0 0 0
967 2 8.643490207320811 15.410926225563731 34.68801034382085 0 0 0
1255 1 11.802700567682512 15.416746819332163 34.673255637625815 0 0 0
1293 1 10.20029419652734 15.468949832608976 37.0729891528058 0 0 0
139 1 -1.5839621388029592 20.01691728153504 34.69993728235505 0 0 0
142 2 -1.2703579151976125 17.52896485173975 36.919290312915535 0 0 0
428 1 0.3207449602619241 17.754359176266668 34.584558379629584 0 0 0
427 1 2.1615883121375288 19.859802375248595 34.64125801830966 0 0 0
430 1 2.011839189964572 17.577356381356502 36.874593438785624 0 0 0
465 1 0.3048582183433268 19.89691259699229 36.914180721622856 0 0 0
753 2 3.638154637644027 20.04112310490516 36.990239929384444 0 0 0
716 2 3.6180824571969663 17.404964906290502 34.59565250428794 0 0 0
715 1 5.189935724862181 19.911663967641275 34.675626895988884 0 0 0
718 1 5.258045806795035 17.800971791642816 36.84149320959331 0 0 0
1004 1 6.960311121761116 17.70548643445012 34.69491357974373 0 0 0
1003 1 8.565756928982264 20.255892460910598 34.506696297356925 0 0 0
1006 1 8.657665735014003 17.743396918078403 37.0310920940495 0 0 0
1041 1 6.968527704176472 19.925127867741462 36.89036525395119 0 0 0
1329 1 10.386923596469058 20.040209137864732 36.906811195048675 0 0 0
1292 1 10.284645804957657 17.664813945846582 34.67967022828908 0 0 0
1291 1 12.103903516224522 19.936438386605012 34.62039603983146 0 0 0
1294 1 11.92141668390833 17.64011467850193 36.840864042004 0 0 0
72 1 -3.0534905406494612 8.613157718288312 39.176198523258535 0 0 0
613 1 3.5338030961512907 6.458678317364345 41.3241009281724 0 0 -1
324 1 0.31144059221207776 3.9036986736950006 39.17031967876214 0 0 0
612 2 3.564632105449197 4.197880188278344 39.150390358926785 0 0 0
900 1 7.15816636483008 4.02638706963673 39.20173269280524 0 0 0
1188 1 10.483920593112828 4.082608461030207 39.124098404546714 0 0 0
104 1 -3.077814604799944 13.41977338381544 34.72640923016631 0 0 0
35 1 -1.2808084177412795 6.3010136306777 39.38777483302975 0 0 0
140 1 -3.0622989777016656 17.512287633535806 34.720711898475514 0 0 0
323 1 1.8623701794630096 6.376002240566624 39.21833196540551 0 0 0
611 1 5.422682090938206 6.279192524440103 39.03394306576219 0 0 0
899 2 8.694559224813835 6.317670056808332 39.173680336159066 0 0 0
1187 1 12.18700002052195 6.263839637350026 39.1281061937581 0 0 0
432 1 0.32715101427694515 17.445349587633544 39.22851783158022 0 0 0
71 1 -1.4886288098003961 10.863900485253879 39.149444636608024 0 0 0
1226 1 12.132043561314099 13.165229258071108 41.33135737268563 0 0 -1
360 1 0.23687805985185761 8.72333174988744 39.220077010303655 0 0 0
359 1 1.9810971464609968 10.897572200899106 39.18741807612187 0 0 0
431 1 1.9089406943210059 19.889315690445912 39.23680457595081 0 0 0
143 1 -1.3706155333413221 19.71239683319606 39.250493491729216 0 0 0
648 1 3.5854269963930503 8.394434089673403 39.095739032412524 0 0 0
647 1 5.197026942325747 10.688712553271321 39.26003799097515 0 0 0
720 1 3.719821765269326 17.79111803819508 39.1055505956533 0 0 0
936 1 6.9704811340948964 8.648074973003967 39.21130254587911 0 0 0
935 1 8.839393461584551 10.909976125365418 39.14090428411917 0 0 0
74 1 -1.457482574597686 13.083088525165044 41.43518880304002 0 0 -1
1007 1 8.637056924900126 19.694222220626294 39.18532388977499 0 0 0
1224 1 10.348553501589898 8.61989232401043 39.04140814179266 0 0 0
1223 2 12.019180929009902 10.939064908970657 39.17302014984284 0 0 0
396 1 0.34718582942557186 13.021908920661376 39.22486583398617 0 0 0
684 2 3.7053439154743786 13.076774641396039 39.09895466863439 0 0 0
1008 1 6.905173835255882 17.72829477366516 39.2963973340414 0 0 0
972 1 6.717674266212814 13.053695689688213 39.201154241019196 0 0 0
971 1 8.523481805340671 15.494951352672722 39.23764112557362 0 0 0
1260 1 10.429825787656691 13.198690656684922 39.140579189480604 0 0 0
1295 1 11.978983782719581 19.91762378225815 39.22247396455077 0 0 0
107 1 -1.5170565728158416 15.189093549316345 39.17075335921139 0 0 0
719 1 5.334874822600515 19.880208649220116 39.38870709361335 0 0 0
395 1 2.154263284253871 15.41532830495724 39.223436433369855 0 0 0
683 1 5.154627090643009 15.454653568794669 39.20502117740756 0 0 0
1296 2 10.46085299585743 17.525871668943754 39.28497626824887 0 0 0
1259 1 12.27381033329043 15.287621957935404 39.06546091731006 0 0 0
1261 1 10.506147476464323 15.365275520622658 41.3774413693009 0 0 -1
1190 1 12.249042500115745 8.501720601573737 41.31428698206315 0 0 -1
938 1 8.729277234676912 13.029451463369307 41.37807697128001 0 0 -1
361 1 0.15151840831247165 10.937618523303078 41.39883615487173 0 0 -1
866 1 8.756794277646067 4.209146444687553 41.369677858027856 0 0 -1
1297 1 10.229469291337471 19.72486712370828 41.41950213995689 0 0 -1
1189 1 10.634335092971137 6.272006118225388 41.42957119055339 0 0 -1
650 1 5.272934646957799 13.002452945978906 41.43164147885635 0 0 -1
1262 1 12.22864749908918 17.773188365853997 41.38818427054122 0 0 -1
974 1 8.632150556250904 17.536752833370066 41.40634418782619 0 0 -1
326 1 1.9479334156837402 8.705954630140539 41.38633655450188 0 0 -1
398 1 1.9922809158663566 17.608675289039844 41.43138868183525 0 0 -1
1154 1 12.320758533317452 3.9649806058931922 41.38843427048413 0 0 -1
397 1 0.22474867314891833 15.287117740209599 41.35872539506556 0 0 -1
722 1 5.289325275860618 22.113021055688996 0.8477374846011217 0 0 0
257 1 -2.9800617503921374 33.563702835781655 5.264364971702446 0 0 0
436 2 0.40019474542520994 22.21663166528782 3.066502751927731 0 0 0
506 1 2.024460304288937 31.433425937527886 0.7316328049386294 0 0 0
724 1 3.6155107631930616 22.16076146356301 3.1576092141183962 0 0 0
1012 1 6.993464251739715 22.13322857560248 3.05807238877707 0 0 0
1300 1 10.335111294848218 22.25827292022496 3.0924849657792532 0 0 0
147 1 -1.3904638631089654 24.431166414692004 2.980480990478844 0 0 0
435 1 1.9134871040473134 24.5744561237615 2.999163637137743 0 0 0
1010 1 8.642566942911662 22.00909003416363 0.8888739839574347 0 0 0
723 1 5.336078502944785 24.461588757729633 2.961371999962661 0 0 0
1370 1 12.200352212905639 31.366359792126065 0.7126325117835449 0 0 0
1011 1 8.669868040749932 24.475264299976654 2.8493869095569484 0 0 0
1299 1 11.851457454157387 24.51247853761708 3.068415189852681 0 0 0
183 1 -1.431535906622401 29.01008470077779 2.8624006549622205 0 0 0
260 1 -2.999478853678614 35.80333734305948 7.534099230771641 0 0 0
1082 2 8.695332324796004 31.165026239364106 0.825725022288235 0 0 0
472 1 0.25817378604447816 26.779538345619798 2.8847753134216196 0 0 0
471 1 1.8687924622844139 29.03499313227047 2.8878702204865196 0 0 0
760 2 3.686448987400596 26.766360900177965 2.880435250082406 0 0 0
759 1 5.380546730954473 28.857924982360284 3.1171658360037062 0 0 0
1411 1 12.063645242279499 38.114700077904345 7.528540144353315 0 0 0
1048 1 6.968633382345731 26.66568952202661 2.928159865899225 0 0 0
1047 1 8.735688429401161 28.844403640827966 2.9704143326381764 0 0 0
1124 1 7.021951750774102 35.73781376237917 7.509622920025059 0 0 0
834 1 5.304951807278261 35.601957706847465 5.33753665210096 0 0 0
1336 1 10.356446067611097 26.80751126469307 2.908139248322212 0 0 0
1335 1 12.064637000864987 28.993130921660473 2.9474281532844424 0 0 0
1410 1 12.296950676428189 35.64506488266391 5.113323814336206 0 0 0
1123 1 8.8745022581991 38.01380718442131 7.511786662637906 0 0 0
508 1 0.21578808976975594 31.30768761205129 2.964287080706381 0 0 0
796 1 3.7213786037967886 31.276591442720676 2.964349269197112 0 0 0
1084 1 6.853777550755298 31.246497520860725 3.149505402194654 0 0 0
146 1 -1.3229074964417777 22.179663014154226 0.8586177744546032 0 0 0
1372 1 10.566136366086738 31.270497528936005 3.0022174261598567 0 0 0
547 1 2.114065687646988 37.94992989649181 7.440158915312989 0 0 0
219 1 -1.4959584854208918 33.50387043313988 2.9106188839583056 0 0 0
507 1 1.9758659537577148 33.656665411844855 2.7992231903628078 0 0 0
795 2 5.378281828391698 33.6518199844666 2.915022635398558 0 0 0
1083 1 8.686779387630885 33.34335738556199 2.949004947321817 0 0 0
835 2 5.414344557172532 38.05172277374963 7.539813142113411 0 0 0
1371 1 12.151492671138 33.460144419201654 2.877196965117501 0 0 0
1409 1 10.476995814456652 33.47165861833295 5.29246727475148 0 0 0
255 1 -1.460476534941739 38.042235744013205 2.9189939431917904 0 0 0
869 1 6.998485176717445 37.90286367148576 5.290657248067508 0 -1 0
1412 1 10.516322804473795 35.9172683724889 7.4853848665929625 0 0 0
1122 1 8.874082152722355 35.736204753877594 5.184963302893325 0 0 0
544 1 0.16290499464069708 35.72967429479222 2.9413140225570804 0 0 0
543 1 1.9010729772669221 38.002689945585686 2.9847666907100945 0 0 0
548 2 0.24760206320398082 35.91791910243191 7.497088134215551 0 0 0
832 1 3.5873380544694595 35.787473778915356 2.905849459107533 0 0 0
831 1 5.5727150284716735 38.05152545057133 2.954994390990072 0 0 0
581 1 3.7081223974186623 37.92891124178237 5.218781574358505 0 -1 0
259 1 -1.4257268403119319 38.11979508043147 7.493294762623176 0 0 0
1120 1 7.277087497645214 35.734689192861595 2.878947033039524 0 0 0
1119 1 8.662145086621399 38.02146770103881 3.005579063997579 0 0 0
434 1 1.9431552319498766 22.284859846058673 0.7901321562790875 0 0 0
1408 1 10.401396250290937 35.7385021535929 2.943821347386549 0 0 0
1407 1 12.308410677962172 38.042426882174894 2.9853993597269626 0 0 0
836 1 3.768878936878886 35.76478623294947 7.4722764764602205 0 0 0
150 1 -1.552751078261689 22.181696179464716 5.39958900391479 0 0 0
440 1 0.09271432860375706 22.213924321767763 7.618814277636078 0 0 0
438 1 1.9424007580297347 22.040951377441942 5.382971146544386 0 0 0
728 1 3.8288727323451064 22.087534586251373 7.601561807393307 0 0 0
726 1 5.263988229690577 22.135604652447228 5.282428169611515 0 0 0
1016 1 6.764443914215111 22.12880940963943 7.649731394177251 0 0 0
1014 1 8.642667933132042 22.05553731424153 5.383087747472445 0 0 0
1302 1 12.039270951258151 22.52131087613992 5.340957012293939 0 0 0
1304 1 10.359277644174337 22.22166814106598 7.540456191620606 0 0 0
546 1 1.8243522428694399 35.73768321502068 5.229798110204849 0 0 0
151 1 -1.4704096815358916 24.474926447509215 7.538846196339585 0 0 0
473 1 0.2870739890701355 24.382150905180065 5.319120076836831 0 0 0
439 1 1.9793885887334466 24.305774958644445 7.669331076119213 0 0 0
761 1 3.61624973481068 24.494470993722828 5.176592160782271 0 0 0
727 1 5.301156839785548 24.540400214706267 7.424308658324277 0 0 0
1049 2 7.012037002630823 24.424113841616766 5.2179958191377995 0 0 0
1015 1 8.501142742682815 24.443054016681252 7.623623274307494 0 0 0
1303 2 12.040052433325968 24.562661357592823 7.4273891868003155 0 0 0
1337 1 10.105882713436353 24.550682749434806 5.337411151197974 0 0 0
186 1 -1.4023779134992496 26.72039347302516 5.356830650342882 0 0 0
187 1 -1.4835236526720397 29.15077106732008 7.499446701375559 0 0 0
1157 1 10.549742242448069 37.97658521301472 5.1623767473508995 0 -1 0
258 1 -1.4374555252274115 35.77734816791429 5.192862018466373 0 0 0
476 1 0.30081033611955865 26.734545148097613 7.447652914948022 0 0 0
474 1 1.8837768636547003 26.73519710005902 5.050145626728215 0 0 0
475 2 1.8691343668267684 29.012849276150046 7.310250014319111 0 0 0
509 1 0.21126125760066783 29.03026383806775 5.203255998863679 0 0 0
764 1 3.558463490337622 26.70796699636626 7.391383040683862 0 0 0
762 1 5.215296589559438 26.779111049521344 5.248172218626915 0 0 0
763 1 5.1278308117698455 28.969061512793562 7.399550610963046 0 0 0
797 1 3.5593913508568895 28.89486986788145 5.071432071116995 0 0 0
1052 1 6.941804205079444 26.84742106614007 7.5119719358325785 0 0 0
1050 1 8.642575852960398 26.722357220803506 5.186191175268629 0 0 0
1051 1 8.64113892488941 28.90417950173129 7.488042044483742 0 0 0
1085 1 7.005711231254725 28.98008376190609 5.252925475617246 0 0 0
1340 1 10.387140838125806 26.71995823960988 7.477233667782788 0 0 0
1338 1 12.066611634480372 26.591111918792297 5.243460998644554 0 0 0
1339 1 12.143854835786383 28.89825685641723 7.428083698277688 0 0 0
1373 1 10.398129254132435 28.927737880920393 5.161144802404872 0 0 0
293 1 0.08642301388224594 38.049949035778944 5.193344052545404 0 -1 0
222 1 -1.4439158080308727 31.102469190260976 5.249607646947116 0 0 0
512 1 0.34243463637897786 31.3948524115634 7.499875000828654 0 0 0
510 1 1.9578272549281368 31.20977540543507 5.20873641827943 0 0 0
800 1 3.42646964947931 31.33603206136224 7.46281947352926 0 0 0
798 1 5.250537580632573 31.154612094872128 5.376443037509491 0 0 0
1088 1 7.023079389590679 31.220035276000868 7.734238491253024 0 0 0
1086 1 8.627016203479725 31.179855900057138 5.409163754833253 0 0 0
1376 1 10.556164578254574 31.19422792093766 7.414577970156798 0 0 0
1374 1 12.175383968477794 31.26828679531362 5.233509169683275 0 0 0
223 1 -1.358036607273112 33.58547765334086 7.606029096023489 0 0 0
184 1 -2.953277105753378 26.78790642332023 2.9667745414394022 0 0 0
545 2 0.2699857909904786 33.41802352889546 5.154705611771395 0 0 0
511 1 1.8842533416809926 33.59493229405075 7.463583215477009 0 0 0
833 1 3.531268822042659 33.46797004808698 5.0927266947033685 0 0 0
799 2 5.240757894863865 33.514709562119094 7.424777139902604 0 0 0
1087 1 8.82288086153299 33.34848724463464 7.557393937859076 0 0 0
1121 1 7.080635128630741 33.426633406058414 5.381480610641246 0 0 0
1375 1 12.152471825281523 33.61940683807899 7.531339162946647 0 0 0
1046 1 8.529486512946903 26.70712170413682 0.7225025982898643 0 0 0
1081 1 7.031675928369687 29.035379138643844 0.7511868681333311 0 0 0
793 1 3.7664490018137085 28.973095326084326 0.8582501585627824 0 0 0
1405 1 10.336188154476904 33.504122672512885 0.711211495561713 0 0 0
1298 1 11.820119065163208 22.07863218243874 0.7091428837837412 0 0 0
1118 1 8.826281280361815 35.9163255688688 0.7207427673447881 0 0 0
577 1 3.657261843140358 37.92782832515944 0.9512249858707094 0 -1 0
1153 1 10.466345320957005 38.0735857684656 0.7864122530618971 0 -1 0
757 1 3.7431442834890647 24.443857983260283 0.7569948150820665 0 0 0
154 1 -1.4906236858042041 22.185541707089154 9.859386390759047 0 0 0
1420 1 10.548275290904044 35.900508126421634 16.63545749191153 0 0 0
444 1 0.347593946573864 22.071964039976685 11.968042399035909 0 0 0
442 2 1.9844468280254435 22.388140852249546 9.688221244647705 0 0 0
732 1 3.4774794285261525 22.211133709439522 12.177252862786727 0 0 0
730 1 5.238472646186873 22.256367960102796 9.920705753699346 0 0 0
1020 1 7.083720367156403 22.26498495481187 11.990870281521328 0 0 0
1018 2 8.650915411056898 22.266975141563755 9.794555410507503 0 0 0
1306 1 12.084563715701226 22.132028653868193 9.775301169896178 0 0 0
1308 1 10.508219774412451 22.081089746895334 11.970002103868737 0 0 0
155 1 -1.3557460823194034 24.5912411376851 12.090508183149526 0 0 0
1419 2 12.305979770474474 38.078107963442854 16.579690664687398 0 0 0
477 1 0.13703583459213897 24.510898204685034 9.739953506701864 0 0 0
443 1 1.879664231887435 24.412124598847196 11.938857500143667 0 0 0
765 1 3.8158568213804416 24.572984641224913 9.788667917704172 0 0 0
731 2 5.350734281956438 24.40724061151045 12.07979853648615 0 0 0
1053 1 6.856535078070532 24.485284469312358 9.735750013578535 0 0 0
1019 1 8.772646185647648 24.291855383999508 11.938638713560014 0 0 0
1307 1 12.023143870583974 24.45212626237536 11.963449476615917 0 0 0
1341 1 10.42822107788612 24.58738270652898 9.722073159836459 0 0 0
190 1 -1.5610987442306838 26.7829229510078 9.698845605582354 0 0 0
191 1 -1.5269784286918218 28.912370797298188 11.911880667776892 0 0 0
513 1 0.39083427970200146 29.005889132366995 9.781201213559903 0 0 0
480 1 0.4093801531215804 26.64548988843547 12.038905706374377 0 0 0
478 1 2.0104319041130423 26.64781452695668 9.679085449792439 0 0 0
479 1 2.0302858620670254 28.994738249381022 12.012160607728402 0 0 0
768 1 3.6651940880199043 26.644497357566255 11.926497684467826 0 0 0
766 1 5.3997662191510045 26.83952290671484 9.744531107617098 0 0 0
767 1 5.353102949381194 28.882641595693578 11.925844442770432 0 0 0
801 1 3.5384598654844566 29.00390794534418 9.733795454768263 0 0 0
1056 1 7.164797264192664 26.675212057079687 11.939539934618573 0 0 0
1054 1 8.632170927716091 26.736990800408496 9.656076849816921 0 0 0
1055 1 8.849568261149148 29.026846731127304 12.009257783798976 0 0 0
1089 1 6.892592405686337 29.121852940427228 9.76806559140727 0 0 0
1344 2 10.43039625725672 26.70327727654355 11.926972254454192 0 0 0
1342 1 12.253244077103105 26.62683885758533 9.640388528142742 0 0 0
1343 1 11.969710927849032 28.968129561873923 11.982161492148094 0 0 0
1377 1 10.532290228538267 28.95861641903774 9.677440946593986 0 0 0
1165 1 10.418716627756242 38.121785950029256 14.472586385971644 0 -1 0
226 1 -1.35008443764447 31.225009778303527 9.71438674579906 0 0 0
516 2 0.22647143893374322 31.160014804982165 11.991136597011728 0 0 0
514 1 1.941883106615283 31.248300658590107 9.800526816585093 0 0 0
804 1 3.6808625369254204 31.266730441117044 12.005527696880058 0 0 0
802 1 5.176698036500614 31.185296485880563 9.706151885670428 0 0 0
1092 1 7.055566595441141 31.03714800949832 12.044259454818604 0 0 0
1090 1 8.813066871797366 31.089750647859614 9.794184118942765 0 0 0
1378 1 12.200338926498352 31.102933415368213 9.879129527006704 0 0 0
1380 1 10.527410174514381 31.19678365195771 11.931274152741542 0 0 0
227 1 -1.2983167291652313 33.52641425154478 12.06880735739268 0 0 0
9 1 -2.9466733961691793 38.034773655857464 9.937101685851077 0 -1 0
549 1 0.3496071510887129 33.45682413458562 9.999098114327113 0 0 0
515 1 1.9430835640729902 33.40118934018442 11.992029599102368 0 0 0
837 1 3.7625241591952565 33.52143461083081 9.825061108536548 0 0 0
803 1 5.434389077558098 33.427199451661416 12.124391473299951 0 0 0
1091 1 8.704052791318963 33.35976938525527 12.045983798956847 0 0 0
1125 1 6.968514038495414 33.615947676122175 9.730290912190283 0 0 0
1379 1 12.094639880111133 33.50712855456763 12.065748356674305 0 0 0
1413 1 10.47072840683681 33.455387820350666 9.793344816731937 0 0 0
262 1 -1.2626539700457393 35.78462199169293 9.828953695473153 0 0 0
263 1 -1.2319926335112161 37.93888606303143 12.069569569363292 0 0 0
552 1 0.5466333510503207 35.67731065695877 12.128086910750385 0 0 0
297 2 0.3691845984590234 38.06066303343784 9.715565973829932 0 -1 0
550 1 1.9563643742340315 35.72348649514947 9.799360214192555 0 0 0
551 1 2.184119870388457 37.88583495579847 11.942636685071053 0 0 0
840 2 3.808348628130536 35.560464317542404 12.089522801152764 0 0 0
838 1 5.375986976913328 35.67749978693555 9.739170526291039 0 0 0
839 1 5.31080258825277 37.96614923620693 12.036205318413371 0 0 0
585 1 3.801691887939288 37.79509596747869 9.586264533065211 0 -1 0
1128 1 6.991244877690939 35.706094636883655 12.154147247765588 0 0 0
1127 1 8.797378029734332 38.1834994983731 12.098294726542646 0 0 0
1126 1 8.733198204893913 35.65151398269373 9.714989735637682 0 0 0
873 1 7.069444082207523 37.95424016561247 9.917910972324139 0 -1 0
1416 1 10.381226794528645 35.79452885991652 12.09835929120742 0 0 0
1414 1 12.100196733463523 35.76227455273311 9.767253319489276 0 0 0
1415 1 12.15106600074305 38.018154185128914 11.994674504696835 0 0 0
1161 2 10.327212878507984 38.06799064548188 9.918947393290168 0 -1 0
158 1 -1.4987472535012323 22.141975779940694 14.283156431287209 0 0 0
448 1 0.13017193935736104 22.184024240256495 16.530232305156915 0 0 0
446 2 1.9461404687858326 22.138091771941635 14.468121246516395 0 0 0
736 1 3.7669221201449283 22.260223440522772 16.54993863217897 0 0 0
734 1 5.394211254563507 22.273950179509907 14.302464249564222 0 0 0
1024 2 7.016558317396171 22.19147040167736 16.60220250147171 0 0 0
1022 1 8.656157581752064 22.16705077267059 14.400768356525239 0 0 0
1310 2 12.07093980510504 22.266645414445044 14.346580979897814 0 0 0
1312 1 10.45735916997572 22.20019578832706 16.59624710140289 0 0 0
159 1 -1.5777517102149097 24.447638665914653 16.550742333435956 0 0 0
481 1 0.35988765781885235 24.326635736697128 14.30715623555567 0 0 0
447 1 1.891843875958004 24.26531657309905 16.698956541439546 0 0 0
769 1 3.6134817129686714 24.576922347506937 14.225676612290036 0 0 0
735 1 5.406217729718094 24.571600110567484 16.523628629243582 0 0 0
1057 1 7.114499830758257 24.51420144459333 14.257438412398079 0 0 0
1023 1 8.72854892925326 24.51447118143387 16.660392809550864 0 0 0
1311 1 12.032611457577415 24.52710065889085 16.41229860970663 0 0 0
1345 1 10.374854868449425 24.52951473314531 14.137829694019185 0 0 0
194 2 -1.3805461983388274 26.628720985881323 14.28567413052534 0 0 0
195 1 -1.4682026440272749 28.965198315203278 16.539332266909728 0 0 0
229 1 -2.9515285946382 28.907562522715484 14.296185367448839 0 0 0
484 1 0.2601723207072708 26.778102007043298 16.4929011797014 0 0 0
517 1 0.21496471243725956 29.05787253975766 14.184701163164146 0 0 0
482 1 1.805220311666082 26.814497819684675 14.286525224270095 0 0 0
483 1 1.8839772780744517 28.967231648852323 16.52454974368452 0 0 0
772 1 3.5741055526887178 26.797979027470127 16.378711955701856 0 0 0
770 1 5.531577673429755 26.6110299979259 14.164765648398381 0 0 0
771 1 5.314131447426114 28.955158719363595 16.36550272451599 0 0 0
805 1 3.6567700370894296 29.03046336140069 14.149191680265607 0 0 0
1060 1 7.04110495896524 26.70522293576639 16.44354335491873 0 0 0
1059 1 8.602882337569072 28.978933034972723 16.61651676869492 0 0 0
1058 1 8.702143811047579 26.898766445855763 14.145285917958061 0 0 0
1093 2 7.069947321196182 29.043453693421924 14.1861436705389 0 0 0
1348 1 10.298675662014913 26.842788141223128 16.453545617851695 0 0 0
1346 1 12.134838546066604 26.651416130527366 14.324896717723725 0 0 0
1347 1 12.198082872709838 29.03977302696717 16.5403332849849 0 0 0
1381 1 10.329425322648868 29.08353601484487 14.356942513554783 0 0 0
230 1 -1.4117504099812506 31.339833570356408 14.29691282964052 0 0 0
520 1 0.29265551154881786 31.182781649559953 16.588664875218164 0 0 0
518 1 1.8475036112551515 31.31455107737601 14.229838201372807 0 0 0
808 1 3.6766414752898515 31.194065000106164 16.456526329740687 0 0 0
806 1 5.418046152087662 31.304586623292966 14.318969999413657 0 0 0
1096 1 7.011461185688196 31.408741493938823 16.594819113223956 0 0 0
1094 1 8.71840254450615 31.299024725180917 14.306243588176395 0 0 0
1382 1 12.108818633820817 31.30998556394639 14.224335718605678 0 0 0
1384 1 10.504956613533455 31.27193371526383 16.595680041966546 0 0 0
231 1 -1.5283386575440496 33.522833035240126 16.642727945230725 0 0 0
553 1 0.19131315248657366 33.48183425685542 14.325897586513031 0 0 0
519 1 2.02878451270093 33.48765848181915 16.674458117977608 0 0 0
841 1 3.706805357799993 33.4945542921827 14.165793210265743 0 0 0
807 1 5.15330196703114 33.5069048430907 16.5856770344634 0 0 0
1095 1 8.959807840137419 33.448992858824376 16.603202107463204 0 0 0
1129 2 7.061733694789645 33.510697436072704 14.353853642609028 0 0 0
1383 1 12.158189203053066 33.56872826687723 16.37562438398475 0 0 0
1417 1 10.399110277700613 33.63397704200008 14.291569836122871 0 0 0
1418 1 12.115380263646152 35.832480213211284 14.405612628783992 0 0 0
266 1 -1.339059647606529 35.775322142971206 14.183183236283757 0 0 0
267 2 -1.5119014727139695 37.85488692826874 16.372917126791656 0 0 0
301 1 0.49227912502281734 37.9595106150782 14.254668124019528 0 -1 0
554 1 2.124153175256844 35.716795258508604 14.376434060463914 0 0 0
555 1 1.9317411164424363 38.04318250610225 16.64745659687935 0 0 0
556 1 0.19993442966983732 35.80898497365864 16.44140145311897 0 0 0
844 1 3.6793024725942938 35.7880226568576 16.65575791838694 0 0 0
843 1 5.400767834632795 37.93940714382198 16.47522177462703 0 0 0
842 1 5.36253488140874 35.819108236066235 14.320318896770399 0 0 0
589 1 3.6539665859801977 38.033684090176614 14.404733457590002 0 -1 0
1131 2 8.611865090242915 37.779186145606396 16.752183582144504 0 0 0
1132 1 6.998096322511101 35.718931584952344 16.78136433876101 0 0 0
877 1 7.221560569109018 38.09772300845595 14.256731629645719 0 -1 0
1130 1 8.725267343188065 35.77828450067258 14.453593674937453 0 0 0
268 1 -3.094666864129252 35.67417498539287 16.570732988677225 0 0 0
261 1 -3.0449198575646648 33.53274838312751 9.742686533121406 0 0 0
162 1 -1.4740032120328561 22.19045939103681 18.84674810364834 0 0 0
450 2 1.8673175148115022 22.353288108242356 18.731407233973027 0 0 0
738 1 5.378671595768953 22.207634488721958 18.920609881481084 0 0 0
740 1 3.5656381669284802 22.11889580739334 21.158562359370848 0 0 0
1026 1 8.686122513514414 22.18659273802926 18.834013781250388 0 0 0
1028 1 7.107453838750779 22.123098224123613 21.232140026692495 0 0 0
1314 1 11.910242573581836 22.115834244751404 18.938628743083136 0 0 0
1316 2 10.285461083279497 22.061089487318018 21.18250852205562 0 0 0
1424 1 10.476302461341028 35.66518378941843 21.099511879890347 0 0 0
485 1 0.1474435670397689 24.46720279895765 18.88068727336679 0 0 0
451 1 1.7891023870413245 24.598723056596178 20.910533782231497 0 0 0
773 1 3.784559949320824 24.49578617112582 18.83537634886704 0 0 0
739 1 5.319450274896637 24.47933679850192 21.177234759463342 0 0 0
1061 1 6.961895093993501 24.478217096524673 18.85570707542958 0 0 0
1349 1 10.3552664795603 24.440064811387273 18.898704773356915 0 0 0
1315 1 11.876756336982579 24.34126697445648 21.13734877414565 0 0 0
198 1 -1.5350065285329146 26.71785133232314 18.79894229514109 0 0 0
199 1 -1.442053690375448 29.037219731973305 21.009250584974293 0 0 0
521 1 0.13570578236325037 29.01187230908337 18.78787227905772 0 0 0
486 2 2.0932204556559166 26.616444306163704 18.763410938091678 0 0 0
774 1 5.273165470224358 26.71735125400048 18.65239808548523 0 0 0
809 1 3.6721217057278968 28.96914083316616 18.70198973344276 0 0 0
776 1 3.598570307495032 26.818035860532973 21.076640316194567 0 0 0
1062 1 8.776021874221994 26.80489274194241 18.763967891268642 0 0 0
1097 1 6.865766650994155 29.011135729133628 18.78300881132137 0 0 0
1064 1 7.082407676177333 26.824808420138 21.033936399349283 0 0 0
1350 1 11.991783912865838 26.780282715918087 18.7326320562009 0 0 0
1385 1 10.43966214586818 29.067559902952052 18.741162279011352 0 0 0
1351 1 11.987171931842228 28.959641052779826 21.046989508628734 0 0 0
1352 1 10.294413121030727 26.641930737847055 21.151712152703634 0 0 0
234 1 -1.62267232611932 31.2682376289366 18.761597301910736 0 0 0
522 1 2.0070026785189703 31.18540275142933 18.853752118376693 0 0 0
810 1 5.376534238549638 31.444629294962482 18.775429758636545 0 0 0
1098 1 8.667664106571328 31.24577750521926 18.88631586243402 0 0 0
1386 2 12.245284651598373 31.200615758260287 18.741641082802754 0 0 0
272 1 -3.07245528543227 35.785237012563414 21.099164282738705 0 0 0
557 1 0.2205021898147308 33.460797016327504 18.914297345489867 0 0 0
523 1 1.8251008126126886 33.496234603185414 21.118206215279486 0 0 0
845 2 3.5386842060995263 33.48446557784394 18.868422266019067 0 0 0
811 1 5.348684624221434 33.438001845032765 21.042745271508196 0 0 0
1133 2 7.095366017293683 33.487719473428584 18.76598875826164 0 0 0
1421 1 10.563440836371033 33.503263501671555 18.81459673562436 0 0 0
270 1 -1.4929309431985178 35.75889185510805 18.728516194210826 0 0 0
558 1 1.7600920951203585 35.75497285960241 18.71217446733905 0 0 0
305 1 0.046567916285340516 38.06724142371352 18.599753388968846 0 -1 0
593 1 3.670940310835022 38.022453560078176 18.819197650606004 0 -1 0
846 1 5.178750589768612 35.62350050950714 18.88674401753182 0 0 0
848 1 3.5367784017493116 35.70371402744066 21.063829303401107 0 0 0
881 1 6.840072299120747 37.94482229588826 18.873147582793145 0 -1 0
1134 1 8.803766044355738 35.71583857621106 18.829190940868745 0 0 0
1135 1 8.689326775449087 37.95666992756113 21.007517522210385 0 0 0
1136 1 7.020875811068022 35.7639991598814 21.039320492295065 0 0 0
1169 1 10.504272075269387 38.01100051227477 18.813835620153878 0 -1 0
1422 1 12.212760972095918 35.80659949303318 18.670644498478428 0 0 0
1423 1 12.172410596332421 37.96841509689347 21.102043374753144 0 0 0
166 1 -1.5356802740616093 22.13118221153752 23.27996072032778 0 0 0
452 1 0.21701919132574155 22.167754086138604 21.122411032951184 0 0 0
454 1 1.7355892523681997 22.115435115657743 23.428099918335135 0 0 0
742 1 5.314965356707283 22.357789851541842 23.404349417271035 0 0 0
1030 1 8.692803003255808 22.028107963762157 23.537782996774855 0 0 0
1318 1 11.991649630599913 22.278155882490687 23.471753055416507 0 0 0
163 1 -1.4772919978513586 24.554632627019277 21.13442134896955 0 0 0
489 1 0.2891086212699978 24.365981656185202 23.368684521819574 0 0 0
777 1 3.523943153746963 24.591924654150553 23.330648321161366 0 0 0
1027 1 8.59239779943363 24.45921526546358 21.038917722964854 0 0 0
1065 1 7.07138461909285 24.483436931373145 23.374693744188733 0 0 0
1353 1 10.245906913728088 24.478927270908653 23.362981176393337 0 0 0
202 1 -1.3762541995583661 26.76909355259161 23.30734009093483 0 0 0
1173 1 10.308293563452857 37.9438252527909 23.452404688494745 0 -1 0
1426 1 12.26180826316404 35.65121301045144 23.334681124626798 0 0 0
488 1 0.2639480598572739 26.78744701729695 20.956886746173836 0 0 0
487 1 1.9093800162409358 29.008558598867683 20.93312717907548 0 0 0
525 1 0.24313441893148635 29.070727357561058 23.367630136388897 0 0 0
490 1 1.8869400788616555 26.79980368849437 23.324204263913884 0 0 0
775 1 5.255434671728844 28.90890939401305 20.938121989324376 0 0 0
778 1 5.347220758419477 26.759402496668596 23.35601470719412 0 0 0
813 2 3.5709675018573113 29.01987440559623 23.268353543309313 0 0 0
1063 1 8.759594553878467 29.009874481049124 21.070339268689448 0 0 0
1066 1 8.623796704559796 26.816046761373354 23.46317230858361 0 0 0
1101 1 6.845383440218431 28.953349072423396 23.278713871616105 0 0 0
1354 2 11.996371836414223 26.71955475495227 23.434109255888302 0 0 0
1389 1 10.420413069020183 28.844420875205326 23.45035015949817 0 0 0
238 1 -1.5023763989269736 31.16999022953427 23.429964354108275 0 0 0
524 1 0.3022630324048854 31.297411892433598 21.005741136544245 0 0 0
526 1 1.869375560317541 31.379833014382264 23.25009188403192 0 0 0
812 1 3.542727181833498 31.163349234099492 21.079068963321735 0 0 0
814 1 5.272129069644421 31.230240201476988 23.304487744342133 0 0 0
1100 1 6.968602551717979 31.261400018585185 21.170073895116957 0 0 0
1102 1 8.783355416716832 31.190161906369525 23.35223299427606 0 0 0
1388 1 10.400488397344573 31.250212628728107 20.971256014620547 0 0 0
1390 1 12.026608581976504 31.058396158146333 23.380961063838306 0 0 0
235 2 -1.6009310275302464 33.417218965829136 21.024127163931798 0 0 0
561 1 0.10757656240410585 33.471775548047965 23.37047978279355 0 0 0
849 1 3.598877551122093 33.46062179314685 23.376939517094428 0 0 0
1099 1 8.716002933261974 33.44252890276262 21.110990751526142 0 0 0
1137 1 6.9518825405803515 33.39643988532026 23.304500497888483 0 0 0
1387 1 12.135989685406669 33.380464308919144 21.074867853376077 0 0 0
1425 1 10.659518447137547 33.55294578604982 23.217988404095554 0 0 0
271 1 -1.4624447458625682 38.021726169245326 21.070884229501704 0 0 0
274 1 -1.6553389183227878 35.65852930982759 23.492202483375305 0 0 0
560 1 0.13343957180090316 35.687265899077644 21.29468857455802 0 0 0
559 1 1.8442054588995709 37.89997808539244 21.00742462733149 0 0 0
309 2 0.2553368703477381 37.90966885374793 23.41921864422422 0 -1 0
562 1 1.9094505802188473 35.803743014701716 23.34113985353173 0 0 0
850 1 5.203541178037314 35.672361692663735 23.306997259249343 0 0 0
847 2 5.243813931750902 37.95953226124315 21.107995659662205 0 0 0
597 1 3.5355269108795695 37.98920934386976 23.310622503653104 0 -1 0
1138 2 8.786418048583226 35.63238368477067 23.454958536611397 0 0 0
885 1 7.097091272688182 37.91214819409441 23.40570240101731 0 -1 0
17 1 -3.0289458966668925 38.113719806581024 18.797420664348042 0 -1 0
237 1 -3.0199065418436306 28.974456177100564 23.335178735303735 0 0 0
170 1 -1.5416762857441682 22.198185734010785 27.795809550723764 0 0 0
456 2 -0.020061158361243336 22.324581411274067 25.560045053394248 0 0 0
458 1 1.8669475630500787 22.226048253960226 27.776217702474884 0 0 0
744 1 3.6210523775465426 22.383469781829927 25.502803309528577 0 0 0
746 1 5.221232485291525 22.256955370378208 27.870618726397016 0 0 0
1032 1 6.968639062591967 22.275615191613287 25.71926129613699 0 0 0
1034 1 8.709703766598787 22.444759503536595 28.182897807091233 0 0 0
1320 1 10.24512800133488 22.224096005622773 25.72865874506265 0 0 0
1322 1 11.898545447396353 22.40492939710111 27.849896279605343 0 0 0
167 1 -1.6094578638886228 24.679022682488927 25.430763356592198 0 0 0
493 1 0.012819847874494972 24.444562811034885 27.693388131332853 0 0 0
455 1 1.9307955366502543 24.478436620680547 25.458307408179028 0 0 0
781 1 3.6967265905424624 24.410069161421088 27.757280308600766 0 0 0
743 2 5.325204446953158 24.523706748150275 25.559416475740957 0 0 0
1069 1 7.034292924795594 24.6733512633022 27.984396492983166 0 0 0
1031 1 8.755576048984494 24.577407910956186 25.625284597104375 0 0 0
1319 1 11.969305062067388 24.4128437928773 25.579291574066424 0 0 0
1357 1 10.37173862970551 24.648328841219808 27.891462992571096 0 0 0
206 1 -1.4467539618442058 26.841255713139184 27.796430942102077 0 0 0
203 1 -1.3924823537507427 29.03944999580576 25.704594408525256 0 0 0
492 2 0.21189564870097488 26.742209942905088 25.577293083673215 0 0 0
529 1 0.4393154925085967 28.919434142001254 27.795029935879267 0 0 0
494 1 1.9016793558480916 26.5861841500713 27.85691566868006 0 0 0
491 1 1.812805786760062 28.943862879733004 25.526523736551308 0 0 0
780 1 3.646200011178268 26.850431651060227 25.574077020953965 0 0 0
782 1 5.13238678981749 26.83250793325617 27.7713626248516 0 0 0
779 1 5.286100509512822 28.998458283307723 25.49163757441281 0 0 0
817 1 3.5399037087251197 29.006211919275827 27.765942307609983 0 0 0
1068 1 6.890321396233363 26.806885397060586 25.646816190727456 0 0 0
1067 2 8.600938465700441 28.880024823803335 25.714607007266686 0 0 0
1070 1 8.663615892312588 26.91865701079515 27.773552545227535 0 0 0
1105 1 6.924074209756199 29.02804452384341 27.81200204880147 0 0 0
1356 1 10.440613378865846 26.757513793826348 25.61959166906758 0 0 0
1358 1 12.16093606820959 26.88091923088206 27.955993278655605 0 0 0
1355 1 12.267422941832274 28.882824167012814 25.558078927447955 0 0 0
1393 1 10.462859155639041 29.094503864178858 27.875546233676616 0 0 0
242 1 -1.6692822077835194 31.14954238498362 27.859615448973663 0 0 0
528 1 0.19780173630112952 31.290529340413418 25.531884869934657 0 0 0
530 2 1.9809564738341927 31.25346188392674 27.837130884126818 0 0 0
816 1 3.4411996830866793 31.233357971684143 25.54283499348534 0 0 0
818 1 5.218806371009036 31.259343598616553 27.805132812331145 0 0 0
1104 1 7.039563504565507 31.288176092387538 25.51621384083416 0 0 0
1106 1 8.63948631144417 31.35120034571362 27.84228350076391 0 0 0
1392 1 10.206975125210674 31.169712771515307 25.574918662112516 0 0 0
1394 1 12.154121723679886 31.283829266940536 27.95318737769579 0 0 0
1434 2 11.979552297619202 35.88240942365423 32.40893448890107 0 0 0
239 1 -1.5246237670152465 33.44285719245262 25.637340941657072 0 0 0
565 1 0.2390557079813065 33.36449553607184 27.857624829749284 0 0 0
527 1 1.880156333618507 33.53032296449601 25.618564133033058 0 0 0
853 1 3.5595624997622344 33.53348991675651 27.86162059725884 0 0 0
815 1 5.275035926215999 33.45372632500988 25.65753281059696 0 0 0
1141 1 6.97907378700765 33.52593065828134 27.808195029872035 0 0 0
1103 1 8.691260064878053 33.614478659907476 25.44014619194269 0 0 0
1391 1 12.032503623736293 33.38131030569816 25.541619180958815 0 0 0
1429 1 10.286171377032131 33.617899620359765 27.720663043566603 0 0 0
278 1 -1.300641379324845 35.76461417163387 28.059023406071887 0 0 0
275 1 -1.5318552898576214 38.13183243066534 25.504000028933586 0 0 0
564 1 0.12377586632429916 35.77556617905752 25.58891084545281 0 0 0
313 1 0.13527302445723022 38.03614894919117 27.96469122281085 0 -1 0
563 1 1.9427950523738695 37.86568616211912 25.650383390601228 0 0 0
566 1 1.6770305269683603 35.735689082713655 27.741922306313228 0 0 0
852 2 3.559977493454016 35.67921790196661 25.645862008612106 0 0 0
851 1 5.128679649632243 37.8562950857195 25.629955028663993 0 0 0
854 1 5.351245525606464 35.864121046850585 27.915613535048916 0 0 0
601 1 3.3837362149396077 37.959507513143336 27.998344394454975 0 -1 0
1140 1 6.8353739481925455 35.60211601902156 25.581985981062118 0 0 0
1139 1 8.718267959305479 37.69948107151733 25.74259136490921 0 0 0
1142 2 8.725349211439266 35.767710586270766 27.70154944357312 0 0 0
889 1 6.942579776579095 38.00551955135103 27.844416439029906 0 -1 0
1177 1 10.493240144310478 37.95112332172629 27.87091930262301 0 -1 0
1428 1 10.637861276485433 35.715476096345114 25.587374581100423 0 0 0
1430 1 12.281534151531991 35.671821279090466 28.023947657573874 0 0 0
1427 1 12.221622445727167 38.02218341225036 25.5821774504051 0 0 0
174 1 -1.158608066940352 22.243520878120123 32.498621122210984 0 0 0
1431 1 12.149491391479652 37.94028389474642 30.238330174599273 0 0 0
460 1 0.19759911732967028 22.31742662096515 30.06828784313316 0 0 0
462 1 1.831035580024785 22.24779234117351 32.467303109717875 0 0 0
748 1 3.572310549956311 22.09875724685806 30.136434964827192 0 0 0
750 1 5.202717928633351 22.19225586667129 32.4233424494729 0 0 0
1036 1 7.023572672675186 22.290188755285314 30.229544193073533 0 0 0
1038 2 8.586717562428888 22.143199326590764 32.495511623230655 0 0 0
1324 1 10.336847135079992 22.382357624297896 30.238825315718554 0 0 0
1326 1 12.216196059763892 22.410305751453024 32.380653941782356 0 0 0
171 1 -1.5027067462989074 24.437019548631355 30.084411073974547 0 0 0
497 1 0.09704687229328668 24.672077706739135 32.40526117571745 0 0 0
459 1 1.869439197223866 24.445833761167417 29.964228748418876 0 0 0
785 1 3.4316387605369143 24.658063287774308 32.38287177848415 0 0 0
747 1 5.274570742991132 24.5215360350466 30.306378558390513 0 0 0
1073 1 7.0667465622667915 24.385179888805933 32.41048925844335 0 0 0
1035 1 8.675003726448004 24.563996590669817 30.216648535695985 0 0 0
1323 1 12.125920813705491 24.555186026482236 30.078810524356452 0 0 0
1361 1 10.395762804038082 24.378458518331698 32.49771486939295 0 0 0
1432 1 10.229839027154988 35.72335458702384 30.11551086969835 0 0 0
210 1 -1.5113365287740212 26.764352229269026 32.33008174153962 0 0 0
207 1 -1.6347981258012507 28.957333318894637 29.991923322944686 0 0 0
533 1 -0.013158262791856057 29.06059278225763 32.18682510442916 0 0 0
245 2 -3.072215760328801 29.133877214063176 32.47408186688497 0 0 0
496 2 0.19684011212330876 26.75033360780895 30.070005793122615 0 0 0
498 1 1.6885243517497686 26.798445202148823 32.325574078362756 0 0 0
495 1 1.8885873971421696 29.11576465224795 30.133436877624455 0 0 0
784 1 3.3828348636679144 26.76222883757563 30.175636104014732 0 0 0
786 2 5.247304003641478 26.758983283410217 32.27698920591792 0 0 0
783 1 5.238430129805421 28.993093030827662 30.09345770442013 0 0 0
821 1 3.4652447069111143 29.03362942326813 32.364027479752394 0 0 0
1072 1 7.180467548115727 26.82485259044695 30.082652074112605 0 0 0
1071 1 8.615908654226397 29.089062747849724 30.069256996577096 0 0 0
1074 1 8.812535573055571 26.8168076720018 32.459681038408334 0 0 0
1109 1 6.960462827427076 28.92135125330369 32.393148697786785 0 0 0
1360 1 10.34820485515026 26.947705384309085 30.00018969263824 0 0 0
1362 1 11.950280539214418 26.81485753423438 32.2430565874053 0 0 0
1359 2 12.14984123493671 29.127990321117476 30.08618441185796 0 0 0
1397 2 10.48184854306789 29.103882602916308 32.26476726218796 0 0 0
246 1 -1.4655167728992633 31.470162298396335 32.422393084482664 0 0 0
532 1 0.0743521132621856 31.15746837285564 29.99830112835154 0 0 0
534 2 1.9396302639754617 31.351270197059694 32.25375263094365 0 0 0
820 1 3.705269661789512 31.349402686107453 30.152960081055355 0 0 0
822 1 5.306420136945825 31.21407703311349 32.40206003615799 0 0 0
1108 1 6.9255111617808875 31.271218763687948 30.102421184549407 0 0 0
1110 1 8.763171192376324 31.183027191485408 32.39375468994126 0 0 0
1396 1 10.309780211473983 31.200821645395255 30.03095381191618 0 0 0
1398 1 12.061771565600733 31.256318627414107 32.428844945912445 0 0 0
243 2 -1.3634138390043269 33.557699124818384 30.249121947822477 0 0 0
569 1 0.3951770321389665 33.65548411040365 32.38599194432207 0 0 0
531 1 1.7870178457951442 33.36539357597238 30.07340132991615 0 0 0
857 1 3.61001227888679 33.67648326055199 32.24533390895174 0 0 0
819 1 5.3018414334905675 33.554658010109286 30.167820072749823 0 0 0
1145 1 7.021535552057339 33.48019822778444 32.41536065341005 0 0 0
1107 1 8.74743743672784 33.32595550304222 30.092628935859512 0 0 0
1395 1 12.107461712536082 33.53325781922982 30.129248701026402 0 0 0
1433 1 10.334983448254832 33.65137596526699 32.34385709889405 0 0 0
279 1 -1.4032976475807644 38.03595781815331 30.209107742766832 0 0 0
282 1 -1.4786738966714623 35.859015392540954 32.502551810898154 0 0 0
567 1 1.95294076362925 37.993979393453344 30.202991342016187 0 0 0
570 1 2.013671402079679 35.99602437967707 32.31204947485987 0 0 0
568 1 0.30183179799299475 35.77073155117765 30.24083531996006 0 0 0
317 1 0.2415280975677705 38.1118253824139 32.46243742620261 0 -1 0
605 1 3.732232954572669 38.124942926649624 32.36601843930866 0 -1 0
856 2 3.4319144607700216 35.73202410402365 30.028900600711662 0 0 0
855 1 5.153335754909207 37.96689295691932 30.08443687307445 0 0 0
858 2 5.235743855233521 35.731148651609004 32.051053549826506 0 0 0
1146 1 8.663759143612385 35.87270325790922 32.5015359307743 0 0 0
893 1 6.972373929238234 38.15717467478902 32.24734079962761 0 -1 0
1144 1 7.220199411299191 35.77419706120616 30.095729008842603 0 0 0
1143 1 8.754735796302928 38.23058776699692 30.174357998208656 0 0 0
1181 1 10.361337931633797 38.14846216237795 32.44992453971554 0 -1 0
277 1 -3.0454005917894413 33.63729344519834 27.9822731109542 0 0 0
29 1 -2.985149106043991 38.11230818976593 32.45372209067226 0 -1 0
209 1 -2.939195270586069 24.252307081391848 32.27693524272299 0 0 0
276 1 -3.0619248674749358 35.8734508982055 25.683678816795137 0 0 0
168 1 -3.047934309135613 22.306093568047487 25.59736192728787 0 0 0
178 1 -1.4645298323560338 22.179490973706322 36.79743151859391 0 0 0
1439 1 12.079924504569767 37.92033801505627 39.11860784702901 0 0 0
464 1 0.38612633831611376 22.02781849196091 34.76432251674771 0 0 0
466 1 1.9805624992871134 22.28879371062275 36.99320110337597 0 0 0
752 1 3.6539650724628436 22.2875615046535 34.785719691813014 0 0 0
754 1 5.315577389958952 22.22068427133532 37.06878446306807 0 0 0
1040 1 6.740944934872834 22.265072822368168 34.67956281227126 0 0 0
1042 1 8.525577177203559 22.231600549688807 37.1193526144625 0 0 0
1328 1 10.454028178038532 22.19496854688895 34.81040710787951 0 0 0
1330 1 12.162843063092392 22.287992541091864 37.05109614567105 0 0 0
175 2 -1.4247018039639887 24.291566419726262 34.64282765413326 0 0 0
180 1 -2.9498993662919273 22.147628096507344 39.28310817923676 0 0 0
501 1 0.21725786165800587 24.422708560384258 36.907962799175564 0 0 0
463 1 1.795302537193224 24.5554448768073 34.612656053566084 0 0 0
789 1 3.7480546249314277 24.73209566014477 36.92517428671894 0 0 0
751 1 5.262011991193782 24.614887605206643 34.5799578519504 0 0 0
1077 2 6.897298668899198 24.59252659357269 36.94094802468791 0 0 0
1039 1 8.580782471923259 24.374874979043845 34.75435031140145 0 0 0
1327 1 12.05913675793922 24.446816258355625 34.6605052565661 0 0 0
1365 1 10.34503747740754 24.43145463269714 36.90689545107078 0 0 0
214 2 -1.5637732144301677 26.788852433812405 36.918226724773945 0 0 0
211 1 -1.4139579436200114 29.06680364561093 34.71996279549458 0 0 0
181 1 -3.013626292697836 24.38622117059991 41.39814090081997 0 0 -1
500 1 -0.017713350318145693 26.644908986949563 34.651744175999255 0 0 0
502 1 1.792083170606681 26.786338990383268 36.90218525497875 0 0 0
499 1 1.6040970145425821 28.994816515273776 34.598698962330616 0 0 0
537 1 0.21430804468900222 29.02320714119417 37.019723537473936 0 0 0
788 1 3.57716436777111 26.91252139968297 34.53619422178657 0 0 0
790 1 5.420268486419966 26.918316878599363 36.71874963201111 0 0 0
787 1 5.360011108528324 29.042296011892535 34.47007008652683 0 0 0
825 1 3.563460280488759 28.901503093540608 36.705085173661615 0 0 0
1076 1 7.0577833951863 26.770266931494543 34.60828518865743 0 0 0
1078 1 8.56368082493432 26.75303091780096 36.903349689386644 0 0 0
1075 1 8.831696168618233 28.867594796126504 34.67022434494419 0 0 0
1113 2 7.088269971135539 29.093554733542973 36.79082346007621 0 0 0
1364 2 10.391536343143907 26.581766620135195 34.81412348922808 0 0 0
1366 1 12.25371140415503 26.73770897252003 36.94689827004866 0 0 0
1363 1 11.965518264839387 28.953941625337585 34.581882947297316 0 0 0
1401 1 10.4403260531216 28.919904556387895 36.858367218121046 0 0 0
250 1 -1.2832535245353764 31.49461142491508 36.93726968106624 0 0 0
536 1 0.2790692430848276 31.257373715830834 34.55810889840744 0 0 0
538 1 1.8454746663667225 31.292919109006085 36.96212888505809 0 0 0
824 1 3.336364406940444 31.016340583983357 34.629014984246425 0 0 0
826 1 5.153446545295131 31.10856584806783 36.80971746187184 0 0 0
1112 1 7.2396462338058996 31.04028673810977 34.770972812693174 0 0 0
1114 1 8.97517980319309 31.440187082777108 36.93419243784663 0 0 0
1400 1 10.5250852263483 31.197431671833634 34.571482109224064 0 0 0
1402 2 12.033753481109807 31.301701103325236 37.03267780190825 0 0 0
247 1 -1.3142441964591969 33.559909722255114 34.520476094966014 0 0 0
573 2 0.23873120450966567 33.77723137279672 36.708213551480796 0 0 0
535 1 2.0764499320545906 33.55165863014243 34.65937077531311 0 0 0
861 1 3.884725439055908 33.678483138054716 36.7352236075192 0 0 0
823 2 5.200428220185158 33.10515900130348 34.5665414835408 0 0 0
1111 1 8.816141949453204 33.47439727996769 34.68389472561485 0 0 0
1149 1 6.901821813232834 33.5164807644452 36.65561879885854 0 0 0
1399 1 12.08291934274289 33.606487686397 34.55873335512966 0 0 0
1437 1 10.51345525068355 33.742340667626436 36.87006314168586 0 0 0
286 1 -1.596852465159053 35.7561258063253 36.84642411182733 0 0 0
283 2 -1.4141484170396015 37.98859464024099 34.787079271437335 0 0 0
216 1 -3.0999687738418373 26.67425219192488 39.22308428961804 0 0 0
572 1 0.4309262273856618 35.706299734148814 34.72987229482453 0 0 0
571 1 2.0970372380937854 38.06158101302174 34.754144476712696 0 0 0
574 1 2.1742031934408304 35.76672442293727 36.8775809737014 0 0 0
321 1 0.3947115551523668 38.08812651201219 36.85252363089852 0 -1 0
860 1 3.852796677249446 35.587050803418194 34.465782602155954 0 0 0
859 1 5.330067936339269 38.04060503283987 34.63069617533861 0 0 0
862 2 5.433112967964535 35.930210357440714 36.77195565183675 0 0 0
609 1 3.721233010771354 38.290360863290765 36.954391156922625 0 -1 0
1148 1 6.683619609060191 35.491588807169244 34.43211947094471 0 0 0
1150 1 8.497294730643116 35.819113901311184 36.76234425116557 0 0 0
1147 1 8.60960981465494 37.91210020632986 34.572665872586384 0 0 0
897 1 6.845668643875696 38.18287325864792 36.884483797838186 0 -1 0
1185 2 10.273839313396046 37.97490874137771 36.750443551884274 0 -1 0
1436 2 10.391530172585613 35.80474947261018 34.68771448475391 0 0 0
1435 1 12.219334612250245 38.018429802400426 34.73488856032806 0 0 0
1438 1 12.15066061265115 35.89156488000946 37.01413082851316 0 0 0
289 1 0.3978484146074899 37.989062332750194 41.3518744123009 0 -1 -1
468 1 0.17000168117525893 22.183668423858897 39.199886821450264 0 0 0
756 1 3.688166457289777 22.218283279824632 39.24735162988675 0 0 0
1406 1 11.966893586384316 35.737595183912866 41.39182168796961 0 0 -1
1334 1 11.827723296992426 26.658918681543987 41.35509244771599 0 0 -1
1044 1 7.0476612713439355 22.0954538532832 39.388986574866905 0 0 0
1332 2 10.188376477403146 22.10439211838063 39.20924706667445 0 0 0
829 1 3.777161878459626 33.55930858793246 41.27532116714778 0 0 -1
179 1 -1.3751497938593347 24.495387349288073 39.11989231015798 0 0 0
254 1 -1.668697014000083 35.81595313521002 41.41969786655335 0 0 -1
467 1 1.9640387449528593 24.45663337512752 39.12613603987549 0 0 0
755 1 5.443415232867213 24.32671043894169 39.29479120285556 0 0 0
1043 1 8.668052663985305 24.38963003047058 39.03737192868475 0 0 0
1117 1 7.12622627290458 33.5315074204471 41.225195136444796 0 0 -1
1331 1 11.956305153566605 24.558854613069588 39.2005742738434 0 0 0
182 1 -1.4794134955040357 26.655816655131144 41.41585958839646 0 0 -1
215 1 -1.633567060638707 29.031217591394377 39.17766004436126 0 0 0
794 1 5.419820249485026 31.29099303140901 41.40658159578865 0 0 -1
504 1 0.12658419714812252 26.85816784426799 39.18737109651478 0 0 0
503 1 2.0702130775338223 28.855731166526052 39.0722982090294 0 0 0
212 1 -2.950272117928691 26.700122532711845 34.62117971204724 0 0 0
1151 1 8.814778340784242 38.01538258930642 39.16356586149668 0 0 0
863 1 5.197838018474048 38.112259876942844 39.37929777070801 0 0 0
792 1 3.7372184938265103 26.600111242553062 39.24561507566875 0 0 0
791 1 5.312295146025283 28.97123728951036 39.11052349879577 0 0 0
1080 1 6.895116303643412 26.707746683687624 39.118607953779545 0 0 0
1079 1 8.603653790557056 28.930934894668944 39.20982544804674 0 0 0
865 2 7.161605448846675 38.21869593667279 41.40429052741146 0 -1 -1
1368 2 10.29842659656309 26.689968907031563 39.02977780417237 0 0 0
1367 1 11.951498802826745 28.945429294346056 39.13909337054591 0 0 0
540 2 0.31249769931194304 31.00160425706056 39.16064179324472 0 0 0
830 1 5.636254247796877 35.83052637736242 41.442032222668544 0 0 -1
1152 1 7.043899589581095 35.87847735217412 39.142980656539834 0 0 0
828 1 3.809753904141974 31.33054700885752 39.11501835578875 0 0 0
1116 1 7.090029736516234 31.172614641782637 39.0795641131173 0 0 0
1404 1 10.358220923777239 31.144980709262594 39.259036887192735 0 0 0
251 1 -1.2035380397121869 33.50024875357619 39.08921017347326 0 0 0
539 1 1.885685571570447 33.41830328878643 38.95883249936328 0 0 0
864 1 3.6708431332944342 35.79582733457058 39.07063100699301 0 0 0
827 1 5.517879472673208 33.520873321236465 39.09562260529745 0 0 0
575 1 1.9964114607919066 38.11278846070452 39.03799980182525 0 0 0
1115 2 8.726498632017167 33.52013639722702 38.99486640570865 0 0 0
1403 1 12.10803697061408 33.53876296471579 39.14140067338211 0 0 0
1440 1 10.320852489994525 35.83343787242355 39.08852822000294 0 0 0
287 1 -1.5799090225355477 37.913809613807906 39.07091501035195 0 0 0
576 1 0.229128392556198 35.824228173493616 39.135737505457385 0 0 0
1333 1 10.186784456614944 24.432920985328156 41.34368543044502 0 0 -1
218 1 -1.4796897967081255 31.257416127467177 41.40313729670305 0 0 -1
505 1 0.2739189822168959 29.03458020616929 41.29641593033698 0 0 -1
542 1 2.0166286461860303 35.72372038839885 41.343155587554804 0 0 -1
469 1 0.2694165162598985 24.41408620369526 41.43310430549741 0 0 -1
541 1 0.26605374229379475 33.57574719421042 41.32598935448067 0 0 -1
758 1 5.4470828636152735 26.626942296452327 41.373786954282586 0 0 -1
1369 1 10.505932517291985 29.1142853190056 41.411038683011995 0 0 -1
1045 2 7.103620486123027 24.42797177374875 41.40602176787881 0 0 -1
470 1 1.929963181587357 26.726810048125923 41.336056111638264 0 0 -1
1444 2 13.965572196348315 3.985358175656934 3.0457555470900743 0 0 0
1732 1 17.17565088410903 4.059661902859697 2.8873768684742993 0 0 0
2629 1 27.214044186822363 6.349391499353723 0.7787209300979638 0 0 0
2020 1 20.44189633132959 4.1744822294181025 2.981178502527083 0 0 0
2308 1 24.003403835227548 4.129070148958789 2.9080062636962802 0 0 0
2596 1 27.08529133487334 4.223546549518916 3.1152826837938377 0 0 0
1443 1 15.455548894472308 6.288625038172655 2.897355895916932 0 0 0
1731 1 18.627916494458184 6.268718718656304 2.9184335565474235 0 0 0
2053 2 20.50057523713902 6.398438721912348 0.9463671241801117 0 0 0
2019 1 22.285548300205946 6.174899772429942 3.0380543613008317 0 0 0
2307 1 25.465401820807465 6.535699122825228 3.099121388476557 0 0 0
2418 2 25.413718021772883 17.740887172052517 5.1568934174553185 0 0 0
1480 1 13.870615529093097 8.564166724891503 3.009353850110927 0 0 0
1479 1 15.355849029981528 10.914019890739533 3.0498227975973333 0 0 0
1768 1 17.066233033005744 8.650117635957368 2.999930543633812 0 0 0
2449 1 23.96272709251726 19.857693269085104 0.7712643830142831 0 0 0
1767 1 19.025289542463394 10.946716274473935 2.9205029567461542 0 0 0
2056 1 20.496344992831506 8.455316380692345 2.904966477500315 0 0 0
2055 1 22.030208051125424 11.034288102183634 2.92064756470172 0 0 0
2344 1 23.873966250674723 8.682865571296945 3.1533087433336693 0 0 0
2054 1 22.36529923654201 8.665711715433368 0.8723473415787413 0 0 0
2377 1 23.935121995292803 10.864242159771349 1.0249591071653743 0 0 0
2343 1 25.84978885175174 10.965976081089673 3.062708141204204 0 0 0
2632 2 27.288650675805346 8.516156180888267 3.194974763676893 0 0 0
1516 1 13.665174733283084 13.197050069376795 3.041302036180431 0 0 0
1804 2 17.13019623859047 13.056223421733893 2.962686400624957 0 0 0
2092 1 20.57464384838609 13.31433289290194 2.8772240567781715 0 0 0
2380 2 23.997128822472956 13.111099753008341 3.0185423807966343 0 0 0
2125 2 20.522570861645576 15.385518536306341 0.8852903847865402 0 0 0
2668 1 27.323537798705427 13.227667102865782 2.948284410919005 0 0 0
1515 1 15.544665766147514 15.287373401924693 2.976130776722431 0 0 0
1803 1 18.726337303768638 15.45519801346259 2.9548842567073415 0 0 0
2741 1 27.22063439719319 19.835416344703617 5.2781563942643634 0 0 0
1838 1 18.849558267808376 17.675275847138415 0.7924307366903365 0 0 0
2091 1 22.381984930877863 15.38234456735872 2.864143508261619 0 0 0
2342 1 25.703087338577376 8.621917757903514 0.7704666787842274 0 0 0
2379 1 25.508643483569884 15.378544876987712 3.115135975306709 0 0 0
1552 2 13.92407008027159 17.536857155346333 3.0068624428602346 0 0 0
1551 1 15.345684713276466 19.966232219354357 3.035451033430394 0 0 0
1840 1 16.956217882199578 17.69985516602506 2.912959760548758 0 0 0
1839 2 18.777677508761396 19.895189489137096 3.0982283752991364 0 0 0
2128 1 20.587434713175103 17.604886254450655 3.0375944234075063 0 0 0
2127 1 22.243382355179552 19.860604420286585 2.988328095800141 0 0 0
2416 1 23.96588436063202 17.59499983325026 2.7871614484355067 0 0 0
1514 1 15.52394175850199 13.208573377852703 0.7173412015838764 0 0 0
2704 1 27.187836816256905 17.683812925872274 2.9414433715693877 0 0 0
2415 1 25.627196345880463 19.86018559258783 3.0432669292081926 0 0 0
1448 1 13.788306900072115 3.989057710687434 7.542245597164848 0 0 0
1446 1 15.44509584157121 4.152683693702128 5.323854402684795 0 0 0
1736 1 17.329424107180824 3.931008869834163 7.466993622320715 0 0 0
1734 1 18.68540310911703 4.079840745898176 5.139251580451738 0 0 0
2024 2 20.336451180518708 4.1298349450110265 7.453785946182055 0 0 0
2022 1 22.30151595993418 4.118317895070007 5.245035175198963 0 0 0
2312 1 23.87484966811579 4.240608010533188 7.592997790570629 0 0 0
2310 1 25.43890054573942 4.146316963265184 5.317951419861868 0 0 0
2600 1 27.300967652103097 4.244897209749864 7.498137017824526 0 0 0
1481 1 14.090812428207528 6.353816626857002 5.375084964521212 0 0 0
1447 2 15.682610651799965 6.149189090844966 7.632621392249629 0 0 0
1769 1 17.206668591397506 6.405626478407348 5.229937017924935 0 0 0
1735 1 18.903147833046372 6.342069856642769 7.306048451379099 0 0 0
2057 2 20.59231987003835 6.279808287531562 5.148871857375756 0 0 0
2023 1 22.000264819440787 6.357790068495201 7.49625933511231 0 0 0
2345 1 23.92057585533725 6.452917155337399 5.370743495409123 0 0 0
2311 2 25.59847542949647 6.530903740161836 7.679159251660198 0 0 0
2633 1 27.274220809709348 6.435921357965083 5.31565737258706 0 0 0
1484 1 14.077563643868036 8.74164114305125 7.543394243485349 0 0 0
1482 2 15.471234371954374 8.715632180457852 5.202087060673356 0 0 0
1483 1 15.682067268239145 10.857647008046039 7.207210285909828 0 0 0
1517 1 13.637979024312457 10.892309705789527 5.170516187274495 0 0 0
1772 1 17.14365138116234 8.559711319505265 7.496992600546118 0 0 0
1770 1 18.896698358116844 8.601474008295451 5.198566566896492 0 0 0
1771 2 18.743422180257205 10.935501482936576 7.574874613322513 0 0 0
1805 1 17.380914063975432 10.945912708350006 5.127921214149549 0 0 0
2060 1 20.378576569819078 8.701975151167474 7.559838376952391 0 0 0
2093 1 20.475091682321125 10.868434140272013 5.280583975970634 0 0 0
2059 1 22.29077991070787 10.890207377045458 7.518049743307142 0 0 0
2348 1 23.709459343446916 8.626603909966486 7.539900425319066 0 0 0
2058 1 22.186278872818935 8.71364508774598 5.26560175216528 0 0 0
2381 1 23.806403144468415 11.036498262001746 5.2960479938980125 0 0 0
2347 1 25.450253318868047 10.90867766593699 7.448339843697432 0 0 0
2636 1 27.33343233492871 8.67687595683876 7.508489711464245 0 0 0
2346 1 25.57996457019708 8.734011361537036 5.3894227600349645 0 0 0
2669 1 27.433084478324588 10.910728063709586 5.399766868098415 0 0 0
1518 1 15.557889460432865 13.144741265943667 5.152192721690513 0 0 0
1520 1 13.898084335813312 13.220885388013064 7.610371965148401 0 0 0
1808 1 17.18479826513762 13.207196123505135 7.372482728311262 0 0 0
1806 1 18.914699490865733 13.154467341351982 5.14407370708891 0 0 0
2096 1 20.466609768170134 13.098499526690492 7.597251573003919 0 0 0
2094 1 21.958715651306058 13.303823372722023 5.229512731138168 0 0 0
2384 1 23.851512629417055 13.333366167774665 7.345649119200922 0 0 0
2382 1 25.7006569929199 13.246804035831234 5.262894835542724 0 0 0
2672 2 27.359495883503858 13.080408630138328 7.566498343822156 0 0 0
1519 1 15.460399951141309 15.388334254327786 7.5608532372956825 0 0 0
1553 1 13.902892005960844 15.33631386281785 5.1820732516204036 0 0 0
1841 1 17.096286480098883 15.390363521634246 5.19113109294829 0 0 0
1807 1 18.72116438883981 15.425835323009023 7.464914729862383 0 0 0
2129 2 20.421860674999483 15.656496077421878 5.092051919231809 0 0 0
2095 1 22.139683054361697 15.38990812778645 7.416265217150967 0 0 0
2417 1 23.942420689848213 15.41042507969911 5.279166831589124 0 0 0
2705 1 27.325007007760057 15.49105996294465 5.25456193148846 0 0 0
2383 1 25.620516193709534 15.262517073374603 7.446601964851576 0 0 0
1556 1 13.795911811938137 17.692727116313648 7.407018245315148 0 0 0
1554 1 15.477325664216664 17.618834324224387 5.262179365284155 0 0 0
1555 1 15.515578281561382 20.122424300394666 7.449965612062367 0 0 0
1589 2 13.7549847422308 19.987086653590698 5.326727734114695 0 0 0
1843 2 18.872683948665543 19.90603725896217 7.481533859775233 0 0 0
1844 1 17.26891412609198 17.667164383024478 7.576213426878022 0 0 0
1842 1 18.65292165715392 17.780408043419698 5.12282661956429 0 0 0
1877 1 16.977794364855555 19.93008541070794 5.25182300249782 0 0 0
2132 1 20.576751843993197 17.665346563477776 7.259070838075683 0 0 0
2131 1 22.379892431224786 20.065236505325295 7.406200498064724 0 0 0
2165 1 20.505825998255926 19.868152057610097 5.248418320946829 0 0 0
2453 1 23.849954819607152 20.134784319368567 5.317770759318119 0 0 0
2420 1 23.929338020599165 17.6584805502565 7.43034498644599 0 0 0
2130 1 22.497786733282 17.663198533077814 5.147393948849583 0 0 0
2419 1 25.541908866942435 19.95166008696315 7.529293160549457 0 0 0
2708 1 27.24938670159266 17.702675935133666 7.408581867952545 0 0 0
2090 1 22.2824365282037 13.191172070308745 0.7390131383961552 0 0 0
1766 1 18.737966123992134 8.631634708655465 0.7504883738840764 0 0 0
2161 1 20.43248311768097 19.838920151533657 0.7985939302875273 0 0 0
1801 1 17.191471910485692 10.804515259194796 0.796587049397307 0 0 0
1585 2 13.852286531312352 20.139161657403132 0.7187408661319523 0 0 0
1513 1 13.77630019315258 10.7623933031423 0.7267689070115324 0 0 0
1802 1 18.71409759363935 13.198127915564509 0.7383845386763568 0 0 0
1549 1 13.721203994843506 15.359950821574019 0.7121296331782645 0 0 0
1477 1 13.849563123109807 6.355927707543767 0.7625745887586532 0 0 0
1837 1 17.034349083557657 15.476942799438817 0.7291917076771597 0 0 0
1452 1 13.883308652195208 3.933099607360437 11.942996375013214 0 0 0
1450 1 15.679012919809018 3.878771370106966 9.789771298939561 0 0 0
1740 1 17.098038948623913 4.151288924724119 12.057122143189389 0 0 0
1738 1 18.85580814844788 4.004864315299794 9.924907183537767 0 0 0
2028 1 20.703604703412243 4.000452647271558 12.02624328034061 0 0 0
2026 1 22.157146801200074 3.9140603508610297 9.663481161138973 0 0 0
2316 1 23.96638393202274 4.191918144551067 12.02618085069772 0 0 0
2314 1 25.589389854880125 4.23993617318293 9.759621290913413 0 0 0
2604 1 27.18072262140619 4.2638374605769 12.17161971901391 0 0 0
1485 1 13.958461804499759 6.2170035413468065 9.750919419760498 0 0 0
1451 1 15.418464377008629 6.369902791752985 12.291215186377304 0 0 0
1773 2 17.198458291277404 6.2796574328353705 9.863803075518932 0 0 0
1739 1 19.030117244051148 6.331364511464293 12.045777449429542 0 0 0
2061 1 20.42522047630249 6.242048308978777 9.702679601645237 0 0 0
2027 1 22.07132515877604 6.314523955397319 12.000380831485916 0 0 0
2349 1 23.733522694753635 6.371790262505893 9.713402612655054 0 0 0
2315 2 25.531226289059237 6.450938659480218 11.958955588596961 0 0 0
2637 1 27.361181010959427 6.374563758918367 9.804526163940887 0 0 0
1488 1 13.79590389402821 8.731627599860731 11.996174080297662 0 0 0
1486 1 15.57816845631232 8.502831653361575 9.891521591060561 0 0 0
1487 1 15.483399423483018 10.93315551476684 11.9659054735928 0 0 0
1521 1 13.886422215584624 10.928423206450876 9.7367057660976 0 0 0
1776 1 17.25945732930349 8.600242350215858 12.194970500833463 0 0 0
1774 1 18.83640571743766 8.675330837954188 9.765604857582128 0 0 0
1809 1 17.01883500397779 10.792793445772125 9.763056852612534 0 0 0
1775 1 18.92576204934427 10.87331470654763 11.981699175003847 0 0 0
2064 1 20.531178489186846 8.587443487866082 12.039301037372972 0 0 0
2097 1 20.48625685721545 10.831469163973859 9.853798396445427 0 0 0
2063 1 22.124593392940564 10.970999926906957 12.072789326469518 0 0 0
2062 1 22.19094994068265 8.559493904120309 9.783468323228977 0 0 0
2352 1 23.92028409886163 8.678443943695079 11.954368119498646 0 0 0
2385 1 23.954686339857407 10.808642669206792 9.728784793743957 0 0 0
2351 1 25.678416797598835 10.957775497581695 12.012368332465938 0 0 0
2640 1 27.239156184896814 8.730851223230786 11.971283437916108 0 0 0
2350 1 25.540459632026714 8.670294878943988 9.689889475556718 0 0 0
2673 1 27.24103084725687 10.985039626576867 9.79942582513916 0 0 0
1522 1 15.585610959838778 13.297516002386619 9.694393464498818 0 0 0
1524 1 14.018367090088798 13.254720738960021 12.018321590744577 0 0 0
1810 1 18.72141873107999 13.069869163316971 9.674904137982193 0 0 0
1812 1 17.10360418771058 13.270537311236755 12.005347688953467 0 0 0
2100 1 20.512831008233213 13.28944731285542 12.014197568201325 0 0 0
2098 1 22.237518743311096 13.11065091178705 9.718616944901092 0 0 0
2388 1 24.040768475246452 13.259376308486438 12.130035883424249 0 0 0
2386 1 25.50726994682776 13.164376112334057 9.767785904755879 0 0 0
2676 1 27.199747275146276 13.30937339668435 12.106813786311879 0 0 0
1523 1 15.549788751627453 15.53615664668969 11.982908035162465 0 0 0
1557 1 13.698380400386398 15.541316582665887 9.700979030277242 0 0 0
1845 1 17.282973334167245 15.580035018633415 9.68119118629274 0 0 0
1811 1 18.789450777948087 15.39050790293658 11.998088293704477 0 0 0
2133 2 20.391089945973288 15.39531236298703 9.704074823228245 0 0 0
2099 1 22.295301468688702 15.487089590791529 11.89754452319252 0 0 0
2421 1 23.89669192904644 15.63128237786256 9.66836089621991 0 0 0
2387 1 25.375785766125077 15.565293947202479 11.971619628058312 0 0 0
2709 1 27.13087984282793 15.3202253966943 9.8100645493494 0 0 0
1560 1 13.762390816620847 17.722857516941858 11.986922088865287 0 0 0
1558 1 15.46965829954831 17.589800067238656 9.770108076879081 0 0 0
1559 1 15.435957903158897 19.860095680173774 12.160615484130181 0 0 0
1593 1 14.04638897988523 19.92420794877575 9.699387128346666 0 0 0
1848 1 17.436244337453306 17.836312786996633 11.888051291284484 0 0 0
1881 1 17.107120982042836 20.058432394064543 9.646946871949352 0 0 0
1847 2 19.034455549102475 20.040444870189145 11.740328573169219 0 0 0
1846 1 18.8539021513281 17.75231128626301 9.617720885400017 0 0 0
2136 1 20.547866361748493 17.650707208284018 11.926984153590057 0 0 0
2169 1 20.670648372926674 19.901960473753984 9.641137078976616 0 0 0
2134 1 22.194582642581462 17.721383463477196 9.699568218098916 0 0 0
2135 1 22.09077519665967 19.86884493899631 12.045165024076509 0 0 0
2424 2 23.91305019742269 17.866398575999312 12.104135767342434 0 0 0
2457 1 23.851161772769988 19.924648667271537 9.90466292795889 0 0 0
2422 1 25.660111670437473 17.578354747855848 9.805503432461194 0 0 0
2712 1 27.302787826001044 17.58571506392273 12.148425557328693 0 0 0
2423 1 25.757319563773002 19.843350146914627 12.03411937616862 0 0 0
2745 1 27.352803959852587 19.985990202683407 9.813969053613334 0 0 0
1456 1 14.111079384226194 4.0489401397566755 16.553082494745013 0 0 0
1454 2 15.483902240829405 4.095418119125258 14.266165485372586 0 0 0
1744 1 17.172488796960376 4.167038857868546 16.537445697443523 0 0 0
1742 1 18.90232604691513 4.061800026732385 14.244270230118113 0 0 0
2032 1 20.61990656639203 4.088073323244392 16.4662847991559 0 0 0
2030 2 22.274362147765316 4.197418588875819 14.415234783512451 0 0 0
2320 1 23.822800893160604 4.153393161325901 16.67501628930986 0 0 0
2318 1 25.3668786830398 4.104098574375553 14.45183733235431 0 0 0
2608 1 27.12558377513623 3.988469509320491 16.587130570658456 0 0 0
1489 1 13.703320572506136 6.239287038264428 14.477154613795532 0 0 0
1455 1 15.48879496119595 6.474092463409845 16.464312795267986 0 0 0
1777 1 17.352607983184573 6.375795233963423 14.38678980536529 0 0 0
1743 1 18.849308885738765 6.378290241994324 16.717839170023353 0 0 0
2065 1 20.437408866577215 6.326942904232103 14.36385675139415 0 0 0
2031 1 22.248340065693974 6.375138835726784 16.511762306109173 0 0 0
2353 1 23.8958712404993 6.445081827390716 14.132295725024914 0 0 0
2319 2 25.536701997010308 6.299389724373407 16.58689235318216 0 0 0
2641 1 26.979009541490356 6.38750288253483 14.341448197386999 0 0 0
1492 1 13.72339395139701 8.770800988641351 16.49035743311846 0 0 0
1490 1 15.388886050489464 8.43086480668012 14.311929346680056 0 0 0
1491 1 15.420845231146199 10.883395338771496 16.587638572628222 0 0 0
1525 2 13.862126616358111 10.890382442863658 14.329097813429879 0 0 0
1780 1 17.163219716176233 8.647544848542825 16.569636637919857 0 0 0
1813 1 17.283278959591655 10.85898251652035 14.22820955895542 0 0 0
1779 1 18.816334583788276 10.776705293421198 16.620797301367443 0 0 0
1778 1 18.905719150025455 8.643266267731317 14.376846091406215 0 0 0
2068 1 20.711575624197483 8.61396022806612 16.551281422111956 0 0 0
2101 2 20.477919841892906 10.97695825715518 14.36103044639047 0 0 0
2067 1 22.210819388121198 11.027610194360886 16.601501429837615 0 0 0
2066 1 22.18611375622541 8.572096857173278 14.222913929537189 0 0 0
2356 1 23.854408392305928 8.649092564697845 16.367851517978618 0 0 0
2389 1 23.923097782250107 10.936059897961645 14.372031306060423 0 0 0
2644 1 27.269779920997863 8.600227818188689 16.53862390203539 0 0 0
2354 1 25.588008884868422 8.78220314747248 14.218569173234412 0 0 0
2355 1 25.513285526808907 10.904726895437028 16.522182472282232 0 0 0
2677 1 27.24915155331963 10.876012876348 14.410757816457947 0 0 0
1526 1 15.592008609483468 13.148204014936924 14.448988927556499 0 0 0
1528 1 13.712736668879387 13.402657069994667 16.63836221033955 0 0 0
1816 1 17.444103720222643 13.212443516211874 16.552280435917098 0 0 0
1814 1 18.879937669014904 13.33967494160386 14.208010417246983 0 0 0
2104 1 20.433844423054694 13.224360312235387 16.534834229574486 0 0 0
2102 1 22.17278014139059 13.214743435017164 14.32177297878449 0 0 0
2392 2 23.90477690881803 13.307297934646845 16.637657874181635 0 0 0
2390 1 25.572858876739843 13.258129454203708 14.431866776156957 0 0 0
2680 1 27.11412638621789 13.101782930878466 16.650590257120896 0 0 0
1527 2 15.544615554843102 15.419416942273594 16.652635890738985 0 0 0
1561 1 13.977818217387945 15.463873763992884 14.221023631245645 0 0 0
1849 1 17.009073788197295 15.497729902657086 14.292585727815494 0 0 0
1815 1 18.96455776491847 15.588078404893343 16.32788626670184 0 0 0
2137 1 20.730320851641427 15.54392184338929 14.097581409079378 0 0 0
2103 1 21.98919283254288 15.488628805169533 16.48927801305213 0 0 0
2425 1 23.86887127718253 15.470390002482565 14.425649612607858 0 0 0
2391 1 25.619209604383684 15.421966057494812 16.474421388561886 0 0 0
2713 1 27.310402011901985 15.410733865035386 14.310996566748102 0 0 0
1564 1 13.998171284101101 17.635814424447815 16.383607613032215 0 0 0
1563 1 15.516123801817834 19.979690982952416 16.45385674372983 0 0 0
1597 1 13.71552771952436 19.86066580761609 14.250214876307608 0 0 0
1562 2 15.663300557458712 17.861785691994754 13.97605618660945 0 0 0
1852 1 17.273583342012422 17.815451663302888 16.371208072266597 0 0 0
1885 1 17.33717314833809 20.0177501899911 14.24227172552992 0 0 0
1850 1 18.83389133911433 17.70719655661533 14.171529427246785 0 0 0
1851 1 18.91646262341019 20.131491260419043 16.528940702883965 0 0 0
2140 1 20.55091991477929 17.774637735970025 16.433760182218748 0 0 0
2173 1 20.402193635418634 20.064406586891486 14.228846802406458 0 0 0
2138 1 22.230526152015937 17.709406533091645 14.240145636365646 0 0 0
2139 1 22.49424998769717 20.0020509663469 16.248840483172213 0 0 0
2428 2 23.884119007601438 17.51231375797449 16.567781876974713 0 0 0
2461 2 24.053119287969235 19.899472534618507 14.062107213364486 0 0 0
2427 1 25.510516355326704 19.895906367937595 16.56704677476239 0 0 0
2716 1 27.462366178920277 17.856799524616292 16.531175314307127 0 0 0
2749 1 27.20379874078396 19.843162292002212 14.409502969864208 0 0 0
2426 1 25.62329598712101 17.543260589099418 14.264426842536958 0 0 0
1458 1 15.653918420573397 4.073391962393976 18.80720710424582 0 0 0
1746 1 18.92189966891188 4.13962058912811 18.85500004877049 0 0 0
2034 1 22.09461862459329 4.082555334337443 18.93653155912584 0 0 0
2324 1 24.010917411787908 3.884922698957933 21.185924255687752 0 0 0
2322 1 25.53930648711426 4.14735910263126 18.859429447041816 0 0 0
2612 1 27.267183276347048 4.079051131877983 21.030710827056325 0 0 0
1493 1 13.896170812208037 6.392339742206308 18.7891787169523 0 0 0
1781 1 16.94518119210254 6.446818763246691 18.8239275086783 0 0 0
2069 1 20.57227250762161 6.481736919683219 18.94534755415572 0 0 0
2357 1 23.674191904298546 6.419916189392796 18.953125833578838 0 0 0
2645 2 27.291366303220002 6.329465438328998 18.706155773742168 0 0 0
2323 1 25.440758056781196 6.374703926646257 21.10748930637601 0 0 0
1494 1 15.431342820726176 8.738439814546737 18.716560704191792 0 0 0
1529 1 13.761673540867122 11.021890602577654 18.686310693172587 0 0 0
1496 1 13.706731543713971 8.540276300198268 21.086472261514512 0 0 0
1782 1 18.803550530052973 8.725686255049126 18.807019737084445 0 0 0
1817 1 17.063123065949338 10.949673856399945 18.862787171796707 0 0 0
1784 1 17.13897498153292 8.654122104024864 21.10090558804213 0 0 0
2105 1 20.600124314815748 11.024381451220467 18.927802550161864 0 0 0
2072 1 20.473303351304438 8.545828171004192 21.213467151087194 0 0 0
2070 1 22.10681375232862 8.714079052032481 18.837675610117035 0 0 0
2393 1 23.775357562039538 10.971973090151188 18.891465740793905 0 0 0
2360 1 23.900030936018226 8.524702741956263 21.00286187075496 0 0 0
2358 1 25.568242836522376 8.567518731313417 18.796172177565992 0 0 0
2681 2 27.129527272688268 10.894164562786642 18.849184659529055 0 0 0
2648 1 27.059396181535732 8.639675511436037 21.09913467158178 0 0 0
1530 1 15.511155052269157 13.271717006868558 18.67549884689921 0 0 0
1532 1 13.960934058642348 13.337405901661128 21.022132753057853 0 0 0
1818 1 18.730446988461964 13.187562852502062 19.10183300479513 0 0 0
1820 2 16.976411339417954 13.086239114263003 21.196424380387096 0 0 0
2106 1 22.19305037551338 13.210116599800724 18.873758555571 0 0 0
2396 1 23.89520832950186 13.358281009464815 21.09066307423244 0 0 0
2394 1 25.46375308248696 13.261058929490924 18.897230895873737 0 0 0
1565 1 13.630875247003573 15.484034549670138 18.64863019697043 0 0 0
1531 1 15.630496469215377 15.492702394456778 20.815123237599664 0 0 0
1853 2 17.31258002373066 15.557417855163806 18.686506821325857 0 0 0
1819 1 18.67859479694528 15.433408484343028 21.151599807788838 0 0 0
2141 1 20.410279503995763 15.54068459574898 18.959177033509288 0 0 0
2107 1 22.316227060546545 15.551613328611227 21.033691304094848 0 0 0
2429 1 23.748113991754916 15.490951879249616 18.663560585300992 0 0 0
2717 1 27.303901648704993 15.505577474789145 18.760544054973707 0 0 0
2395 1 25.447142202394584 15.588902787759729 20.952338419541285 0 0 0
1566 1 15.575780987605427 17.62814071985119 18.722942099817505 0 0 0
1601 1 13.924382052513533 19.935435760404083 18.662887681675215 0 0 0
1568 1 13.842758707426619 17.685505235397486 20.897390442997626 0 0 0
1889 1 17.13223488955101 19.965193419240187 18.784911392106213 0 0 0
1856 1 17.327525208200935 17.78033633725532 20.982825217886756 0 0 0
1854 1 18.926107800748174 17.851765203572832 18.67148069712793 0 0 0
1855 1 18.899839817049614 19.94946566926346 21.074088792494383 0 0 0
2177 1 20.580578750260745 20.08416121919898 18.755672227365473 0 0 0
2144 2 20.450953786119573 17.5943593624785 21.083174354469712 0 0 0
2143 1 22.178131231662828 19.841943106919384 21.03859592013309 0 0 0
2142 1 22.08713753573961 17.813098081606043 18.82045664533512 0 0 0
2465 1 23.81870068693659 19.933259767141934 18.771639076333724 0 0 0
2432 1 23.972542677919005 17.843045367408592 20.950215385958387 0 0 0
2430 1 25.683533292518895 17.758754445184827 18.696602878204235 0 0 0
2753 1 27.457009755946846 19.97823231962057 18.708263445948408 0 0 0
2720 1 27.325579805032383 17.73319019946311 21.0172933192804 0 0 0
2431 1 25.646161565250978 19.91869657065233 20.91800946470262 0 0 0
1460 1 13.877285824147954 4.0612501788419335 21.05651930309575 0 0 0
1462 1 15.474543894740698 4.03252812387355 23.25251903433892 0 0 0
1748 1 17.263552139226025 3.906242068629795 21.129157162842972 0 0 0
1750 1 18.928652022967317 4.089922372086276 23.440323660545612 0 0 0
2036 1 20.382421474994892 4.076621042991936 21.07709358633444 0 0 0
2038 1 22.2657117387624 4.172574270954117 23.296951470335866 0 0 0
2326 1 25.78068537272269 4.211349935120472 23.306848562411414 0 0 0
1459 1 15.477647522607523 6.218833138167566 21.114570864392032 0 0 0
1497 1 13.941549658433932 6.28521526950535 23.318870564698283 0 0 0
1785 1 17.127521104201524 6.340958322184419 23.36982894456092 0 0 0
1747 1 18.774814014768914 6.349810989807556 21.140740101411417 0 0 0
2073 1 20.542384894624803 6.311023844433941 23.364581530719512 0 0 0
2035 2 22.2217065448633 6.284977653865007 21.145725492492375 0 0 0
2361 1 23.8220808110219 6.549760933114276 23.47302153069939 0 0 0
2649 1 27.228669506351498 6.570448929671037 23.286417627414103 0 0 0
1495 1 15.287740909054612 10.739377942280893 21.028250165234255 0 0 0
1498 1 15.52133875281239 8.59842029409656 23.36326514452071 0 0 0
1533 1 13.815280310338174 10.811943237716866 23.305955461680217 0 0 0
1786 1 18.789611729374915 8.641357448688424 23.447704758926978 0 0 0
1821 1 17.020766863590495 10.939924025859142 23.431785512089032 0 0 0
1783 1 18.76506888295592 10.951356160188274 21.31945727505962 0 0 0
2109 1 20.52081426183924 10.850516192826843 23.459670614976805 0 0 0
2071 1 22.122656601413542 10.941936150165992 21.275012146450003 0 0 0
2074 1 22.080923953395864 8.61745858044998 23.288390058544124 0 0 0
2397 1 23.778809276085738 10.974987411135896 23.401232714084383 0 0 0
2359 1 25.40882211163079 10.988863730386187 21.181517160690234 0 0 0
2362 2 25.45205115894099 8.737042038886301 23.414136392891105 0 0 0
2685 1 27.16978525952873 10.951447595292501 23.368583949964954 0 0 0
1534 1 15.40022721596991 13.164082823474107 23.46504799889454 0 0 0
1822 1 18.78844633152708 13.113279955820966 23.48202912591794 0 0 0
2108 1 20.498259191694885 13.164600889092107 21.2795653967202 0 0 0
2110 1 22.257128137450547 13.259234872104102 23.508595080414384 0 0 0
2684 1 27.15597606830756 13.374278416368524 21.095792286598613 0 0 0
2398 2 25.498883509883925 13.24430481950559 23.40793864158924 0 0 0
1569 1 13.715242716656842 15.443577196136644 23.122584514832784 0 0 0
1857 1 16.996259449648626 15.335031333854891 23.351864537827737 0 0 0
2145 1 20.44569419021869 15.473464097771487 23.285403522032254 0 0 0
2433 1 23.97669030728872 15.623205326236867 23.40309845382959 0 0 0
2721 1 27.00862963722158 15.611361225795298 23.25902601271678 0 0 0
1567 1 15.4293794992689 20.144193045419634 20.982324724826498 0 0 0
1570 1 15.484044029420417 17.696313752460142 23.327515099976768 0 0 0
1605 1 13.799092801569085 20.099605846843573 23.265553033291386 0 0 0
1858 1 18.714757070537356 17.700505904208427 23.35379306349945 0 0 0
1893 2 17.160645505295694 19.981642007985275 23.2476950882866 0 0 0
2181 1 20.447186211075124 20.10023480960165 23.284027169495893 0 0 0
2146 1 22.206041668026295 17.723417852511304 23.36696717408738 0 0 0
2469 1 23.920058728333093 19.99984707158011 23.415863697900026 0 0 0
2434 1 25.57747511804993 17.92832068840666 23.308971005975277 0 0 0
2757 1 27.21423427998431 20.14767573425836 23.471028058540746 0 0 0
1464 1 13.860392685949343 4.0633369805712025 25.61196414727324 0 0 0
1466 1 15.441793410223585 4.317330878546444 27.898947906283666 0 0 0
1752 1 17.057287973337246 4.001941476120222 25.6708602288335 0 0 0
1754 2 19.075525570652427 3.9405264893783745 27.716419337088517 0 0 0
2040 1 20.893454043870594 3.980574963948359 25.693412378858525 0 0 0
2042 1 22.453361060984186 4.204487323028131 27.94428668545004 0 0 0
2328 1 23.924393143692598 4.206678699462866 25.580970013520364 0 0 0
2330 1 25.579459919278634 4.207252230217354 27.989664344913443 0 0 0
2616 1 27.421740541805917 4.195298088294216 25.552750105255164 0 0 0
1501 1 13.519645643523017 6.297792642776539 27.970941576484957 0 0 0
1463 1 15.4530084431814 6.352711226973948 25.712961779069836 0 0 0
1789 1 17.302958296977796 6.3667648183494645 27.97947584033446 0 0 0
1751 1 18.93269597250554 6.180944896937506 25.659490863271852 0 0 0
2077 1 20.688150431548653 6.347461615080942 27.889426311268693 0 0 0
2039 1 22.195402352335858 6.37936010670852 25.743539261158094 0 0 0
2365 1 24.00179657847889 6.39660460147264 27.944154648893132 0 0 0
2327 1 25.535015517414955 6.33836934772371 25.644459741502263 0 0 0
2653 1 27.35129546744149 6.325870570316034 27.86440339131243 0 0 0
1500 1 13.725953929115708 8.563882900017763 25.66313580152115 0 0 0
1502 1 15.405958251812066 8.437274544181864 28.000393010060495 0 0 0
1499 1 15.445773318388245 10.799914451636047 25.547413964844047 0 0 0
1537 1 13.89037827753636 10.838889639297587 27.889423009228384 0 0 0
1788 1 17.105961517834945 8.450683077684298 25.630038200169313 0 0 0
1825 1 17.11948407248839 10.963466153930568 27.905450481515526 0 0 0
1787 1 18.81640942030744 11.00127505407492 25.603853519090457 0 0 0
1790 1 18.913649749050943 8.60332019465983 27.972954031069307 0 0 0
2076 1 20.532100745764883 8.629843477520556 25.817220484973546 0 0 0
2113 1 20.34677752290221 11.038397069458442 27.918826489233766 0 0 0
2078 1 22.17999067194578 8.795041626847958 27.874431047663485 0 0 0
2075 2 22.213716515219744 10.978744382715059 25.89985524843826 0 0 0
2364 1 23.93819906466341 8.63919283384142 25.634275609620314 0 0 0
2401 1 24.05863009666988 10.894448255963676 27.880030372579554 0 0 0
2363 1 25.551388542788246 10.968712226766689 25.53584139156092 0 0 0
2652 1 27.276274354879746 8.622957808098445 25.520308281063386 0 0 0
2366 1 25.783696139243094 8.773558849305704 27.833497970415273 0 0 0
2689 1 27.220963146183916 11.097039029242037 27.961402514742616 0 0 0
1536 2 13.768083952019058 13.052388395825576 25.651615996976517 0 0 0
1538 1 15.276208418607364 13.147627578577001 27.974778907792103 0 0 0
1824 1 16.928586756793955 13.181342424044319 25.630663379646997 0 0 0
1826 1 18.675842694547203 13.315609318748521 27.902982740576654 0 0 0
2112 1 20.58648555624529 13.205301567070547 25.661607488447128 0 0 0
2114 1 22.3568787165718 13.168362223122795 27.883826838401177 0 0 0
2400 1 23.82586274935137 13.246160876535201 25.606173490314816 0 0 0
2402 1 25.474234044137724 13.245021797262082 27.996379331054076 0 0 0
2688 1 27.15510093332098 13.279448156620067 25.712646851175464 0 0 0
1535 1 15.317361925194724 15.563065291294953 25.55576522101367 0 0 0
1573 1 13.809268258240564 15.388158534796005 27.774678807968517 0 0 0
1861 1 16.935018678255283 15.603195033445871 27.700570611802 0 0 0
1823 1 19.058254955124415 15.49270797785698 25.641936070161872 0 0 0
2149 2 20.487248479443714 15.411243076917946 28.077116187619726 0 0 0
2111 1 22.177599959610003 15.403934328953737 25.52196542762544 0 0 0
2437 1 23.719936746220846 15.541611189505558 27.917131694683764 0 0 0
2399 1 25.437306666035774 15.537925511679992 25.6950029922357 0 0 0
2725 1 27.35574437771932 15.350275854159415 27.931229285539587 0 0 0
1572 1 13.747182813258483 17.9030027720833 25.56036670107548 0 0 0
1571 1 15.634610567825277 20.02340538828594 25.57222176305135 0 0 0
1574 1 15.152726093213655 17.75493424321302 27.76233019249561 0 0 0
1609 1 13.583908807426628 20.14562616970098 27.789409088589252 0 0 0
1860 2 17.149289848067788 17.605497855874184 25.754359614792712 0 0 0
1862 1 18.93232454487384 17.72896487781684 27.901212965169393 0 0 0
1859 1 18.682517823272885 19.83019531465387 25.49390545711323 0 0 0
1897 2 17.21873992939403 19.844568584765014 28.099205975860052 0 0 0
2148 1 20.48701346721504 17.786850965936495 25.44115749617246 0 0 0
2185 1 20.245225698020484 20.065861484607975 27.812875093209733 0 0 0
2147 1 22.034522322090794 20.006857449757035 25.680284378598525 0 0 0
2150 1 21.90841280069731 17.757477189501195 27.945292837701768 0 0 0
2436 1 23.920630115879778 17.742193190078396 25.738286458420944 0 0 0
2473 1 24.120594400769463 19.925305397175695 27.848927047563592 0 0 0
2438 2 25.679209965247324 17.562981283989657 27.896273871306523 0 0 0
2435 1 25.494845402162063 19.994973251495534 25.528235418264387 0 0 0
2724 1 27.19661545793519 17.802621611382868 25.555790080803973 0 0 0
2761 1 27.203702677631956 19.944278251811163 27.767056123254797 0 0 0
1468 1 13.789669465896921 4.104080062343527 30.182617638374797 0 0 0
1470 1 15.591156430498376 3.904170055521008 32.315237801967896 0 0 0
1756 1 17.39959158830947 4.023940935223356 30.05520187066126 0 0 0
1758 2 18.97483464428996 4.3109689347944355 32.3496660705891 0 0 0
2044 1 20.553517075260928 4.038685487572321 29.986577386270902 0 0 0
2046 1 22.295905308061513 4.0656965563306695 32.44717898564388 0 0 0
2332 2 23.983862097988883 4.092961222783476 30.253586413663456 0 0 0
2334 1 25.669788563449522 4.1103787328510935 32.42162128533715 0 0 0
2620 1 27.298113090638786 4.147372046808512 30.17295511100851 0 0 0
1505 1 13.901645998920444 6.271392734522489 32.426994922514105 0 0 0
1467 2 15.44630095935684 6.238575976065103 29.953767359742912 0 0 0
1793 1 17.06514701744304 6.424522780558576 32.284463950022555 0 0 0
1755 1 19.08938210930993 6.479520098460797 30.250804746677318 0 0 0
2081 1 20.72309997516661 6.440852221024946 32.440082632725634 0 0 0
2043 1 22.379264985030062 6.369214982729633 30.16348638893058 0 0 0
2369 1 23.919580068851747 6.19288692318036 32.39045699093347 0 0 0
2331 1 25.494822743988266 6.346535656286617 30.285795005691618 0 0 0
2657 2 27.21150720043068 6.602849065871414 32.442895675429625 0 0 0
1504 1 13.58368966296148 8.585497480852993 30.134281686790363 0 0 0
1506 1 15.33608163889484 8.524262125267644 32.331381771030635 0 0 0
1503 1 15.46689443949975 10.897333772992546 30.21203137801423 0 0 0
1541 1 13.81460468293821 11.002020462595958 32.305390071561185 0 0 0
1792 1 17.03824137008009 8.50954157256821 30.112080154739573 0 0 0
1794 2 18.818253603624033 8.607538140648863 32.47113251821422 0 0 0
1829 1 17.111418908178845 10.815073156975334 32.435146355963994 0 0 0
1791 1 18.82143177107777 10.810251389209661 30.279953134764742 0 0 0
2080 1 20.63672798149579 8.686214568808184 30.30732697551351 0 0 0
2117 1 20.56299381689987 10.834388789428974 32.545555175442175 0 0 0
2079 1 22.082891850920202 10.967668956750764 30.025615316796628 0 0 0
2082 1 22.481402952510074 8.74934310424868 32.4520835617229 0 0 0
2368 1 24.01959391400577 8.522993522141466 30.028335698003062 0 0 0
2405 2 23.861530262748392 11.034280085062582 32.41267544577791 0 0 0
2370 1 25.470655769719464 8.673572434935704 32.36908628982101 0 0 0
2367 1 25.560931539889168 10.938484657695296 30.21355625949368 0 0 0
2656 1 27.237203005998722 8.620554342334584 30.351494418775403 0 0 0
2693 1 27.502939840552095 10.93649470797102 32.32189804286563 0 0 0
1540 1 13.791315687929576 13.081497687316865 30.192268717685373 0 0 0
1542 2 15.456095837717896 13.250051332527027 32.36849374380712 0 0 0
1828 1 16.971002205648126 13.256613561953516 30.17802451725897 0 0 0
1830 1 18.872305642583406 13.050809406845485 32.39958127499325 0 0 0
2116 2 20.518545640600422 13.2222957928717 30.10274900471273 0 0 0
2118 1 22.05038928313309 13.228678399283979 32.44143162673514 0 0 0
2404 1 23.951106130308297 13.24277255913102 30.30922293854791 0 0 0
2406 1 25.86381827806433 13.178762620789941 32.31041516762818 0 0 0
2692 2 27.303601383759634 13.206300624138537 30.03214681616661 0 0 0
1539 1 15.28993508275834 15.540369430274446 30.155163675399912 0 0 0
1577 1 13.534478712118105 15.431352632696582 32.26773622708059 0 0 0
1865 1 17.2604606994633 15.474758629933493 32.30838508895597 0 0 0
1827 1 18.621314635061594 15.455339180664748 29.95560597411133 0 0 0
2153 1 20.382073515864594 15.60436380491841 32.31718174580271 0 0 0
2115 1 22.387543268745716 15.474650288019953 30.189601959387453 0 0 0
2441 2 23.9921405599918 15.377430717924591 32.5017211001541 0 0 0
2403 1 25.580640470608117 15.530819626332198 30.164244607585534 0 0 0
2729 1 27.10190257024886 15.538182581893823 32.40184914891256 0 0 0
1576 1 13.47367574678875 17.71465774035994 30.087602612735495 0 0 0
1578 1 15.27374498932462 17.634321276751606 32.41642998180997 0 0 0
1575 1 15.309643012208241 19.89020844547881 30.158555343295205 0 0 0
1613 2 13.758882478366829 19.986800963042164 32.350785154288985 0 0 0
1864 1 16.935001963041017 17.756623993720233 30.076587715693364 0 0 0
1901 1 16.986702198660932 19.88987533587896 32.48867655814793 0 0 0
1863 1 18.881724783362635 19.84863707555882 30.35301431216544 0 0 0
1866 2 18.820232980381434 17.83416040709414 32.363423234882944 0 0 0
2152 1 20.52174726818035 17.53419497779373 30.168562534341504 0 0 0
2189 1 20.678787852996948 19.87063070547873 32.33427844256805 0 0 0
2154 1 22.424527381454446 17.68753151679897 32.30174943406597 0 0 0
2151 1 22.259662421087235 19.905866963270505 29.96790165332152 0 0 0
2477 1 23.916141694798863 19.93852810552364 32.39794752371772 0 0 0
2440 1 23.91310700105894 17.71190145466872 30.1283311421009 0 0 0
2439 1 25.736895529495694 19.90707262609806 29.916193630967093 0 0 0
2765 1 27.29950952745924 20.05205111875129 32.3306691493129 0 0 0
2728 1 27.500320284077187 17.752263964422102 30.15143868515989 0 0 0
2442 1 25.607610026180048 17.813910746058976 32.35158426983879 0 0 0
1472 1 13.977290230852347 4.070302721204613 34.610218067482776 0 0 0
1474 1 15.703205878161505 4.1028710457761 36.8194952841546 0 0 0
1760 1 17.30228281387176 4.179509834173927 34.486593179273385 0 0 0
1762 1 18.840272292042147 4.022866300300581 36.93172641140694 0 0 0
2048 1 20.58763666270546 4.108371031994607 34.575082979021445 0 0 0
2050 1 22.32124424721864 3.986059671133131 36.683533082105754 0 0 0
2336 1 24.073176221584234 4.07747506946739 34.68077539478733 0 0 0
2338 2 25.71896491021036 4.1149004828361555 37.13911297828186 0 0 0
2624 1 27.169177893656645 4.120565369676571 34.809098627569014 0 0 0
1509 1 13.611803341886688 6.3069803538603715 36.8203143198983 0 0 0
1471 1 15.515699373474376 6.364517955950907 34.70855138243981 0 0 0
1797 1 17.257354078392254 6.3960855674689885 37.032517773067525 0 0 0
1759 1 18.934733980790405 6.491277373104521 34.67204304891864 0 0 0
2085 1 20.581446463349963 6.191632224696961 36.93890774469757 0 0 0
2047 1 22.298601928570683 6.361151593825867 34.82520941439863 0 0 0
2373 1 23.91279846069421 6.402600629083337 37.0283958782735 0 0 0
2335 1 25.471570762432147 6.467022345523474 34.69132291125855 0 0 0
2661 1 27.226867513549934 6.311809790559405 37.05639760776074 0 0 0
1508 1 13.86365903614415 8.716875305054408 34.64955680312349 0 0 0
1510 1 15.382469811228326 8.617049913037203 36.89960132263607 0 0 0
1507 1 15.417025683558016 10.959517788261172 34.64991773613072 0 0 0
1545 1 13.687664666702386 10.991933526837173 36.86882181383295 0 0 0
1796 1 17.009028741827823 8.569043318015378 34.72707006434561 0 0 0
1833 1 17.18245564541523 10.765100500782825 36.93884437266696 0 0 0
1798 1 18.87820241350471 8.575853264354382 37.065198567276354 0 0 0
1795 1 18.6963805849829 10.848084300568864 34.63774693071986 0 0 0
2084 1 20.551797054039444 8.625237730778641 34.841284905258746 0 0 0
2121 1 20.500615635083033 10.818543175896663 36.970363655293795 0 0 0
2086 2 22.17130775139362 8.596805130699106 36.988736803700235 0 0 0
2083 1 22.28154225273551 10.969831425856121 34.74293415669004 0 0 0
2372 1 23.89273410033338 8.706970878433665 34.74981714822435 0 0 0
2409 1 23.844800228675215 10.916900025130452 36.89946910577986 0 0 0
2374 1 25.510465406506274 8.586642308454035 36.931055696764815 0 0 0
2371 1 25.58901874433033 10.904416250718574 34.51320778481235 0 0 0
2660 1 27.26548694654766 8.662370814680099 34.697762211108326 0 0 0
2697 1 27.153377545254443 10.848198617242774 36.91676866093235 0 0 0
1544 1 13.763136851003356 13.208084056580113 34.58300619311876 0 0 0
1546 1 15.386134019619995 13.119499256061234 36.842200677885444 0 0 0
1832 1 17.17837788395096 13.208116794359793 34.651921241584034 0 0 0
1834 1 18.676098894380242 13.093103977224336 37.09803960334689 0 0 0
2120 1 20.477294149105187 13.023422773845386 34.66487974596414 0 0 0
2122 1 22.36552491197717 13.055962788633263 36.87652097146578 0 0 0
2408 1 23.979563787037335 13.171926277520296 34.54919770483055 0 0 0
2410 1 25.599169996892012 13.21033894285973 36.856104355239836 0 0 0
2696 1 27.310230519583442 13.163714089268455 34.62698359104445 0 0 0
1543 1 15.51208295535903 15.349239505435438 34.38860024109789 0 0 0
1581 1 14.014759601515454 15.42958983416175 36.787495587130124 0 0 0
1869 1 17.13790424954032 15.441045596985887 36.821132253216504 0 0 0
1831 1 18.930035440343772 15.454519207994986 34.65476283537281 0 0 0
2157 1 20.506018480540433 15.37026390649758 37.0145975890355 0 0 0
2119 1 22.08234151109477 15.386467931933856 34.6929494781901 0 0 0
2445 1 23.73341182971604 15.37465925712534 36.99278355054631 0 0 0
2407 1 25.663759241009195 15.410226490307691 34.77215095558505 0 0 0
2733 1 27.46110010577104 15.546331480587229 36.98135645059149 0 0 0
1580 1 13.703244194285507 17.598112360837302 34.631549988779625 0 0 0
1582 2 15.447557360916829 17.807803472361456 36.97595559307747 0 0 0
1579 1 15.39002511789121 19.828584286834158 34.72665517229814 0 0 0
1617 1 13.646954929872024 20.024818429597385 36.95569464662232 0 0 0
1868 1 17.216912102286166 17.675475403501032 34.55885591129322 0 0 0
1867 1 18.779817191727805 19.920567212770425 34.52757635802911 0 0 0
1905 1 17.227491498810725 20.070281176423666 36.89615159328301 0 0 0
1870 1 18.898451505410687 17.725216625557866 36.72067397552989 0 0 0
2193 1 20.474975532634787 19.874317556882623 36.89270340326675 0 0 0
2156 1 20.576906455210462 17.740202106784622 34.43325024795624 0 0 0
2158 1 22.230152103037344 17.5669637151485 36.84485431122732 0 0 0
2155 1 22.25189319877482 20.121273177612956 34.89604239512576 0 0 0
2444 1 24.022947265031565 17.63405424366006 34.684005209253414 0 0 0
2481 1 23.85997172994808 19.92170618890178 36.966572641708595 0 0 0
2446 2 25.443152448037825 17.61116755236877 36.94933811919191 0 0 0
2732 1 27.27179992283267 17.560463122027897 34.62043100754413 0 0 0
2443 1 25.657003213555477 19.8993311911349 34.6900586455731 0 0 0
2769 1 27.079162934934942 19.899537059753957 37.09785782056797 0 0 0
1476 1 13.9985705470196 4.065366757608291 39.01530074493935 0 0 0
2123 1 21.97855420981003 15.309716862612317 39.32356500325463 0 0 0
1764 1 17.119290430121776 4.142140621193133 39.17032232294008 0 0 0
2052 2 20.64272573194219 4.15115287127024 38.9906495036397 0 0 0
2340 1 23.60485502833007 4.1735930764558224 39.04652530185865 0 0 0
1835 1 18.938116713156212 15.21531780932248 39.1854034862871 0 0 0
2628 1 27.438315271030685 4.019206447047217 39.237019521866515 0 0 0
1583 1 15.551520191371395 20.007233262628894 39.08155059264715 0 0 0
1547 2 15.449205139549896 15.508596834133336 39.229489839721964 0 0 0
1475 2 15.462981719211353 6.445978345458689 39.02983736376976 0 0 0
1763 1 18.984147899833744 6.2719561153151 39.152674377224955 0 0 0
2159 2 22.27368886080321 19.828982280599078 39.28107188757305 0 0 0
2051 1 22.023562686734465 6.443927818018389 39.38412273761023 0 0 0
2448 1 23.82472442307085 17.67645117897282 39.11938072220509 0 0 0
2339 1 25.65962001410199 6.209721742580102 39.266557895772834 0 0 0
2736 1 27.317588925366326 17.735752961651137 39.173227611087626 0 0 0
1512 1 13.65857210789894 8.654633120923748 39.10931643725384 0 0 0
1511 1 15.40830223945413 10.837390733724702 39.246750148353584 0 0 0
1872 1 17.241193228696037 17.607795711146203 39.15617418904429 0 0 0
1800 1 17.112945064627837 8.63181125413692 39.175119947688714 0 0 0
1799 1 18.694814369197246 11.092779847464685 39.24500757651026 0 0 0
2160 1 20.376828753818977 17.571617515675 39.114641295112904 0 0 0
2088 1 20.483662369486698 8.89360017660214 39.47061770466463 0 0 0
2411 1 25.66754665968837 15.585087473022723 38.952562552145594 0 0 0
2087 1 22.472385821007038 10.840363541019487 39.301239223021426 0 0 0
2376 1 23.947587179816882 8.613261014871483 39.26604377734914 0 0 0
1871 1 18.888784572149465 19.911954962391537 39.294137591832964 0 0 0
2375 1 25.4417227226326 10.780751656194656 39.29982145887841 0 0 0
2664 2 27.105295779735375 8.611319860247114 39.24920562371045 0 0 0
2306 1 25.633264358101048 4.1294577628878155 41.389980999609065 0 0 -1
1548 1 13.806727417389293 13.15333334977559 39.164644965240456 0 0 0
1584 1 13.566430123780119 17.55885639133361 39.06825035579584 0 0 0
1836 1 16.923332503455388 13.265699576377909 39.12831680964682 0 0 0
2124 1 20.719771090875366 13.017747158871783 39.11541401387066 0 0 0
2447 1 25.474420847428927 19.882728021008987 39.26205029087386 0 0 0
2412 2 24.010616063274007 13.42047791087594 39.173726938595905 0 0 0
2700 1 27.141280759830725 13.111012450619473 39.167736017293535 0 0 0
2413 1 24.036544816102065 15.332626541603354 41.258560690388634 0 0 -1
1730 1 18.99193363487773 3.9534714773481845 41.39011594247302 0 0 -1
1478 1 15.363051778658004 8.640565803492304 41.416559848836954 0 0 -1
2665 2 27.306296189937488 10.956535400416435 41.39451038726686 0 0 -1
2089 2 20.56247700262823 10.966535739312635 41.32551651952909 0 0 -1
1442 1 15.438524083561578 4.066469799012619 41.321024494059614 0 0 -1
1550 1 15.22221912537126 17.740063471587412 41.24977152989803 0 0 -1
1765 1 17.180223240052705 6.415122860431062 41.27936023853147 0 0 -1
2414 1 25.519157797866693 17.66471576499755 41.26640080379069 0 0 -1
2701 2 27.181796700980765 15.324029010277192 41.4055650118799 0 0 -1
1873 1 17.046238817570508 19.95316453848283 41.331171371632486 0 0 -1
2126 1 22.167718925917203 17.66312767790779 41.33827789958764 0 0 -1
2378 1 25.59881975550934 13.012648421376607 41.4183947111539 0 0 -1
2341 1 23.837052061413097 6.319435663408756 41.4482089562255 0 0 -1
2737 1 27.29831155549593 20.058799767019256 41.42817275310461 0 0 -1
2018 1 22.14199477364636 4.167996322451214 41.40420398296083 0 0 -1
1588 1 13.671255168074293 22.275474291669518 2.9856032840803044 0 0 0
1876 1 17.225461038568493 22.202061591605297 3.0838134139314994 0 0 0
2164 1 20.471590366271812 22.041594880082112 2.981923295039912 0 0 0
2452 1 23.75926225075325 22.141745241591828 3.0914336881054605 0 0 0
2740 1 27.307492307510465 22.062855477684703 2.8435023709656386 0 0 0
2563 1 25.569870899519387 38.11435214408597 7.5350978531737125 0 0 0
1587 2 15.39862558712121 24.45869525413397 2.7433942103860103 0 0 0
1875 1 19.033323022068554 24.380235909574477 2.8728983495501477 0 0 0
2163 1 22.113513421085653 24.548464131780293 3.052370463089597 0 0 0
2451 1 25.595326539694994 24.284474634181127 2.786738771884593 0 0 0
1624 1 13.564358495974854 26.6148373265226 2.9624747178941955 0 0 0
1623 1 15.262100700987276 28.80432583032395 2.955445222378152 0 0 0
2270 2 22.213660491496736 35.8045522274633 0.7489384795409558 0 0 0
1586 1 15.596837883351785 22.197587080340607 0.8577406568142157 0 0 0
2486 1 25.704624070342593 26.76342593292809 0.7085987219950558 0 0 0
1912 1 17.261520300331302 26.686856822045847 2.876866194931633 0 0 0
1911 2 18.982245534473332 29.148735115531775 2.7911871532317485 0 0 0
2200 1 20.514282473452226 26.744372230676724 2.9914752840513867 0 0 0
2773 1 27.24047637418674 24.478740968362196 0.771311004780042 0 0 0
2199 1 22.36434096815921 28.813803140123706 3.025839691128831 0 0 0
2488 1 23.831563395733202 26.564850828940976 2.8547988664753348 0 0 0
2776 1 27.22803930970356 26.517910018769935 2.9822064112883044 0 0 0
2487 1 25.54507857369721 29.024246338622934 2.914486099658053 0 0 0
2450 2 25.597313473316103 22.269965645477626 0.7709490104160215 0 0 0
1660 2 13.845418411175565 31.160474558679503 3.097204723574613 0 0 0
1948 1 16.871117928591698 31.134184244594 2.871640879729791 0 0 0
2274 2 22.22947924821275 35.73240925702922 5.264514694553458 0 0 0
2236 1 20.701326692341866 31.183833183180333 2.763443116354448 0 0 0
2524 1 23.882633249937307 31.189052831024053 2.8318413190535945 0 0 0
2812 2 27.25518152138075 31.05067745286451 3.0769462917308155 0 0 0
2309 1 23.964516660336727 37.99513542560977 5.14109404016389 0 -1 0
1659 1 15.391067811692999 33.515675462945495 2.859643249231474 0 0 0
1947 1 18.92031349530366 33.27058817799127 2.896786773403793 0 0 0
1945 1 16.92373759452381 28.80628793853302 0.7943872611978726 0 0 0
2235 1 22.176289337188912 33.559808789096905 3.0213105070361883 0 0 0
2562 1 25.699097076664874 35.680954838841174 5.315583927503672 0 0 0
2523 1 25.603974468981566 33.46156670053614 2.8245937953116367 0 0 0
1696 1 13.790261573808063 35.78606812262923 2.7551345439743495 0 0 0
1695 1 15.491001415844963 37.91718907332081 2.775284372644747 0 0 0
2597 1 27.199306116941997 38.099473225127575 5.246549324578295 0 -1 0
1984 1 17.145998085066054 35.694475628757026 2.930091576973621 0 0 0
1983 2 18.83407408594843 37.96477687904244 3.0181971357291615 0 0 0
2272 1 20.4506099897762 35.74159056473013 2.8161595690932337 0 0 0
2271 1 22.27404431221829 38.06353615522122 2.785759466382813 0 0 0
2560 1 23.92532411716399 35.76613584027166 3.0466756908552224 0 0 0
2275 1 22.19972346148024 38.09909569851796 7.438388803029514 0 0 0
2848 1 27.23120188306324 35.760148847082654 2.743273202701812 0 0 0
2559 1 25.562152138672793 38.09100970108235 2.8002294674639185 0 0 0
2852 1 27.386994766742397 35.79521017003171 7.664389903519892 0 0 0
2564 1 23.89928508624013 35.85822917034157 7.493092877811072 0 0 0
1590 1 15.316392643057274 22.26517993301062 5.297701426219352 0 0 0
1592 1 13.790685833008194 22.31493243699196 7.480812709363443 0 0 0
1878 1 18.803635907039048 22.085288213202286 5.283742388564269 0 0 0
1880 1 17.267017727777855 22.233025395095673 7.657786948383723 0 0 0
2168 1 20.419840720695255 22.175104419823473 7.535016828929874 0 0 0
2166 1 22.02182183417894 22.16812480982468 5.391338443067398 0 0 0
2456 1 23.90303705748257 22.304810796560538 7.569280672914108 0 0 0
2454 1 25.643424433524455 22.181636076402132 5.227022859109743 0 0 0
2744 1 27.17571050904682 22.293454528950264 7.498702923172376 0 0 0
1591 1 15.538153766388216 24.341784346968048 7.553579837022557 0 0 0
1625 1 13.97442401006763 24.665718530952518 5.144407875246376 0 0 0
1913 1 17.041544542783416 24.430689959478716 5.1653399845788135 0 0 0
1879 1 18.952047195194133 24.424909479237435 7.400368662148316 0 0 0
2201 1 20.5229903464715 24.594838233078782 5.267319146017302 0 0 0
2167 1 22.264268895417224 24.48560574298424 7.466402733636227 0 0 0
2489 1 23.89885690730527 24.350426730086895 5.1792324855268825 0 0 0
2455 1 25.486691153621376 24.445344779984126 7.449964693615801 0 0 0
2777 1 27.031348918944666 24.373392565598582 5.190372055618193 0 0 0
1628 1 14.1133195241922 26.668810051537683 7.44222265077023 0 0 0
1626 2 15.622374891624215 26.785679249299367 5.034412698930094 0 0 0
1627 1 15.572711906217602 29.017743394096428 7.272055344884435 0 0 0
1661 1 13.78948131663968 29.066072991222466 5.193070480871302 0 0 0
1916 1 17.181473563600573 26.6208924811798 7.524505105413869 0 0 0
1914 1 18.862160387840646 26.70924128494404 5.221688932225475 0 0 0
1949 1 17.270999753828598 28.902049292876637 4.922494386791131 0 0 0
1915 1 18.846295661077736 28.863708176784026 7.390535625286441 0 0 0
2204 1 20.553439188174952 26.76772667802179 7.501225075581521 0 0 0
2237 1 20.532122855124477 28.998761702376335 5.038188702715677 0 0 0
2203 1 22.183334796809966 28.948370593899195 7.400576064827579 0 0 0
2202 2 22.35234152462923 26.63148848453222 5.228276342392681 0 0 0
2492 1 23.845454801337745 26.76386571060089 7.552619512730207 0 0 0
2525 1 23.852528847978153 28.98063061054075 5.366669690891264 0 0 0
2780 1 27.258772278620146 26.646084466507617 7.573498158438921 0 0 0
2490 1 25.366397622070284 26.73890719178203 5.249274690232648 0 0 0
2491 1 25.571359900203404 28.893661103401914 7.527517001645694 0 0 0
2813 1 26.968388261137395 29.05163116722392 5.271917879233912 0 0 0
1662 1 15.61588290312438 31.262709692965775 5.236930572054531 0 0 0
1664 1 13.779365406783374 31.36897928533682 7.402986133347979 0 0 0
1952 1 17.291157145979493 31.243278153354435 7.479548709886444 0 0 0
1950 1 18.93780989778177 31.150404724309126 5.0950050909843725 0 0 0
2240 1 20.500824961672212 31.305409059843676 7.539860623993766 0 0 0
2238 1 22.12423384444403 31.258188065864328 5.293397359191762 0 0 0
2528 2 23.891661575225303 31.27968358224755 7.51714542155957 0 0 0
2526 1 25.447319614565227 31.263384784704105 5.2481106634933266 0 0 0
2816 1 27.27780781108059 31.315641407284517 7.59214844018144 0 0 0
1697 2 13.843103071889466 33.426620775475186 5.2562035891808145 0 0 0
1663 1 15.621985652349998 33.37653617212179 7.44468570770732 0 0 0
1985 1 17.316333039313605 33.47599216181258 5.260286653229265 0 0 0
1951 2 18.98079292265943 33.61418750863854 7.683184256863485 0 0 0
2273 1 20.541943130224137 33.488208384724814 5.281005345341769 0 0 0
2561 1 23.878299958777895 33.491758576140114 5.195701016841144 0 0 0
2239 1 22.33977825096017 33.480925312003464 7.50199424444344 0 0 0
2527 1 25.47563759104491 33.51283909970604 7.519542169816504 0 0 0
2849 1 27.14656611406234 33.28539204933233 5.331149645803158 0 0 0
1445 1 13.773017263501387 38.04683504614199 5.203407426731233 0 -1 0
1699 2 15.553775803025687 38.03507838804427 7.508604593952025 0 0 0
1698 1 15.515777780381114 35.773573089043786 5.160541527213469 0 0 0
1700 1 13.909177910515737 35.676181380996304 7.51221788729426 0 0 0
1733 1 17.134404423347842 38.008709660070814 5.177041259724574 0 -1 0
1988 1 16.969283472566637 35.74304925173364 7.535284944154363 0 0 0
1986 1 18.88745097589887 35.73820844564491 5.213294712856527 0 0 0
1987 1 18.78237846530331 37.88610301735664 7.375213809703185 0 0 0
2276 1 20.739950216661022 35.75232935968716 7.499568525819315 0 0 0
2021 1 20.582985349343296 38.13015107157106 5.2234827229271215 0 -1 0
1909 2 17.239158777152188 24.52585325371742 0.7526118407517037 0 0 0
1946 2 18.890848331701726 31.12768195712715 0.7095863237056506 0 0 0
1622 1 15.360565011346285 26.57733969929596 0.7518588794226273 0 0 0
2197 1 20.707422649770844 24.310613332695304 0.7342185846025435 0 0 0
2485 1 23.73835730898146 24.343304025926653 0.9205270837965571 0 0 0
2233 1 20.739324058765604 28.952446537902652 0.7886130042220998 0 0 0
1621 1 13.56111676906998 24.254944284794203 0.7143416586821445 0 0 0
1594 2 15.429372283183895 22.252442181069377 9.736067830253434 0 0 0
1596 1 13.831403628224617 22.198606928672316 11.987512429274522 0 0 0
1882 1 19.06604257885267 22.17324299452978 9.90206947905066 0 0 0
1884 1 17.274221912949052 22.206039067922376 12.07950262859099 0 0 0
2172 2 20.42608306998301 22.09542212537387 12.296598406173707 0 0 0
2170 1 22.14972415540982 22.316986470123577 9.837599581977827 0 0 0
2460 1 24.014660764590342 22.015434830775586 11.915335885722142 0 0 0
2458 2 25.577704380644516 22.32148768182547 9.786073704357813 0 0 0
2748 1 27.218950517639176 22.376576889166024 12.029433404670964 0 0 0
1595 1 15.495160263563527 24.492176204019483 12.026003774193818 0 0 0
1629 1 13.794372890611395 24.38502473010706 9.803161399340393 0 0 0
1917 1 17.21131228494568 24.360790061735027 9.715517591410578 0 0 0
1883 1 18.899792660262907 24.459839433893368 12.042578929764806 0 0 0
2205 2 20.574216542630083 24.536671258300366 9.711570671434647 0 0 0
2171 1 22.177133642465805 24.336356351890963 12.065029172670076 0 0 0
2493 1 23.83695158596752 24.47208798777525 9.779966276994985 0 0 0
2459 1 25.564870655711577 24.44104055590456 12.009819197584763 0 0 0
2781 1 27.241897185198827 24.378030320313634 9.794744849756627 0 0 0
1632 1 13.797501999548029 26.65457240468936 12.069511724180511 0 0 0
1630 1 15.4707533835286 26.70557294132854 9.713873126297516 0 0 0
1631 1 15.610964564199008 28.950063149753912 11.892084820566003 0 0 0
1665 1 13.977545137451006 29.11021347853542 9.67097607791014 0 0 0
1920 1 17.16241387657453 26.773075180279992 12.090500933941884 0 0 0
1953 1 17.160542045203677 29.008468533143777 9.549400710932268 0 0 0
1918 1 18.77026098649237 26.657084853173004 9.748823549546849 0 0 0
1919 1 18.953741038149868 28.93899902907452 11.96609186554672 0 0 0
2208 1 20.557141538871285 26.670855382885247 11.929918004863172 0 0 0
2241 1 20.496699551181365 28.899976798151823 9.607426283704596 0 0 0
2206 1 22.408072715184844 26.685334451498925 9.873862348808782 0 0 0
2207 2 22.19623103009579 28.863443680759385 11.858303254995404 0 0 0
2496 1 24.136303602202815 26.80759365766699 12.104975163009343 0 0 0
2529 1 24.215909738893483 29.011850863626076 9.774753884146037 0 0 0
2784 1 27.42185830568297 26.71689102817737 11.92610830514771 0 0 0
2494 1 25.768589804312214 26.681674630860837 9.726760979038092 0 0 0
2495 1 25.693998111100854 28.97282796814496 12.211442308330572 0 0 0
2817 1 27.298339213556318 29.017754678667323 9.796180293850503 0 0 0
1666 2 15.462345477148542 31.314005085811793 9.683062716750447 0 0 0
1668 1 13.834698201171193 31.283863034438124 12.154534441362463 0 0 0
1956 1 17.06117209255595 31.313069845955575 11.899522167453501 0 0 0
1954 1 19.068116793653754 31.257069965387142 9.77437715127569 0 0 0
2244 1 20.64379229121151 31.19091821615558 11.991504922001763 0 0 0
2532 1 24.03749673963952 31.058145109210503 12.006229374833024 0 0 0
2242 1 22.36463383850004 30.93392259229166 9.860250148591387 0 0 0
2530 1 25.53665524330063 31.40747742282175 9.717775115136694 0 0 0
2820 1 27.27543910892203 31.369716819558686 12.172985140961911 0 0 0
1667 1 15.41797372912077 33.58466082078195 11.836086094723237 0 0 0
1701 1 13.692577805474432 33.462949730721675 9.815146088577604 0 0 0
1989 1 17.268314234211307 33.483265275365994 9.753303578141313 0 0 0
1955 2 18.973359273292203 33.20488814958143 11.87457923842337 0 0 0
2277 1 20.896306575691643 33.503129087356996 9.876928487399457 0 0 0
2243 1 22.384312809787865 33.36094491781049 12.077441972402843 0 0 0
2565 1 23.871680232796074 33.603197668662055 9.73093786778007 0 0 0
2531 1 25.445327634735126 33.606210487727225 12.061981527254112 0 0 0
2853 1 27.351422806119515 33.60760918863092 9.833798551831912 0 0 0
1704 1 13.715762465463754 35.735798046746574 12.13098198139949 0 0 0
1449 1 13.895487307620154 37.992049592458436 9.731511936974606 0 -1 0
1702 1 15.499165082344703 35.71407951998792 9.872133378042404 0 0 0
1703 2 15.530515564798957 37.76875076303681 11.933319622885797 0 0 0
1992 1 17.487555816156267 35.619469855251296 11.961494757471883 0 0 0
1737 1 17.34741638923479 37.83033026694105 9.694707753366618 0 -1 0
1991 1 18.991336113780058 37.89537987831488 11.990598265940065 0 0 0
1990 1 19.075210711176293 35.71974719344884 9.68017155445272 0 0 0
2280 1 20.471146038564555 35.6315540143918 12.053062548826572 0 0 0
2025 1 20.512102286897736 37.937805681639915 9.70429688695993 0 -1 0
2279 2 22.254260532198515 37.92908168540647 11.904601235885185 0 0 0
2568 1 23.951603392514624 35.84786434307266 12.196474709838638 0 0 0
2278 1 22.352216313732043 35.93667233552931 9.949721707513193 0 0 0
2313 1 23.980309727543723 38.15370001904547 9.623893828889711 0 -1 0
2856 1 27.049797858392033 35.84777309304026 12.058114573871627 0 0 0
2566 1 25.56213955589215 35.87001543265463 9.825486590973652 0 0 0
2567 1 25.459959220773957 38.149443838743494 12.097561053746814 0 0 0
2601 1 27.400769133156565 38.17317944953649 9.728489289926035 0 -1 0
1598 1 15.547860039476141 22.10908498897623 14.158394897507543 0 0 0
1600 1 13.61757471889391 22.154719918618127 16.53023225069218 0 0 0
1888 2 16.945087405440862 22.304755074104982 16.40647387033067 0 0 0
1886 2 18.83359102430917 22.218986586168732 14.566451914930086 0 0 0
2176 1 20.7584413077118 22.088574260897715 16.50415108787891 0 0 0
2174 1 22.347338193477988 22.14323561155487 14.30946941561344 0 0 0
2464 1 23.96170717204031 22.283923295787794 16.45138649171758 0 0 0
2462 1 25.65335384359303 22.179461619932646 14.30451821754178 0 0 0
2752 1 27.414521452638166 22.15609344144573 16.515715892231054 0 0 0
1599 1 15.358333880193609 24.527692911847705 16.628133623177035 0 0 0
1633 1 13.78362828992583 24.381796651393127 14.210576901155159 0 0 0
1921 1 17.112221991944192 24.45834854287551 14.323223893638973 0 0 0
1887 1 18.822931462819408 24.43821660484354 16.456247000397042 0 0 0
2209 1 20.497517044367935 24.460338423425764 14.36242431622557 0 0 0
2175 1 22.236472999614566 24.514575537073142 16.55520527755388 0 0 0
2497 1 23.798510010962605 24.483592455429807 14.306056210386492 0 0 0
2463 1 25.67275820491648 24.416500475233757 16.474733858160185 0 0 0
2785 2 27.460060755694233 24.36491792532052 14.287651663604255 0 0 0
1636 2 13.761295541012938 26.75757264254312 16.781833814430584 0 0 0
1634 1 15.416440701058729 26.76270331465047 14.372684068463872 0 0 0
1635 1 15.32743061643582 29.161098993439644 16.334691378705923 0 0 0
1669 2 13.668961778061842 29.006620430960865 14.054015410509004 0 0 0
1924 1 17.235303200982237 26.719154701325838 16.415341689163675 0 0 0
1957 1 17.12940188888577 28.966388377844332 14.01786440924813 0 0 0
1923 1 18.823268402920167 29.043104988674244 16.38723284548685 0 0 0
1922 1 18.971802314685853 26.664342324651336 14.145326177168492 0 0 0
2212 2 20.46577369981966 26.697868535744906 16.485669079386035 0 0 0
2245 1 20.544482862328064 28.958460359631268 14.302205824214164 0 0 0
2211 1 22.199058667611286 29.00432245897093 16.488632486146876 0 0 0
2210 1 22.216256768231116 26.80409930374542 14.16140448534847 0 0 0
2500 1 24.03295850434289 26.698631592514474 16.29356696842338 0 0 0
2533 1 23.798332045801423 28.958091751385695 14.199189450360114 0 0 0
2788 1 27.30734555939849 26.900499726024798 16.47981128935795 0 0 0
2498 1 25.763698840041656 26.624576180279263 14.261383876340338 0 0 0
2499 1 25.348759038187183 29.035988385065448 16.554385154298906 0 0 0
2821 2 27.327238445409886 29.087122979854566 14.431456944874848 0 0 0
1672 1 13.916468594577573 31.331071692591316 16.384968125355073 0 0 0
1670 1 15.617723812093793 31.294992610996047 14.153677787101488 0 0 0
1960 1 17.056644401115477 31.299274140841394 16.52909044268707 0 0 0
1958 1 18.87033002852248 31.17733537989846 14.059828109698062 0 0 0
2248 1 20.429072580864837 31.215299838348987 16.56854653779895 0 0 0
2246 1 22.251129350682913 31.156688437139742 14.333969986509938 0 0 0
2536 2 23.981422372893395 31.29264938012456 16.59461742521781 0 0 0
2824 1 27.364918872718263 31.088089613446304 16.53756154472141 0 0 0
2534 1 25.553346923234354 31.231009461808842 14.191150264757088 0 0 0
1671 1 15.45231905312976 33.53277360485272 16.430501434104727 0 0 0
1705 2 13.853285343135035 33.51754688306684 14.153791321703594 0 0 0
1993 1 17.115086860744213 33.53174925347912 14.171996743093825 0 0 0
1959 1 18.75428310295886 33.51442920759597 16.508323663064814 0 0 0
2281 1 20.60509735119787 33.42901007608694 14.249311405048202 0 0 0
2247 1 21.98389945627379 33.41465236659471 16.64873090839106 0 0 0
2569 1 23.821335339740543 33.461393383233286 14.457462840286137 0 0 0
2535 1 25.84112719729971 33.5522577349839 16.57017472520286 0 0 0
2857 1 27.229707352223706 33.70466355567554 14.321268100348812 0 0 0
1453 1 13.781747202954392 37.998992102499805 14.296883913652149 0 -1 0
1708 1 14.009326397944449 35.788792577111245 16.48338686817826 0 0 0
1707 1 15.629569300536634 37.99046587161888 16.478001007493532 0 0 0
1706 1 15.51554747632651 35.816041080720645 14.115192438485224 0 0 0
1994 1 18.839680757272177 35.71241628821046 14.341704005811108 0 0 0
1996 1 17.179300770985996 35.69066663758331 16.49992937975892 0 0 0
1741 1 17.248765088682216 38.062396423701514 14.024018727209446 0 -1 0
1995 2 18.82029472673375 38.08208373432429 16.52978743606569 0 0 0
2284 1 20.506154061452353 35.79007228853586 16.69715617452023 0 0 0
2029 1 20.586200017160532 37.94917517500431 14.307775598143909 0 -1 0
2282 1 22.16485466082363 35.879208498432774 14.57848325348805 0 0 0
2283 1 22.306546774853324 38.00821766047059 16.74922504148161 0 0 0
2572 2 23.82864416180992 35.59553720694268 16.684347352100005 0 0 0
2317 1 23.773000085768178 38.02865124311396 14.246120784866237 0 -1 0
2571 1 25.32551504330379 37.93136438603766 16.65907127176999 0 0 0
2570 1 25.516885353837228 35.798589426194525 14.39739421603416 0 0 0
2860 1 27.35590851433672 35.95200754575525 16.507697906877127 0 0 0
2605 1 27.302430636145846 38.211288975832545 14.294658958129357 0 -1 0
1602 1 15.477414394587093 22.31042776337706 18.788661145763722 0 0 0
1892 1 17.25697362316306 22.140977223316394 20.922067197392394 0 0 0
1890 1 18.968356592221703 22.261841130748415 18.69843688607272 0 0 0
2180 1 20.63267968567431 22.375667510955648 21.117193065552097 0 0 0
2178 1 22.295998862447092 22.268293217292744 18.862034019426417 0 0 0
2468 1 23.92159176629172 22.218219010049634 21.119920490493183 0 0 0
2466 1 25.61929997679424 22.149735150505272 18.773808637978092 0 0 0
1637 1 13.561669356468183 24.530546450617226 18.793139885371787 0 0 0
1925 1 17.183872618883303 24.372626787507258 18.810844122733837 0 0 0
2213 1 20.55985281117207 24.723078472318825 18.67988015982498 0 0 0
2501 1 23.984375324455304 24.601816767704143 18.791509091262267 0 0 0
2789 2 27.24941588195223 24.52025398767039 18.795981594532286 0 0 0
1638 1 15.602416352703184 26.65999055147638 18.869089173996265 0 0 0
1673 1 13.800203015854212 28.870357450478423 18.749637130642505 0 0 0
1640 1 13.607667018459697 26.63383988774324 21.0296004939856 0 0 0
1961 1 17.133363171911018 29.075678884588065 18.689398579190385 0 0 0
1926 1 18.666611398626593 26.729395027531947 18.684189013851903 0 0 0
1927 1 18.782527053551085 28.95970923127685 20.957674745737698 0 0 0
2249 1 20.435105406122158 29.072214404382056 18.789616223505007 0 0 0
2216 1 20.47544782482646 26.75893003373102 20.813505698849994 0 0 0
2214 1 22.297059497894008 26.822269076840286 18.719675396433765 0 0 0
2537 1 23.868433317831595 29.103629191694957 18.874083569587388 0 0 0
2215 1 22.215490205082386 28.964818419398025 21.0852422900238 0 0 0
2502 1 25.6442249383945 26.814994351335134 18.697627576366123 0 0 0
2825 2 27.285869930798683 29.06070770711715 18.63343076796232 0 0 0
2792 1 27.258127091667802 26.680488358702114 20.972929372547632 0 0 0
1674 1 15.319857421545162 31.19040084090182 18.831672109530896 0 0 0
1964 1 17.25816635175923 31.175574280084383 21.19203663936586 0 0 0
1962 1 18.650632539202388 31.096621551160798 18.805439184031595 0 0 0
2250 2 22.15989351613408 31.406310246412126 18.783325479060984 0 0 0
2540 1 23.998233689054512 31.267335147895146 21.048741824123425 0 0 0
2538 1 25.624151151213525 31.344881908778603 18.68606661509609 0 0 0
1709 1 13.782793506149467 33.70502342549456 18.705809448868017 0 0 0
1997 1 17.186028442171295 33.62823099277629 18.745117917949134 0 0 0
2285 1 20.256332481675596 33.54215809101257 18.774231500028595 0 0 0
2573 1 23.83679913357228 33.62611691902492 18.749296369717626 0 0 0
2861 1 27.23424381789185 33.63502582339093 18.865746104264115 0 0 0
1710 2 15.549273941769673 35.87311091094722 18.816006080826824 0 0 0
1457 1 13.96367263329811 38.166860329055936 18.793272761390142 0 -1 0
1745 1 17.20021728667261 38.18378064577693 18.774806563448923 0 -1 0
1998 1 18.779742601508065 35.80287276462121 18.885146672019516 0 0 0
1999 2 18.811499737557458 37.92195374231863 20.992126589385336 0 0 0
2033 1 20.476852479770983 38.12241711525459 18.854477144712547 0 -1 0
2321 2 24.009314598622634 38.05524765169172 19.08851862943801 0 -1 0
2286 1 22.195610534551985 35.836016787179034 18.876544333775385 0 0 0
2575 1 25.87724987089938 37.98274209294904 21.164543429998524 0 0 0
2574 1 25.710804424906023 35.91540560922856 18.831361284651518 0 0 0
2609 1 27.314947810617618 38.091367775773755 18.813613268618347 0 -1 0
2864 1 27.334228977771318 35.61772177238387 21.06361793988971 0 0 0
1604 1 13.644258222231088 22.259629145765345 21.075997804970605 0 0 0
1606 1 15.535525770838841 22.336690536466957 23.38745569891709 0 0 0
1894 1 18.779298425452357 22.331208442171828 23.24001162482416 0 0 0
2182 1 22.26190287173253 22.225707124603467 23.480836921081174 0 0 0
2756 1 27.138733952476727 22.452584397800546 21.150661788707332 0 0 0
2470 2 25.510971730642627 22.407546467183526 23.470263196799838 0 0 0
1603 1 15.32013666138456 24.48723714060622 21.02777699712014 0 0 0
1641 1 13.546856911152314 24.40500744297248 23.370921896221695 0 0 0
1929 1 17.222867672100246 24.618076730931104 23.264560022304444 0 0 0
1891 1 18.87229091962526 24.49583769801748 21.002902494855803 0 0 0
2217 1 20.614768226596443 24.446768529232365 23.262346286271704 0 0 0
2179 1 22.175572672029492 24.642229570374266 20.915612885048173 0 0 0
2505 1 23.81503107437716 24.597907156972383 23.326673706175917 0 0 0
2467 1 25.38442153552903 24.498712317927506 21.231224814145065 0 0 0
2793 1 27.321706330248784 24.490371361875376 23.37559470388911 0 0 0
1639 1 15.411052777616632 28.84624733159187 21.008170512914834 0 0 0
1642 1 15.422248179962669 26.774228777017054 23.278471939148176 0 0 0
1677 1 13.829518056666341 28.90042530438362 23.30917093072174 0 0 0
1928 2 17.198433886746265 26.635611247955826 21.178206001216804 0 0 0
1965 1 17.39835690235215 28.996953512989613 23.217981382137626 0 0 0
1930 1 19.036488079669006 26.772770512061744 23.286989020050893 0 0 0
2253 2 20.519606166963637 29.04087995026664 23.288566335306307 0 0 0
2504 1 23.869060467499295 26.793980594044726 21.146544360219508 0 0 0
2218 1 22.12079451909661 26.683162732256044 23.253298321068105 0 0 0
2541 1 23.782908574533707 28.93406739332879 23.308545451468966 0 0 0
2503 1 25.66026475418516 28.98412434284583 20.95984580780711 0 0 0
2506 1 25.67416420482006 26.73118816659176 23.36232464700382 0 0 0
2829 1 27.389518214919736 28.927764744633905 23.198455240017903 0 0 0
1676 1 13.732902794573548 31.03741093402643 21.160835153490403 0 0 0
1678 1 15.505990328245304 31.223448003436427 23.35702881418166 0 0 0
1966 1 19.031399577211406 31.45751590701681 23.4469794390418 0 0 0
2252 1 20.619042868631574 31.111839350092204 21.078092512078634 0 0 0
2254 1 22.182690679796806 31.28801947191966 23.257258199647204 0 0 0
2828 1 27.22111338077668 31.230124352964584 20.861164140565144 0 0 0
2542 1 25.708370384131328 31.466905647967625 23.33483404753998 0 0 0
1675 2 15.397288402751151 33.263501738215794 20.98924281564807 0 0 0
1713 1 13.874248061770587 33.363973115405884 23.365660117013366 0 0 0
1963 1 18.856703977289772 33.448374226061745 21.142426577575907 0 0 0
2001 1 17.138198383127428 33.40529149921886 23.17343409438389 0 0 0
2289 1 20.629453919135834 33.5446662479891 23.383067309577093 0 0 0
2251 1 22.123094324039993 33.49153582668228 20.958504972118213 0 0 0
2577 1 23.871192545954546 33.55166359227352 23.253551121610943 0 0 0
2539 2 25.619459172283328 33.53073749923634 21.245968516169125 0 0 0
2865 1 27.449807318257722 33.52575419575126 23.445557875306488 0 0 0
1711 1 15.525046478576183 37.981690689093014 21.052146854881 0 0 0
1712 1 13.849901941988303 35.705634053725525 21.0547185935369 0 0 0
1461 1 13.833130843899607 38.064354677474924 23.280523193387182 0 -1 0
1714 2 15.416304057032171 35.730271054625035 23.507633200412002 0 0 0
2000 1 17.05250830086309 35.700535075238705 21.255321197939626 0 0 0
1749 1 17.161112121135364 37.999929549520836 23.400976176993403 0 -1 0
2002 1 18.711064139696887 35.68718098133147 23.380672246853234 0 0 0
2288 1 20.58417130920619 35.834140102481015 21.215789461411568 0 0 0
2287 1 22.15034875454431 38.07537146565296 21.08955646641246 0 0 0
2037 1 20.45387138441108 38.0731927613112 23.401932703492594 0 -1 0
2576 1 23.946850140753273 35.69138510009115 21.111099823957492 0 0 0
2290 1 22.31875738347592 35.85747587962542 23.335751976186014 0 0 0
2325 2 23.952098237556118 38.07340074108525 23.228536661588375 0 -1 0
2578 1 25.688702853651055 35.82962765757705 23.28432814051578 0 0 0
2613 1 27.468895579937602 38.10087490782513 23.399325809674902 0 -1 0
1608 2 13.860162685748467 22.133244757727617 25.513717520551666 0 0 0
1610 1 15.634600770153018 22.173109043049845 27.771022926904013 0 0 0
1896 1 17.13958599760079 22.271455220681894 25.53449286270084 0 0 0
1898 1 18.65426054414954 22.28330175000303 27.809748851429557 0 0 0
2184 2 20.30155871047725 22.290834612675013 25.589181609246133 0 0 0
2186 1 22.096006594123253 22.18478792164174 27.784422773840717 0 0 0
2472 1 23.86634798696735 22.22183529448283 25.717940060939586 0 0 0
2474 2 25.662370928526553 22.228780887285005 27.684672742727482 0 0 0
2760 1 27.31719098957528 22.279252040514226 25.585453889600966 0 0 0
1607 1 15.377597278632908 24.45099353199358 25.50312294133408 0 0 0
1645 1 13.759303731244977 24.48033360788929 27.79095330389121 0 0 0
1895 1 18.671568542049197 24.60321412584153 25.664203340712454 0 0 0
1933 1 17.106408901445803 24.587761949148117 27.944901848532904 0 0 0
2221 1 20.422968064403754 24.61610070982176 27.799705906817906 0 0 0
2183 1 22.20107418124951 24.4533627583904 25.586056257396304 0 0 0
2509 1 23.95620065933518 24.433430404374914 27.870368255166078 0 0 0
2471 1 25.54006326186492 24.442723757880056 25.61750448199585 0 0 0
2797 1 27.332927504769547 24.52427706624033 27.810645060630897 0 0 0
1644 1 13.806077684599451 26.616942977263204 25.54694253114027 0 0 0
1646 1 15.289098770353316 26.811446847757388 27.855659325789297 0 0 0
1643 1 15.484845133044256 29.052337516471486 25.51591964114796 0 0 0
1681 1 13.927714628996949 29.10356361073024 27.97576429130494 0 0 0
1932 1 17.094977846861482 26.75190927053146 25.560225942234986 0 0 0
1969 1 17.10908436237214 29.075517270853183 27.80444400596204 0 0 0
1934 2 18.84010408800005 26.877328886981378 27.79745191524038 0 0 0
1931 1 18.93213040380372 29.042672847765743 25.515429001662906 0 0 0
2220 1 20.608629541453 26.71553262105102 25.61801381164778 0 0 0
2257 1 20.72581091027396 29.061171789890096 27.76937270102353 0 0 0
2222 1 22.199090336553528 26.78016726843758 27.83364409460281 0 0 0
2508 2 23.884651530138523 26.806451496516893 25.47934769807342 0 0 0
2219 1 22.10534550080859 29.02852011690925 25.47445181034973 0 0 0
2545 1 23.9417548067547 29.22362813844853 27.85373493088022 0 0 0
2796 1 27.259541525456576 26.65067529709992 25.709381558665996 0 0 0
2510 1 25.507784518582454 26.78151119990485 27.797541970540244 0 0 0
2507 1 25.65486308403662 29.041155668900632 25.544594067394506 0 0 0
2833 1 27.364424639725918 28.897829058102694 27.864212337970518 0 0 0
1680 1 13.810464625292138 31.267475641373274 25.614855819345923 0 0 0
1682 2 15.54980860032692 31.394572382748947 27.998121012196172 0 0 0
1968 1 17.212836813837622 31.227545933498124 25.609949345388163 0 0 0
1970 1 18.93262606957871 31.305100238963195 27.684225595948647 0 0 0
2256 1 20.880976253507956 31.415551038381473 25.59539978032472 0 0 0
2258 2 22.30988606806932 31.40996746169979 27.9838431948197 0 0 0
2544 1 23.977652270138577 31.348676355589145 25.585865311084234 0 0 0
2546 1 25.78907524743938 31.162254839932707 27.691902308932267 0 0 0
2832 1 27.388532744345085 31.28025498608943 25.371056294313323 0 0 0
1717 1 13.745278033625656 33.45590699742002 27.87607422082705 0 0 0
1679 1 15.714131443058864 33.45105322964002 25.60591368239136 0 0 0
2005 1 17.396085219517968 33.64344435721701 27.794059231077465 0 0 0
1967 2 18.835157731271874 33.32201626598446 25.44870508528851 0 0 0
2293 1 20.484247050143264 33.686741151853475 27.697876519121742 0 0 0
2255 1 22.32278119525621 33.575199669482984 25.75738053615679 0 0 0
2581 1 24.222301053087325 33.49460721916448 27.933813493405978 0 0 0
2543 2 25.622876429274044 33.511390190953904 25.50467160327053 0 0 0
2869 1 27.36043193939053 33.53809363986163 27.81108482976176 0 0 0
1716 1 13.782022984683756 35.578910793914865 25.61484055749027 0 0 0
1465 1 13.822884697035906 38.130876311815385 27.970430897891628 0 -1 0
1715 1 15.363242318074693 38.03814979405984 25.61796702096697 0 0 0
1718 1 15.520372244753663 35.72228184186293 27.857182905293453 0 0 0
2004 1 17.175000879967133 35.793371948305435 25.612961066469474 0 0 0
1753 1 17.00035528110661 38.120128471229656 27.90310974357977 0 -1 0
2006 2 18.908978352737723 36.01433982047249 27.99601123683029 0 0 0
2003 1 18.84881964810091 38.05002427911124 25.70171669381976 0 0 0
2292 1 20.511266438309622 35.79235082494568 25.561829808097475 0 0 0
2041 1 20.78197999526789 38.101067663999125 27.909961669727362 0 -1 0
2580 1 24.12095866470522 35.742411614417364 25.498801522719162 0 0 0
2291 1 22.439874878996296 38.01084770421701 25.481773361569786 0 0 0
2294 1 22.495644916310727 35.779860940492455 27.74701872748354 0 0 0
2329 1 24.09002358288004 38.10550968143334 27.87587476797263 0 -1 0
2868 1 27.291030077753092 35.759061311301096 25.62222089805681 0 0 0
2579 1 25.67425504864684 38.05662404973943 25.523080478115237 0 0 0
2582 2 25.714563671512376 35.84942114580146 27.945884142226234 0 0 0
2617 1 27.372908761667425 38.13845778861308 27.989635101189855 0 -1 0
1612 1 13.901968787374305 22.229401632882166 29.941920257668514 0 0 0
1614 1 15.42912107987738 22.152609504556082 32.313791188439104 0 0 0
1900 1 17.0595624079586 22.095108550716358 30.170037201308563 0 0 0
1902 1 18.745250621276647 22.081250414800042 32.418871974328084 0 0 0
2188 2 20.431537714491277 22.12819918804367 30.140454056092437 0 0 0
2190 1 22.292012023419908 22.231736800043578 32.300208612874684 0 0 0
2476 1 24.007156779170707 22.289266498119396 30.053090032101426 0 0 0
2478 1 25.692587476464958 22.355570868213807 32.34534534126908 0 0 0
2764 1 27.19416852115261 22.16800155271757 30.1338528677126 0 0 0
1611 1 15.438992111310913 24.54993281876066 30.12871906875426 0 0 0
1649 1 13.803334408661655 24.75100111315519 32.27375503486311 0 0 0
1899 1 18.846777649826006 24.37442053572028 30.197345034397255 0 0 0
1937 1 17.258471032435097 24.502642423759244 32.43468159062367 0 0 0
2225 2 20.521176308842147 24.38303541621112 32.582296069438 0 0 0
2187 1 22.015899181647875 24.405433651448398 30.206365618201 0 0 0
2513 1 23.9237611332146 24.534452842754558 32.309285123685996 0 0 0
2475 1 25.646644657569787 24.631243651730944 30.10981534606182 0 0 0
2801 1 27.463437213748264 24.48077599392853 32.44819151323087 0 0 0
1648 1 13.85792582184364 26.804241726069044 30.167150934535087 0 0 0
1650 1 15.55196397548761 26.893869803186835 32.33919253161391 0 0 0
1647 1 15.622261587339889 29.272845466378428 30.177272801913826 0 0 0
1685 1 13.821571666428355 29.14284109274363 32.339961399948265 0 0 0
1936 1 17.167058202079836 26.79462124623209 30.028972085310688 0 0 0
1973 1 17.313494222598873 29.083264550334793 32.3730979906732 0 0 0
1938 1 18.90082935931671 26.52884517158721 32.501004803013245 0 0 0
1935 1 18.949900042689876 28.988720227067983 29.92433145882214 0 0 0
2224 1 20.659000575942358 26.743476516061794 30.16647284149721 0 0 0
2261 1 20.590465633416198 28.893058088648818 32.36651905282176 0 0 0
2223 1 22.281899756120673 29.060817707422313 30.196510110436737 0 0 0
2226 1 22.067973464319703 26.705704604579985 32.555003523720536 0 0 0
2512 1 23.816337415683726 26.714002566136212 30.101763943496664 0 0 0
2549 1 23.928781548431253 28.901192217726972 32.506786906869635 0 0 0
2800 1 27.482138419887498 26.822214853102714 29.91046388976602 0 0 0
2514 1 25.85090785673565 26.68943963183886 32.305576294522545 0 0 0
2511 1 25.516435702939145 28.927382038366247 30.161483021312158 0 0 0
2837 1 27.320780627914704 29.12046520210994 32.37301410704028 0 0 0
1684 1 13.767130272302559 31.247021500400773 30.12809778814648 0 0 0
1686 2 15.576271157339619 31.21850542233724 32.374982666085344 0 0 0
1972 1 17.47582571574181 31.1541379042773 30.158706794136737 0 0 0
1974 1 19.077466126818322 31.296931647472665 32.613150916411755 0 0 0
2260 1 20.397187588130528 31.275577866725424 29.95845778925165 0 0 0
2262 2 22.176938668501222 31.25409144609576 32.24082529444773 0 0 0
2548 1 24.123418038699175 31.25064543545142 30.06685363600698 0 0 0
2550 1 25.57746355486175 31.332873761873795 32.47203469341945 0 0 0
2836 1 27.226582338016 31.374450024792544 30.233844870197466 0 0 0
1721 1 13.792756360912453 33.474331641945824 32.27049697253334 0 0 0
1683 1 15.48869583455794 33.40021875946342 30.052375883069935 0 0 0
2009 1 17.18986495605608 33.53565244155965 32.43715184327159 0 0 0
1971 1 18.90048415044564 33.70028742416915 30.11836056449288 0 0 0
2297 1 20.715426088258795 33.59114477592685 32.3837827214995 0 0 0
2259 1 22.235888883186806 33.523031918118605 30.02322322355277 0 0 0
2585 1 23.80719213048545 33.558332349514885 32.33825321236507 0 0 0
2547 1 25.633998866558763 33.63882157498038 30.202726587602424 0 0 0
2873 2 27.27651571809747 33.625598742280715 32.44730103210453 0 0 0
1720 1 13.900949307798065 35.838562365177644 30.18066146871638 0 0 0
1469 1 13.814929026162112 38.03922822764011 32.40190722862313 0 -1 0
1719 2 15.624405569618023 38.21150561524303 30.19370489921085 0 0 0
1722 1 15.535770056265473 35.791295732032765 32.3799112122635 0 0 0
2008 1 16.969786246902157 35.84273653413346 30.154273592761644 0 0 0
1757 1 17.472654017247535 38.08809642529975 32.38883357073593 0 -1 0
2007 1 18.974666968612237 38.02167003271348 30.010627139761024 0 0 0
2010 2 18.844534892571524 35.757871768624646 32.0582878074955 0 0 0
2045 1 20.468491577845057 38.13714464394623 32.32835226947155 0 -1 0
2296 1 20.840923397719155 35.82040231143495 30.030015219786826 0 0 0
2298 1 22.18854915364827 35.90492627722828 32.49767317254229 0 0 0
2295 1 22.331620709713537 38.090027480784954 30.207571519001213 0 0 0
2584 1 24.00177697522744 35.91163769063315 30.103247514560298 0 0 0
2333 1 23.960819987111737 37.924509101558854 32.4947114929876 0 -1 0
2583 1 25.643491359484514 38.02268243482461 30.124508130318905 0 0 0
2872 1 27.470238149151676 35.84605196960536 30.23314446152119 0 0 0
2586 1 25.54475459194756 35.69254122591718 32.48460235922106 0 0 0
2621 2 27.381804512602233 37.977216857407605 32.364914184598675 0 -1 0
1616 1 13.791375958935024 22.203944036376793 34.591829456764685 0 0 0
1618 2 15.41657659345071 22.177608539493825 37.00499426814244 0 0 0
1904 1 16.939737597647454 22.121194778375248 34.721436791736394 0 0 0
1906 1 19.065305545846467 22.2649074673222 36.96921838117487 0 0 0
2192 1 20.60544023151202 22.243600877595085 34.677497758795084 0 0 0
2194 1 22.190486851633427 22.117943023336974 36.88271900308395 0 0 0
2480 1 23.965193040204234 22.181669317056457 34.66804987982188 0 0 0
2482 2 25.559736776728286 22.12640576018263 37.00441201469259 0 0 0
2768 1 27.148178014849442 22.214395778950554 34.79175007529797 0 0 0
1615 1 15.422078166844525 24.627941130268596 34.792002772090314 0 0 0
1653 1 13.665304788361237 24.432180680009584 37.019226877155944 0 0 0
1941 1 17.125704996885204 24.37870293348823 37.09792362633735 0 0 0
1903 1 18.70554772176691 24.254454731698594 34.789837620746766 0 0 0
2229 2 20.598013378826135 24.574325675882385 36.82560274274856 0 0 0
2191 1 22.462512405604137 24.50842528083564 34.60673568727323 0 0 0
2517 1 23.99274668312805 24.36927611928964 37.01592273393216 0 0 0
2479 1 25.658809733886716 24.448609296624035 34.54834769679317 0 0 0
2805 1 27.332123622965952 24.411336017924675 37.045861813762144 0 0 0
1652 1 13.631645385508708 26.765761628646604 34.41968112382652 0 0 0
1654 1 15.554295073659887 26.761035248719686 36.801421271058814 0 0 0
1651 1 15.367554248076456 28.904737199034525 34.563935866842655 0 0 0
1689 1 13.690542497343944 29.100818513563453 36.8683673425742 0 0 0
1940 1 17.22553890626078 26.714277809351316 34.64256040799856 0 0 0
1977 1 17.248443194791033 29.03987332516579 36.90403270773379 0 0 0
1942 1 18.790374201877924 26.629732480742394 37.16350275305513 0 0 0
1939 1 19.018783930234903 29.07864588474904 34.7895214392783 0 0 0
2228 1 20.4282528902248 26.473816897385454 34.74289289463853 0 0 0
2265 2 20.499175640623942 28.915885890249847 37.196688310672116 0 0 0
2230 1 22.489401519811434 26.742313366569686 36.72642355419386 0 0 0
2227 1 21.981368238936113 28.811906121126952 34.71525834471484 0 0 0
2516 2 24.072574294223905 26.97324145633925 34.49963587012137 0 0 0
2553 1 23.99285121475285 28.94351556488214 36.7375029663482 0 0 0
2804 1 27.31334420091894 26.825514555001234 34.49450422811158 0 0 0
2518 1 25.710572922939818 26.622386346927744 36.666161386788445 0 0 0
2515 1 25.854479128457076 29.145065274067324 34.66056683769875 0 0 0
2841 1 27.29024667942944 28.85986058315424 37.086270600055286 0 0 0
1688 1 13.680435327124908 31.246926696632478 34.678258202751294 0 0 0
1690 1 15.54613289359747 31.356492018100845 36.91900101571969 0 0 0
1976 1 17.141536614335557 31.36229994105469 34.653595698438 0 0 0
1978 1 18.895467637790514 31.18288946024163 36.79069780990956 0 0 0
2264 1 20.761653521626616 31.309303815889127 34.57468267225964 0 0 0
2266 1 22.360836258456782 31.33386202291777 36.89830217215054 0 0 0
2552 1 23.69697283308273 31.145130294155376 34.583574121393596 0 0 0
2554 1 25.499996376396 31.24919726924081 36.85992029065457 0 0 0
2840 1 27.3479503826901 31.46357407256078 34.648573298054 0 0 0
1687 1 15.225894485565039 33.600340357198206 34.64936389014629 0 0 0
1725 1 13.618613827585541 33.46702042837086 36.82453569005308 0 0 0
2013 1 17.12240729941334 33.51171079828613 36.80254784854819 0 0 0
1975 2 18.976113490087688 33.447020289923216 34.660631533009806 0 0 0
2301 1 20.627601045565783 33.424602498923065 36.955557621411074 0 0 0
2263 1 22.201445386766085 33.63471894225157 34.71068262083766 0 0 0
2589 1 23.839253171066055 33.52759896839996 36.865256197756565 0 0 0
2551 1 25.418862199878482 33.483361472247545 34.660711431840156 0 0 0
2877 2 27.33085529979735 33.32209261186742 36.7391408418799 0 0 0
1726 1 15.59672296908333 35.77333772375246 36.88389194435642 0 0 0
1724 1 13.774318609674225 35.777900482346 34.605128389330105 0 0 0
1473 1 14.04998084060816 38.130998853209796 36.846073263882616 0 -1 0
1723 1 15.632507485365295 38.01586815946507 34.53545593370359 0 0 0
2012 1 17.27140860513349 35.72082969047916 34.49473098030364 0 0 0
1761 1 17.22162823433319 37.96730291744334 36.95586757620684 0 -1 0
2011 1 18.93831129862681 38.20070739860223 34.71599287457258 0 0 0
2014 1 19.01933682281774 35.74675361398744 36.849070640400285 0 0 0
2300 1 20.349723105984054 35.81756534032267 34.468440666134114 0 0 0
2049 1 20.56540274361925 38.04070735618022 36.97419210941759 0 -1 0
2302 2 22.196621624345173 35.777466255149484 36.659042547641164 0 0 0
2588 2 23.887793642636474 35.823994904293016 34.681285569777884 0 0 0
2299 1 22.180494070565864 38.010435872993355 34.61745164628971 0 0 0
2337 1 23.942890110828195 37.97717466334391 36.67558332823067 0 -1 0
2876 1 27.489708104452678 35.72357155893679 34.66865723819241 0 0 0
2587 1 25.866487153672665 37.95315833778628 34.71021979130367 0 0 0
2590 1 25.72429179773451 35.68351941708928 36.90001913673383 0 0 0
2625 1 27.36881277574273 38.081100450985396 36.96213116686032 0 -1 0
1620 1 13.751459297735135 22.171248410675695 39.30402717979294 0 0 0
1729 1 17.333895871307455 37.94016734583213 41.438793955026554 0 -1 -1
1908 1 17.128298803496758 22.18164994667719 39.14620348406835 0 0 0
2593 1 27.20725110374485 38.1138958731738 41.26522898664874 0 -1 -1
2196 1 20.6449836820844 22.073427068285106 39.30684966495643 0 0 0
1694 1 15.72259792400725 35.710008683829194 41.4194087894265 0 0 -1
2484 1 23.835994294824225 22.167748516879385 39.186091554014325 0 0 0
2772 1 27.23430836016999 22.111985854606935 39.2643377358237 0 0 0
1619 1 15.40577289917903 24.442387535530084 39.30810197235107 0 0 0
1981 1 17.353057364567476 33.32838251413774 41.32295756521975 0 0 -1
2558 1 25.466939527593258 35.64470970490143 41.42443419206238 0 0 -1
1907 1 18.879894252702528 24.43744520160683 39.220704203024624 0 0 0
2880 1 27.128411031074695 35.74929289582978 39.07176669982992 0 0 0
2195 1 22.175814421890635 24.547545972812735 39.11106112001087 0 0 0
2016 1 17.31441712231543 35.65723970006453 39.0130874001884 0 0 0
2483 1 25.628770187195297 24.378568807018407 39.27209629361346 0 0 0
2555 1 25.696491655910002 33.50118512755208 39.155189571518676 0 0 0
1656 1 13.737749888395449 26.824930945940746 39.24181278566553 0 0 0
1655 1 15.353823425935882 28.929821695327707 39.242763450308445 0 0 0
1944 1 16.945236080747087 26.55404198672571 39.33006783403532 0 0 0
1943 1 18.773833180811295 28.775754963636274 39.33560531629543 0 0 0
2304 1 20.782420360671836 35.594968382912526 39.11273538238083 0 0 0
2232 1 20.622610389863368 26.743026031512976 39.051421303231336 0 0 0
2231 1 22.45703120096558 28.88076268264972 39.10009502382405 0 0 0
2591 1 25.432434708189597 38.040418268598465 39.0602625044737 0 0 0
2520 1 24.02359818582138 26.538949227814502 39.10731205098605 0 0 0
2015 1 19.00395522434066 38.024509989754186 39.15098039323935 0 0 0
2808 1 27.24043718888486 26.682715322505793 39.14602274942794 0 0 0
2519 1 25.597631415936576 28.800492409101572 39.15806516374295 0 0 0
1693 2 13.890877954430835 33.733345426200316 41.35051853585084 0 0 -1
2592 1 23.79269635137175 35.600282972620576 39.05897805899346 0 0 0
1692 1 13.805297188828114 31.402258719602266 39.1740143405825 0 0 0
1980 1 17.262161427887776 31.165909171671014 39.11018699687736 0 0 0
2268 1 20.438159838213345 30.953616432754092 39.11880201993603 0 0 0
1727 1 15.666973241525028 37.92722978209865 39.28023282304616 0 0 0
2556 1 24.04694170599516 31.222658972232324 39.15102456388787 0 0 0
2844 2 27.28193955431547 31.132398899067635 39.11428196031986 0 0 0
1691 1 15.605045692453679 33.49365545180005 39.11734148224906 0 0 0
1728 1 13.780705717922476 35.787660414868185 39.2638124680941 0 0 0
1979 1 18.94241926181742 33.28677814593287 39.03425828499435 0 0 0
2303 1 22.295461646570615 37.90448015165693 38.97408581989923 0 0 0
2267 2 22.138958845655143 33.23842557337976 39.12101376332255 0 0 0
2234 1 22.33902595898887 31.04805695301108 41.24434259172334 0 0 -1
1982 1 18.876499750252318 35.76093552473667 41.24899804300105 0 0 -1
2809 1 27.36976396707279 29.024269810577902 41.33303529998962 0 0 -1
1910 1 19.151672921256097 26.58449228451062 41.37859728735499 0 0 -1
1441 2 13.83371598294519 37.84942949652901 41.31367670379505 0 -1 -1
2557 1 23.862135829602586 33.523663924952665 41.365855898614996 0 0 -1
2198 2 22.125988741395535 26.586003042599696 41.353723860517164 0 0 -1
2305 1 23.837950626986096 38.14004625828061 41.363053423072586 0 -1 -1
2522 1 25.647235966217398 31.289973042066553 41.41979924082953 0 0 -1
2017 1 20.68389075785065 37.99548750751078 41.36518198357048 0 -1 -1
2269 1 20.60655612829632 33.419432132463726 41.38590491600212 0 0 -1
2521 1 23.802771616433635 28.916130091769002 41.3673849188749 0 0 -1
2845 2 27.22564206506216 33.66734946071073 41.40773012235807 0 0 -1
2162 1 22.207317916377573 21.896543200142386 41.42247348919272 0 0 -1
1874 1 18.825960519788065 22.07788396869206 41.34983002703905 0 0 -1
1658 1 15.380087868877567 31.33713934704484 41.363543035780665 0 0 -1
1657 1 13.619844112595288 29.018057137070187 41.35998736670655 0 0 -1
2884 1 30.801752048152004 4.1011463148389895 3.0535735743306023 0 0 0
2594 2 28.90955970493018 4.188165062251603 1.0329996211643957 0 0 0
3172 1 33.947605241264405 4.059729908587823 3.1134404492334644 0 0 0
4 1 44.14817458470571 4.08805054211612 3.2225795669378012 -1 0 0
3460 1 37.44923995017943 4.130702468984881 3.0284928733440637 0 0 0
3748 2 40.53154456705366 4.066727195149124 2.9397603679882054 0 0 0
2630 1 28.926281216306634 8.64296508802375 0.8762546908351981 0 0 0
2595 1 29.087377354433556 6.274157729511127 3.116201062520369 0 0 0
3853 1 41.10045253789302 15.485330584164435 0.7840389222654557 0 0 0
2883 2 32.38379821290311 6.277080424431368 2.887960118968928 0 0 0
3171 1 35.622944504325474 6.304324915268339 3.0337424471720174 0 0 0
149 1 44.079759865562316 19.958505121039924 5.260802374316283 -1 0 0
3459 1 38.922737543899295 6.428383779451396 3.105224938708257 0 0 0
41 2 44.120398131632165 6.294702386563791 5.457011325465161 -1 0 0
3747 1 42.370230687573105 6.311806986478876 3.077357704124471 0 0 0
2631 1 29.042163252910562 10.937763517370529 2.936469824342097 0 0 0
2920 1 30.72098810276971 8.595088916349958 2.971641725295671 0 0 0
3494 1 39.022249996157214 8.711994319704965 0.8147564166615722 0 0 0
3317 1 34.097714911061196 19.81758566822775 5.340084967527608 0 0 0
2919 1 32.299876278725804 10.869236178478989 2.7658753810292716 0 0 0
3208 1 33.99415988076986 8.665839336586648 3.0083049603602015 0 0 0
3242 1 35.90808847930507 13.327388592078801 0.7186990203874575 0 0 0
3207 1 35.70953053779036 11.014289458807454 2.823691023372863 0 0 0
3496 1 37.274676492918196 8.739010142641074 2.999004778785585 0 0 0
3206 1 35.65770068635535 8.721801268990774 0.7607801664999065 0 0 0
3495 2 38.9458946485359 10.95276888044596 3.051674551200242 0 0 0
3784 1 40.69726412680136 8.818648181920395 3.061094888279216 0 0 0
2994 1 32.350626882659654 17.679276681295384 5.176223015434694 0 0 0
3783 1 42.59641950302385 10.890575854846144 2.9788887021608845 0 0 0
3493 2 37.289002067651026 6.291481143693004 0.7625335775715487 0 0 0
3282 1 35.86161789369787 17.515164149667847 5.413600803778598 0 0 0
2956 1 30.52581504870531 13.274174527154418 3.1123119181066854 0 0 0
3244 1 34.00382125827368 13.152195991419385 2.8626958472367483 0 0 0
3858 1 42.4800590913284 17.68351775701956 5.202326414139344 0 0 0
3532 1 37.416448386925175 13.388119826425767 3.087848318114518 0 0 0
3571 2 39.0978827882867 19.732009235889635 7.647132358131236 0 0 0
3820 1 40.7452436044012 13.19036037694753 3.124071046114459 0 0 0
2995 2 32.32610729496467 19.986117511788184 7.520150372720084 0 0 0
3605 1 37.48661270141009 19.879721830788252 5.26386298741545 0 0 0
2667 1 28.90311838716333 15.514796186592458 2.980935957776409 0 0 0
3283 1 35.99642065539118 19.851181311792605 7.475156275276038 0 0 0
2955 1 32.366234868548084 15.412650880243188 3.101742744839189 0 0 0
3860 1 40.79151950435926 17.55089556337854 7.527964179770621 0 0 0
3243 1 35.71804704342757 15.377847938496952 3.098960987508497 0 0 0
3531 1 39.09607960324713 15.562637876605146 2.949958007513962 0 0 0
3819 1 42.73300993461928 15.382065969477217 3.0255079251866843 0 0 0
3572 1 37.613813274525725 17.453043484079835 7.529030606972507 0 0 0
2992 2 30.73111325189324 17.60463627179471 2.819470605565127 0 0 0
2703 1 28.85609796087091 19.952133959581552 2.904503148709909 0 0 0
3570 1 39.11865014121321 17.675910701175432 5.198247563167143 0 0 0
3280 1 33.979958394603095 17.53688601647122 2.970743533769169 0 0 0
2991 1 32.42295108053392 19.823062642702336 2.9719592663642844 0 0 0
3568 1 37.27683241979366 17.734085487968553 2.9145552611773478 0 0 0
3279 1 35.609841375985006 19.953604660711168 2.949575342965546 0 0 0
3859 1 42.47060431387804 19.76203207044418 7.697960426265516 0 0 0
3567 1 39.072903685719396 19.888566331931553 3.0634774801669633 0 0 0
3856 1 40.95804567961499 17.715697113558306 2.9393504533867847 0 0 0
3855 1 42.42734778442081 20.03921194853897 3.2120760040833236 0 0 0
2996 1 30.5759364752778 17.8317154132538 7.568540217296091 0 0 0
2598 2 28.864804735840284 4.138649380674646 5.273809339635795 0 0 0
2888 1 30.56590819759939 4.120415768567949 7.6717890678732 0 0 0
2886 1 32.22906106481811 4.117734867683623 5.390027034055227 0 0 0
3176 1 34.0325339285687 4.218173136794017 7.588697233098555 0 0 0
3174 1 35.620985851443834 4.146607132804982 5.302437971007543 0 0 0
3464 1 37.26818288037511 4.061210497848368 7.474988878712947 0 0 0
3462 1 39.07547125021323 4.1715481961233065 5.398510102151119 0 0 0
3752 1 40.69718102984813 4.0456917259080365 7.468877879225983 0 0 0
2707 1 28.85052941667342 20.05364570841716 7.494280158356092 0 0 0
3750 1 42.278427074346325 4.1478078795164794 5.247185357849952 0 0 0
2599 1 28.996820911568634 6.600249272067483 7.562441682643125 0 0 0
2921 1 30.70315870435345 6.44344662932376 5.310100421118439 0 0 0
2887 2 32.261969478149595 6.275192754105181 7.58082338417708 0 0 0
3209 1 33.98328198345254 6.349478282689146 5.203351480580439 0 0 0
3175 1 35.61393293887775 6.495386311364058 7.505496744082749 0 0 0
3497 1 37.219434710131985 6.346063846824152 5.333786475853154 0 0 0
3463 1 39.02005212379902 6.2971625302721685 7.6366867468301 0 0 0
3785 1 40.675575557177716 6.478091175555257 5.371690425593838 0 0 0
3751 1 42.4070470619349 6.383160622854471 7.502421702515508 0 0 0
2634 1 29.06067982680588 8.676842468516721 5.3764525177416 0 0 0
2635 1 29.041496031258617 10.85903320748995 7.52262246945293 0 0 0
2924 1 30.74013495445366 8.686076232077976 7.6975979439384465 0 0 0
2957 1 30.58704264910419 10.940893598675395 5.258658350183062 0 0 0
3212 1 33.76013219596594 8.613967484341917 7.590822361211942 0 0 0
2923 1 32.33543091076766 10.915903939644721 7.497486506877737 0 0 0
2922 1 32.29020401984354 8.689617683772603 5.170905886380568 0 0 0
3245 1 34.00276561855794 10.884446858425934 5.105224320826272 0 0 0
3210 2 35.65935383223923 8.57787138427997 5.412118969274571 0 0 0
3211 1 35.39952576457743 10.817004124975705 7.562188733792224 0 0 0
3500 1 37.40683931414506 8.664683677977138 7.603604322099339 0 0 0
3533 1 37.19402572897057 10.92668552164111 5.392503390644973 0 0 0
3498 1 39.05148133452912 8.625684439678444 5.188258197629985 0 0 0
3499 1 39.18369496911539 10.886911943830063 7.6637593638789605 0 0 0
3788 1 40.610096191556075 8.693230181953243 7.5300141408477534 0 0 0
3821 1 40.86937427603447 10.961124449264876 5.240757110616544 0 0 0
3786 1 42.39000444846243 8.677326251241544 5.404193699719723 0 0 0
3787 2 42.55260171995979 10.725880059653239 7.4731807237849015 0 0 0
3893 1 40.75160831345653 19.90901974004139 5.384517803192756 0 0 0
2670 1 28.865189155109615 13.187257935846313 5.300852660012161 0 0 0
2960 1 30.70309253612833 13.20751484728698 7.556771350575809 0 0 0
2958 2 32.36827077584579 13.168558319161578 5.228243047931689 0 0 0
3248 1 34.05835548338873 13.19277477921372 7.492099338957578 0 0 0
3246 1 35.54747265759925 13.102892557930819 5.327558820499038 0 0 0
3536 2 37.33999848044496 13.00407145611386 7.569532950370572 0 0 0
3534 1 39.15112966829025 13.218142999056642 5.377464458032191 0 0 0
3824 1 40.92983954362715 13.043056174744258 7.766565615632072 0 0 0
3822 1 42.625640196533446 13.084093755190388 5.4301903885003 0 0 0
2671 1 28.956520325258147 15.425661811621035 7.690854739704783 0 0 0
2993 1 30.683493552856405 15.491519801043369 5.355355467514506 0 0 0
2959 1 32.2580920520393 15.506772936778386 7.477030358635174 0 0 0
3281 1 34.074930452586166 15.526517579897092 5.196211038585664 0 0 0
3247 1 35.84360735690353 15.442544672628042 7.739224786030964 0 0 0
3569 2 37.37650731474021 15.367998938189237 5.309752849409641 0 0 0
3535 1 39.061907781432964 15.234226947867354 7.465829665367581 0 0 0
3857 1 40.826949312462375 15.360915241368446 5.230874430619068 0 0 0
3284 1 34.07345855081843 17.664836194150787 7.5750894606433095 0 0 0
3823 1 42.467337525218674 15.288038321767326 7.673320806303862 0 0 0
2706 1 29.019987591553928 17.68174855992465 5.169499724593931 0 0 0
3029 1 30.696936753589377 19.965578713863867 5.118887773432978 0 0 0
40 1 43.91821286047225 8.509164106298343 3.056303170740031 -1 0 0
3817 1 40.77774814191593 11.044306546963654 0.863040902444397 0 0 0
113 1 44.13977653543903 15.344291199709525 5.432409658919547 -1 0 0
3818 1 42.63814353956002 13.023256738221756 0.9055632316365834 0 0 0
3782 1 42.380647586874694 8.642632062745808 0.7181738306188077 0 0 0
3530 1 39.21495144960774 13.318741058877539 0.9043003116788676 0 0 0
3566 2 39.1560881947001 17.620029224968732 0.8494238412428468 0 0 0
37 1 44.130783244158245 6.391981141538951 0.7841368223103705 -1 0 0
2989 1 30.776504845577726 15.463394970732207 0.772338010392745 0 0 0
2882 1 32.30442560169616 4.232749814082157 0.7744020943720036 0 0 0
2990 1 32.673712852558 17.715198698769036 0.729053661396811 0 0 0
3565 1 37.361132178422714 15.623566672831664 0.8259566574235456 0 0 0
3781 1 40.75036831506198 6.343192560413506 0.9296485125161691 0 0 0
3601 1 37.438923371314324 19.981286920270154 0.7761760016906486 0 0 0
2702 1 28.864164570683155 17.64713418773932 0.7384809686442151 0 0 0
2917 1 30.681261007392266 6.413687251878412 0.7185057761638026 0 0 0
3746 1 42.269212691416165 4.038253537687413 0.8186116225544566 0 0 0
2954 1 32.15120451787533 13.087157244732849 0.7988671427343377 0 0 0
3889 1 40.794833984481905 19.872678207634458 0.8457094043989883 0 0 0
3170 1 35.70312202578701 4.044021602705575 0.8035899347148643 0 0 0
3025 1 30.765567045429094 19.843808553143667 0.8468543463984872 0 0 0
2918 1 32.33287767046808 8.71070835178794 0.7499483171934429 0 0 0
2602 1 28.871323555047496 4.265135599854105 9.989093055902545 0 0 0
2892 2 30.40334210690341 4.203076890541492 12.160270706925402 0 0 0
2890 1 32.24944040493827 4.0660407489520685 9.958660809298516 0 0 0
3180 2 34.09582896132627 3.8769769955136226 11.93554051542077 0 0 0
3178 1 35.66950981807377 4.097904574386757 9.74597617570527 0 0 0
3468 1 37.44557792885465 4.183007601864956 11.868479344059915 0 0 0
3466 1 39.02424683882534 4.133126315840087 9.667677817904655 0 0 0
3756 1 40.704009925274036 4.134445717811968 12.060226055837088 0 0 0
3754 1 42.42461344900606 3.9813274092717252 9.674427182845555 0 0 0
3867 2 42.5995779800691 19.772051953048233 16.451611154177286 0 0 0
2603 1 28.854567045620968 6.547754098095496 12.143110755110445 0 0 0
2925 1 30.611408450380672 6.45722387864837 9.954038804665155 0 0 0
2891 1 32.3920272378284 6.147910908045734 12.146747502246127 0 0 0
3213 1 33.845458043884186 6.399946549643019 9.86130012004348 0 0 0
3179 1 35.51580815912981 6.248157295352919 12.127389463163437 0 0 0
3501 1 37.221506195263046 6.5130332767629895 9.829272744629899 0 0 0
3467 1 39.04690180776765 6.438485778545432 12.003741003691097 0 0 0
3789 1 40.81355335080979 6.3607932596347485 9.786514051667424 0 0 0
3755 1 42.499627733208975 6.423095758630916 11.960922385552555 0 0 0
3901 1 40.846575386288265 19.778058944481003 14.18218739856937 0 0 0
2928 1 30.66651764931511 8.604003565523726 12.167002050913407 0 0 0
2638 2 29.025722372019892 8.75865188640487 9.864819921760441 0 0 0
2639 1 28.90428418298204 10.933087672256038 12.093429293797744 0 0 0
2961 1 30.636746783595427 11.09905900715865 9.802879186086157 0 0 0
2926 1 32.17256246224843 8.762462151334223 10.004398520565532 0 0 0
2927 1 32.31267047106605 10.867716214199465 12.284402774133524 0 0 0
3216 1 33.89351017522984 8.573379736406132 12.374295355366428 0 0 0
3249 1 33.9754127630446 11.041239070998314 9.88555963934422 0 0 0
3214 1 35.423013807602345 8.750224498373697 9.827220214148374 0 0 0
3215 2 35.67878860970488 10.732773546067351 12.145041468530165 0 0 0
3504 1 37.31385904884664 8.558062121046802 12.09006531435537 0 0 0
3537 1 37.16054666146726 10.953360577078827 9.71098968795422 0 0 0
3502 1 39.06935296462748 8.678525649252375 9.875012439129724 0 0 0
3503 1 39.08282738742789 10.750974106674908 12.045378257849656 0 0 0
3792 1 40.804608692741134 8.619541278997929 12.045809501486584 0 0 0
3825 1 40.98245990388608 10.870403633475151 9.804202906674469 0 0 0
3790 1 42.600230180956274 8.47332000320647 9.691507144022179 0 0 0
3791 2 42.488252866228805 10.865144352202625 12.331820988532058 0 0 0
2674 1 28.86306577934604 13.20780538487534 9.824313100579731 0 0 0
2964 1 30.671920662505265 13.219965855606441 12.208435904608976 0 0 0
2962 1 32.34968659396181 13.26409898653803 9.799515038934508 0 0 0
3252 1 34.072362303236986 13.057358775975592 12.170803822241336 0 0 0
3250 1 35.60506220261413 13.181962136407387 9.833233808300704 0 0 0
3540 1 37.395983437702064 12.984191466640238 11.989776183446951 0 0 0
3538 1 39.060096942958396 13.013376086539854 9.743465181344323 0 0 0
3828 1 40.631589101013525 13.040468308319742 12.202049449485472 0 0 0
3826 2 42.60651422063036 13.198237448579192 9.965199869696763 0 0 0
3868 1 40.6390032762187 17.693827678194474 16.45348822589834 0 0 0
2675 2 28.853021982735218 15.399139013847783 12.029773604348236 0 0 0
2997 1 30.691031413411856 15.40853722338653 9.84175629003097 0 0 0
2963 1 32.43880964462712 15.349369786358924 12.03863035887161 0 0 0
3285 1 33.880838754328934 15.507825961365212 9.901936066549291 0 0 0
3251 1 35.6324387824238 15.283524288996754 12.104398525241747 0 0 0
3573 1 37.4371090382039 15.360756883655887 9.875032860296393 0 0 0
3539 1 38.97208301004232 15.448236548443278 12.22373534096109 0 0 0
3861 1 40.65571906857994 15.284318498918593 9.96101246874232 0 0 0
3827 1 42.592785982247705 15.284949955419577 12.063126624547774 0 0 0
3290 1 35.584440577383916 17.628347430002712 14.479016475842643 0 0 0
3000 1 30.695101201536183 17.64599054912393 12.033117855512117 0 0 0
2710 1 28.86208554824792 17.583498716931313 9.96992569682015 0 0 0
2711 2 28.768503415136433 19.855923956065784 11.96782542167906 0 0 0
3033 1 30.546964625396235 19.85460093163754 9.717871760363533 0 0 0
3321 1 34.234364898541614 19.90457829690243 9.56770870851072 0 0 0
2999 2 32.48866641061779 20.011034535488882 11.877082710258218 0 0 0
2998 1 32.372407389651244 17.80431069549494 9.749624262547995 0 0 0
3288 1 34.027904946721215 17.695507177027167 12.089463795487394 0 0 0
3286 2 35.65405364984829 17.507730204721916 9.751465046628232 0 0 0
3287 1 35.53467388272056 19.988619722938658 12.134579706753346 0 0 0
3576 1 37.23913378471508 17.620010274576906 12.116517354359129 0 0 0
3609 1 37.34930050462827 19.865401451778077 9.918591084792983 0 0 0
3864 1 40.91703923011746 17.530228743719153 12.101621555209015 0 0 0
3574 1 39.07219086129589 17.65146750432381 9.914069411802789 0 0 0
3575 1 39.18406026633605 19.762192095927915 12.08924178444714 0 0 0
3897 1 40.66879160739122 19.888210761213102 9.954731042728502 0 0 0
3862 1 42.54911386692338 17.496496883337798 9.896291528418287 0 0 0
3863 2 42.488169752538276 19.89676353864933 12.073221549379987 0 0 0
12 1 44.127622987198556 4.001566271334392 12.136029240925467 -1 0 0
2606 2 28.76460311564481 4.3296727177269405 14.32028232823254 0 0 0
2896 1 30.837756142305352 4.17176669981388 16.513326648348045 0 0 0
2894 1 32.32015655398949 3.958909488564781 14.277805725302303 0 0 0
3184 1 33.958198242694976 4.242147488263767 16.627719210181326 0 0 0
3182 1 35.658857561909635 4.030116234312012 14.242687319660838 0 0 0
3472 1 37.49263601755496 4.1856293324072595 16.469409370151308 0 0 0
3470 1 39.08608629308059 4.229688356845721 14.262125193644682 0 0 0
3760 1 40.77645584674535 4.060249688407209 16.484138476468765 0 0 0
3758 1 42.230406127811705 3.9519859233736137 14.241952280966437 0 0 0
81 1 44.091831536366065 10.842984193900488 9.854051967245114 -1 0 0
2607 1 28.962451031431577 6.28531317368812 16.42745737960515 0 0 0
2929 1 30.647744219778204 6.391123764908581 14.343234333232123 0 0 0
2895 1 32.43884339842175 6.491221161097476 16.747625276859637 0 0 0
3217 1 34.094706579733646 6.306128696749758 14.436031689479906 0 0 0
3183 2 35.785978507927986 6.347437725201366 16.59966936250989 0 0 0
3505 1 37.292713722787866 6.3123657645710844 14.276282109746361 0 0 0
3471 1 39.16747961293553 6.52664005790086 16.525749929377852 0 0 0
3793 1 40.79298457656659 6.482250233315236 14.257210378416877 0 0 0
3759 1 42.36230325212556 6.3140359318711505 16.560222138795144 0 0 0
3866 1 42.49605359057638 17.58718014808551 14.337181236447055 0 0 0
2642 1 28.856639926293102 8.556207340482214 14.287133080638638 0 0 0
2643 1 28.898948205178193 11.009206577347557 16.597727726428047 0 0 0
2932 1 30.446103938903647 8.582781979914792 16.389319392966424 0 0 0
2965 1 30.65191193629346 10.84307977258421 14.347627764362956 0 0 0
2930 2 32.35379887897775 8.492178897431373 14.529166384409843 0 0 0
3220 1 34.03321029254915 8.650505454106538 16.770571384829807 0 0 0
2931 1 32.31342582014297 10.854810751944683 16.65229372905875 0 0 0
3253 1 33.95229237352693 10.739429472099317 14.467894525931776 0 0 0
3218 1 35.55637391754983 8.58430116538895 14.508100075961638 0 0 0
3219 1 35.773357987901385 10.884132839130155 16.713613112446208 0 0 0
3508 1 37.35113673788192 8.60074491178467 16.57382178388773 0 0 0
3541 1 37.342768347659764 10.691944654759979 14.415701369149568 0 0 0
3796 1 40.853142109461665 8.64700577308073 16.641377091918258 0 0 0
3506 2 38.99095489045792 8.51734876010293 14.29496347729351 0 0 0
3507 1 39.01902146828292 10.941604152264969 16.625870900220235 0 0 0
3829 1 40.661571161201984 10.996492402780547 14.411631684955498 0 0 0
3794 1 42.49964207857575 8.634670755682901 14.211806613324484 0 0 0
3795 1 42.453411588448084 10.893335972555631 16.51247977133583 0 0 0
3578 2 38.95769215925738 17.563945264748178 14.231154307785667 0 0 0
3579 1 39.04295624747566 19.90404066170024 16.538664347772006 0 0 0
2968 1 30.76213516397867 13.176426148183422 16.660625712061876 0 0 0
2678 1 29.03316510981187 13.117976204476417 14.235248930997496 0 0 0
2966 1 32.447262887228014 13.117793509998865 14.410695209837943 0 0 0
3256 1 34.1257539459306 13.0545859816332 16.720383474241633 0 0 0
3254 1 35.72021048109047 12.920668361123573 14.258491004301254 0 0 0
3544 2 37.22326287923981 13.256102672597494 16.67093077430379 0 0 0
3542 1 38.98831617010661 13.175296205198908 14.471842461793635 0 0 0
3832 1 40.73749786839985 13.161971064903753 16.66216304493508 0 0 0
3830 2 42.50946022463944 13.00342845526994 14.33956215867436 0 0 0
2679 1 28.930873273890505 15.4907943525818 16.573485066415323 0 0 0
3001 1 30.714170073672307 15.334645777929866 14.339580937371034 0 0 0
2967 1 32.47042034665137 15.407481844762003 16.594224457151864 0 0 0
3289 2 34.1157578632532 15.232082870786574 14.381708693234733 0 0 0
3255 1 35.58794898199741 15.45037212328993 16.68537040345143 0 0 0
3577 1 37.12791185799564 15.463865741973445 14.295898536708135 0 0 0
3543 1 39.08325993257125 15.327302827108314 16.420295935588 0 0 0
3865 1 40.77566975039271 15.252870395570637 14.240183714359848 0 0 0
3831 1 42.309314903100315 15.294513264147966 16.619598584365107 0 0 0
3004 1 30.787129084070216 17.60308717712733 16.616448119112576 0 0 0
2715 2 29.20015271974257 20.00081458893046 16.487638941217966 0 0 0
2714 1 29.0939305166905 17.637564572972206 14.267752303723721 0 0 0
3037 1 30.76355326394379 19.83201490245413 14.190109851815595 0 0 0
3325 1 33.949194224543646 19.872599317663656 14.299968952911223 0 0 0
3002 1 32.40177809587305 17.548886901393722 14.273083141330323 0 0 0
3292 1 34.00390197567115 17.742409576805045 16.65220860449164 0 0 0
3003 1 32.173439386236666 19.901484062675866 16.72630316129509 0 0 0
3613 1 37.28468959126833 19.895604546504188 14.303919371777981 0 0 0
3291 2 35.70461769995284 19.965912754598136 16.536292758461478 0 0 0
3580 1 37.41103466157662 17.539728593194745 16.526570240757138 0 0 0
120 1 44.11729880504192 17.639706472513428 12.189096839660026 -1 0 0
52 1 44.13345551815129 8.474715366037355 16.589113618982083 -1 0 0
121 1 44.1126418489201 15.334289751906283 14.461312450628395 -1 0 0
124 1 44.07937743002375 17.526279897628292 16.64759169606112 -1 0 0
153 1 44.04626565847826 19.808483953911324 9.81008311818547 -1 0 0
49 1 44.12281012546569 6.126137492322497 14.347785796742155 -1 0 0
2610 1 28.84036657475543 4.225977739790212 18.697723085188336 0 0 0
2898 1 32.553201846746546 3.9864201294670787 18.842152155709964 0 0 0
3186 1 35.800425129613004 4.184842507454923 18.78619441205246 0 0 0
3474 1 39.005950125310854 4.2805809801853805 18.795823768581897 0 0 0
3762 1 42.42669759982126 4.156024436587376 18.774221316726592 0 0 0
2933 1 30.642354559743623 6.241689545849389 18.712148871596984 0 0 0
3221 1 34.09422188682863 6.53519541906555 18.887114639023416 0 0 0
3509 1 37.47051569840916 6.4683794344473435 18.8849662906857 0 0 0
3797 2 40.643103762631235 6.464476580896356 18.93152889536634 0 0 0
3475 1 38.95344954758827 6.252384116171901 21.3025978812697 0 0 0
3298 1 35.682813084888274 17.639488719951444 23.21395807052313 0 0 0
2646 1 28.870291539961475 8.677723748668928 18.970092829841906 0 0 0
2969 1 30.571224152957775 10.960126890902284 18.865128546642623 0 0 0
2936 1 30.533379244811762 8.859896088487307 21.142944509114745 0 0 0
2934 1 32.18746072928204 8.563076263811626 18.74423090115042 0 0 0
3257 1 33.95708992052644 10.757319524396092 18.820335342108418 0 0 0
3222 2 35.79827140717552 8.747081625201401 18.992413674451246 0 0 0
3545 1 37.500629430969745 10.907938559285029 18.939261040062203 0 0 0
3223 1 35.657912902672905 10.74463886532658 21.05883979796475 0 0 0
3510 1 39.06022660771893 8.68063841132986 18.83200586904642 0 0 0
3833 1 40.779675651028974 10.910207530939374 18.96724225997989 0 0 0
3798 1 42.49957969253416 8.591133743713133 18.934117827821872 0 0 0
3295 1 35.53800545664113 20.028824754461947 21.04326488415654 0 0 0
2682 1 28.893845846381385 12.961118230787376 18.818030863773323 0 0 0
2972 1 30.44700419954824 13.033143257373231 21.20933643635298 0 0 0
2970 1 32.38272125097717 13.083213315812724 18.903927576256507 0 0 0
3260 1 34.219261177485286 13.10158053087065 21.221663593986527 0 0 0
3258 1 35.75195617600872 13.092470340639675 18.939786834707228 0 0 0
3546 1 38.909195643208804 13.225528142073893 18.88289580282838 0 0 0
3836 2 40.90507973401648 13.302942482600843 21.100830796265143 0 0 0
3834 1 42.631205027138975 13.167736517194 18.911777958871763 0 0 0
3005 1 30.596253250375888 15.225719924862588 18.793577959115893 0 0 0
3293 2 34.13631991369644 15.39599486629551 18.902885608243885 0 0 0
2971 1 32.15847246716727 15.368639861103313 21.11544073825061 0 0 0
3581 1 37.38984434633328 15.610204804743198 18.8093541476446 0 0 0
3869 1 40.75210275306109 15.263878488030928 18.97199462849946 0 0 0
3547 1 39.004390589627725 15.48997021039931 21.09140956016213 0 0 0
3909 1 40.87105320787331 19.982334557817154 23.320320824062247 0 0 0
2718 1 29.1587685724436 17.82436603147675 18.749988576327272 0 0 0
3041 1 30.742226197976258 20.136393762680765 18.966891185409697 0 0 0
2719 1 28.942803175213065 20.027153190987764 21.060541535241224 0 0 0
3008 1 30.66712745198521 17.760809202939136 21.07560079865591 0 0 0
3006 1 32.38021667147039 17.598666049435785 18.80901906205595 0 0 0
3329 1 33.961969762414704 19.93279609794146 18.718461549232305 0 0 0
3296 1 33.95035299650666 17.56700986772948 21.152439580791746 0 0 0
3007 2 32.47704205737104 19.91877274298348 21.08320221338104 0 0 0
3294 1 35.58908019563813 17.75901148476831 18.796238702088843 0 0 0
3617 1 37.40347355360735 19.815253643556435 18.938060483899285 0 0 0
3582 1 39.283509255040414 17.75178773840357 18.888963363260334 0 0 0
3905 1 40.87179769937672 19.83925295667169 18.71926906485406 0 0 0
3872 1 40.96586111727476 17.679508725768443 21.140483356527756 0 0 0
3583 1 39.30744937361638 19.918667316036647 21.13818048823197 0 0 0
3870 1 42.390504672395615 17.516468930748147 18.708759866574457 0 0 0
3333 1 33.97763835560384 19.981675033555778 23.509081670334332 0 0 0
3874 1 42.42232244401848 17.484770468412684 23.36705471369476 0 0 0
2900 1 30.683183783837563 4.016722729987763 20.96735992223946 0 0 0
2614 1 29.0345364447793 4.2282771331185405 23.273351426170755 0 0 0
3188 1 34.0311797576086 4.149713164810125 21.11708976307959 0 0 0
2902 1 32.20745773783157 4.165873755526402 23.249734681899938 0 0 0
3476 1 37.3828970369625 4.045885653995508 21.12725172884376 0 0 0
3190 1 35.5754416732025 4.174731659753977 23.409948055048346 0 0 0
3478 1 39.0294150667856 4.166043849008157 23.51373864795987 0 0 0
3764 1 40.64889487733299 3.9829683847302846 21.105157315860673 0 0 0
3766 1 42.390451941954844 4.138852707493249 23.395626189671713 0 0 0
3871 1 42.347328775909524 20.135420428359122 20.888665727472485 0 0 0
2611 1 28.902334131425697 6.359168550092773 20.97995013827357 0 0 0
2937 1 30.620163503143054 6.558502473209061 23.250408024565914 0 0 0
2899 1 32.186459812696995 6.460375511080244 20.959702478507875 0 0 0
3225 1 33.850371440657554 6.460675533017443 23.368909420058493 0 0 0
3187 1 35.86974810762068 6.449720390928923 21.05748037441315 0 0 0
3513 1 37.37610740244471 6.4868772748428665 23.476716917559692 0 0 0
3801 1 40.81754655544063 6.414986198189279 23.450862215887263 0 0 0
3763 1 42.284601335783385 6.211904776927738 21.130065225847993 0 0 0
3586 1 39.178762663691174 17.73284192824218 23.310340062003526 0 0 0
2647 1 28.68059832131002 10.905833984971713 21.06668931077603 0 0 0
2650 1 28.817454041458927 8.701786008967032 23.309996722864945 0 0 0
2973 1 30.507109106814127 11.037370940040914 23.25585301503194 0 0 0
2935 2 32.27089492005455 11.017897708987615 21.147018670641692 0 0 0
3224 1 33.870802242457806 8.671984784521527 21.119020958490744 0 0 0
2938 1 32.28284301527187 8.774676771127318 23.406903710926215 0 0 0
3261 1 33.94161311894377 10.965817798243906 23.254320027326397 0 0 0
3512 1 37.760000177794204 8.720067885170385 21.202044690570876 0 0 0
3226 2 35.69039331509974 8.633566695737922 23.265564603621844 0 0 0
3549 1 37.46358393722783 10.938429311080313 23.289073772667 0 0 0
3800 1 40.66837710480077 8.669960677952542 21.188649285649902 0 0 0
3511 1 39.21869328216129 11.065916408901638 21.165268524625578 0 0 0
3514 1 39.18786288541702 8.73099865907949 23.655100616954417 0 0 0
3837 1 40.6714593045961 11.040100816093068 23.463850147734398 0 0 0
3799 1 42.40075900412721 10.934364825024062 21.240613417286163 0 0 0
3802 1 42.4344603620703 8.697857409165945 23.488151961649223 0 0 0
2686 1 28.740757145651568 13.392622071501094 23.34362926835998 0 0 0
2974 1 32.23046399211234 13.162020790056513 23.37774297709797 0 0 0
3548 1 37.34822327976745 13.080547924956052 21.089230542571286 0 0 0
3262 1 35.80371971444011 13.24528551875276 23.378766183023306 0 0 0
3550 1 39.10230616857066 13.250254519859697 23.36925630352888 0 0 0
3584 1 37.4126767187694 17.778295006906774 21.111745615723883 0 0 0
3838 1 42.34939321805491 13.16910324393095 23.448972471785456 0 0 0
2683 1 29.00121309301595 15.40649534282688 21.165372918366508 0 0 0
3009 2 30.64926459906414 15.4403046209618 23.434283394836818 0 0 0
3297 1 33.979270453290574 15.356906927165081 23.227696596148895 0 0 0
3259 1 35.871225868698005 15.430518685741351 21.182417803334996 0 0 0
3585 1 37.43750727951597 15.536904390069937 23.44294433445643 0 0 0
3873 1 40.76546951848651 15.368595954822228 23.300600846543144 0 0 0
3835 1 42.546540355742785 15.401642544277056 21.143387228868328 0 0 0
3621 1 37.51533909841709 19.99224342462971 23.224419380085827 0 0 0
2722 1 28.87901238192156 17.7571056898666 23.318819160692584 0 0 0
3045 1 30.717584402620368 20.029325087210115 23.29356659673075 0 0 0
3010 1 32.3817361584868 17.727731767102682 23.263076906256035 0 0 0
161 1 44.127066646652096 19.917032666829638 18.695957626599377 -1 0 0
53 1 44.016685283426305 6.369559340501227 18.751867947418095 -1 0 0
56 1 44.02955021678481 8.683761679728162 21.212474122437484 -1 0 0
129 2 44.14078962446543 15.211181715472236 23.57580727716004 -1 0 0
165 2 44.003614850312324 19.831148359607273 23.211413554386752 -1 0 0
128 1 44.09760068810042 17.821354439418073 21.017670619276952 -1 0 0
89 1 44.1183834397865 10.822975361346664 19.058053984309197 -1 0 0
20 1 44.13182598471059 4.1360028662419355 21.172276315217275 -1 0 0
2618 1 29.039206771485745 4.121827576101401 27.880862009540458 0 0 0
2904 1 30.587886732417616 4.263868810662726 25.57616175098192 0 0 0
2906 1 32.343368720453874 4.198265811334494 28.015637422207465 0 0 0
3192 1 33.84462248506685 4.210785729246676 25.689308849212832 0 0 0
3194 1 35.47083092168129 4.133244407924731 27.827525832421564 0 0 0
3480 1 37.26996327657514 4.272264100050508 25.586302478951865 0 0 0
3482 1 38.92999394712954 4.04528347269309 27.895946364734822 0 0 0
3768 2 40.87468186365845 4.138860701621944 25.766764446518312 0 0 0
3770 1 42.764869369671175 4.102191756363572 27.885085879121693 0 0 0
3882 1 42.589484368157976 17.48078891873432 32.40062195542397 0 0 0
2615 1 28.89581291978802 6.424566321221559 25.4732166834564 0 0 0
2941 1 30.51814845667709 6.48948548622885 27.839535498598647 0 0 0
2903 2 32.23143214090483 6.593742882296396 25.607721600826647 0 0 0
3229 1 33.84097895363959 6.438671271858701 27.840637507133756 0 0 0
3191 1 35.571779140583445 6.425300743183711 25.70457957363886 0 0 0
3517 2 37.185639139414924 6.327849523027837 28.002829383905198 0 0 0
3479 1 39.10616960927795 6.418611917570748 25.85250571505264 0 0 0
3805 1 40.972576783321976 6.222409324337165 27.937333314704485 0 0 0
3767 1 42.45449704659129 6.382340442012498 25.69170986177863 0 0 0
3879 1 42.493432761460824 19.899396328404368 30.048157486949837 0 0 0
2654 2 28.78362136287799 8.76905621482461 28.001630686886244 0 0 0
2651 1 28.8418184989987 11.137509261641949 25.521962240836753 0 0 0
2940 1 30.347229972948185 8.785822695187807 25.59272252743892 0 0 0
2977 1 30.463134777338247 10.889847603657895 27.88981367454226 0 0 0
3228 1 34.070471135495396 8.759337346945024 25.510709914265387 0 0 0
2939 2 32.23657861711444 10.925407371144434 25.53016734191148 0 0 0
2942 1 32.27232105490442 8.760751362380478 27.80538774782845 0 0 0
3265 1 34.000517225535965 10.902035489365039 27.90861070852074 0 0 0
3516 1 37.2559341350588 8.448161678782274 25.686919527506465 0 0 0
3230 1 35.5468459890042 8.559240177283144 27.93939976799789 0 0 0
3227 1 35.784499237863585 10.890004784713954 25.525752302347843 0 0 0
3553 1 37.46734743807356 10.75898701348539 27.937968592432988 0 0 0
3518 1 39.20741666406677 8.542114739801551 27.884877905241158 0 0 0
3515 2 38.97578817955441 10.774982652673264 25.64914618824075 0 0 0
3804 1 40.87831717318076 8.808474175528463 25.784515589876982 0 0 0
3841 1 40.76450100364422 10.98097722473452 27.858070411026446 0 0 0
3806 1 42.388284460168364 8.683644870006635 28.043107748157123 0 0 0
3803 1 42.60275154033514 10.966562151489821 25.742818990283787 0 0 0
3303 2 35.739767770881 19.946338582220264 30.079704321708036 0 0 0
24 1 44.033220660933765 4.137282324144213 25.47848721223267 -1 0 0
2976 1 30.65776808262288 13.349012429627667 25.43231494413059 0 0 0
2690 1 29.034318121911483 13.24508362679567 27.881246084904216 0 0 0
2978 1 32.29449022760398 13.046031418540428 27.790993445350463 0 0 0
3264 1 33.897358347094446 13.052993949732052 25.5274121146621 0 0 0
3266 1 35.76937026488199 12.94313015382263 27.933478560876758 0 0 0
3552 1 37.420646759398934 13.25317563869734 25.521570356610468 0 0 0
3554 1 38.90492588444771 13.050869527463872 27.88915194152354 0 0 0
3840 2 40.67665209209 13.009832767078072 25.792047421696708 0 0 0
3842 1 42.61555935178919 13.203205798887442 27.953501251214124 0 0 0
2687 1 28.803776055154895 15.507431113588103 25.564320921218176 0 0 0
3013 2 30.735422030254952 15.297439551720059 27.73296974693125 0 0 0
2975 1 32.51889275457326 15.423786102635265 25.625769622557186 0 0 0
3301 1 34.14835650964899 15.314936353044239 27.806007623844863 0 0 0
3263 1 35.581702819992486 15.373963883376085 25.56444280935794 0 0 0
3589 1 37.400141440927456 15.29881172574597 27.88282931524409 0 0 0
3551 1 39.126551420959174 15.396717234761876 25.595677507348533 0 0 0
3877 1 40.679024451762025 15.203612727046577 28.015094585415525 0 0 0
3839 1 42.33749742197819 15.262621192624549 25.6496541710935 0 0 0
3012 1 30.75003998222389 17.57715538631829 25.47529993919063 0 0 0
2723 1 29.084744572167445 19.844044927739553 25.53998937581428 0 0 0
2726 1 29.126244849838606 17.644491309002042 27.80309356781508 0 0 0
3049 1 30.64350333442556 19.943047612200903 27.85880845407956 0 0 0
3300 1 34.12167056851422 17.742219137114624 25.579904219109622 0 0 0
3014 1 32.32652234149273 17.63076552037588 27.836271080847204 0 0 0
3011 1 32.288211031108 19.95135952723105 25.581227375278146 0 0 0
3337 1 34.01732000725792 19.808932445067857 27.923307169918616 0 0 0
3588 1 37.394881389488326 17.546347072931646 25.486669018927287 0 0 0
3299 2 35.76038542782943 19.901875609662095 25.64924625139209 0 0 0
3302 1 35.899046485713455 17.641074139197464 27.777939989463775 0 0 0
3625 1 37.6031347108492 19.92768437925799 27.859441048824916 0 0 0
3876 1 40.84039202520794 17.645817007661407 25.576475801296418 0 0 0
3587 1 39.22949167383439 19.93881841233504 25.703125999903307 0 0 0
3590 2 39.21223253041973 17.61656183307121 27.84827059646185 0 0 0
3913 1 40.78875745516768 19.90611396673106 27.86082034875506 0 0 0
3878 1 42.29926505811708 17.44519071267807 27.8820947724873 0 0 0
3875 1 42.440173916275114 19.886281700087633 25.52220005327551 0 0 0
3880 1 40.725095646704204 17.514306110926327 30.216387830623127 0 0 0
2622 1 28.78731100578769 4.2250954301559185 32.58534003667766 0 0 0
2908 1 30.49268117895714 4.234027812195018 30.27871740274863 0 0 0
2910 1 32.26865190854817 4.104245659070928 32.388647379078165 0 0 0
3196 2 33.963980600466314 4.105902234345924 30.10150765272144 0 0 0
3198 1 35.729684971868686 4.137064732086311 32.314476445407784 0 0 0
3484 1 37.403212585083125 4.184370516217211 29.977742606296765 0 0 0
3486 1 39.067336354796645 4.121697578597611 32.25258673413582 0 0 0
3772 2 40.73148373999164 4.015764706387866 29.949123098963668 0 0 0
3774 1 42.282061938879544 4.149727038330949 32.4029649608295 0 0 0
2619 1 28.972138709280017 6.591743055967472 30.222744758776376 0 0 0
2945 1 30.429194647559193 6.387079551542377 32.474532551420076 0 0 0
2907 1 32.296065433024665 6.376168264758681 30.217632287508604 0 0 0
3233 1 34.01759703041429 6.349234473774088 32.43624690590843 0 0 0
3195 1 35.494623926942644 6.269789803086799 30.115202663586775 0 0 0
3521 1 37.474196299832535 6.474323525277015 32.31868992977118 0 0 0
3483 1 39.074607270047224 6.295593327120613 30.09050946865913 0 0 0
3809 1 40.70830788252124 6.30789828734892 32.335153473092944 0 0 0
3771 1 42.46593885817044 6.395151599081111 30.1058529490582 0 0 0
2655 1 29.031414663348833 10.958472863476322 30.114426842020837 0 0 0
2658 1 28.99183514645179 8.696628239145255 32.41639810889936 0 0 0
2944 1 30.60696647204604 8.76517189224538 30.027984852913086 0 0 0
2981 1 30.652905692387 11.013386734834734 32.58752255175595 0 0 0
3232 1 33.8023659681795 8.643176311417857 30.12060698626379 0 0 0
2946 2 32.18665659262725 8.610076240544496 32.35689944312925 0 0 0
2943 1 32.22133126695443 10.910492280988297 30.130311464948992 0 0 0
3269 1 33.99485784298739 10.773958621091062 32.44330131893233 0 0 0
3520 1 37.30612376217564 8.598615833077368 29.985528536918615 0 0 0
3234 1 35.61143084038797 8.61233376510594 32.327274482762505 0 0 0
3231 1 35.74985825139467 10.9281139470055 30.07664294345941 0 0 0
3557 1 37.28667892247875 10.866119120691463 32.47290554617393 0 0 0
3808 1 40.70092091254654 8.551575893692743 30.153307655465547 0 0 0
3522 1 39.23961526859306 8.61295173857686 32.43071690787539 0 0 0
3519 1 39.0943047082584 10.880952385610005 30.207747131871454 0 0 0
3845 1 40.59791388227975 11.033587086423378 32.526972192181105 0 0 0
3591 1 39.30081259891551 19.912130589028315 30.31243537936779 0 0 0
3917 1 40.893695158691386 19.882946406522972 32.45366076221541 0 0 0
3810 1 42.321760389961376 8.710012149110451 32.40480778242781 0 0 0
3807 1 42.25026868632607 10.973416744027356 30.179764407901843 0 0 0
2694 1 28.9347474140355 13.308631911518136 32.40418266221921 0 0 0
2980 1 30.6804636757778 13.324265974538623 30.080558634334256 0 0 0
2982 1 32.459454219977324 13.01261087557329 32.68301085050673 0 0 0
3268 2 33.904014497379876 13.283600231686771 30.09622617298082 0 0 0
3270 1 35.561319171568464 13.102498327118889 32.318863521228565 0 0 0
3556 1 37.25400186569944 13.149462098261731 30.202672667926606 0 0 0
3558 1 38.866306081010904 13.118694322255752 32.35832225606043 0 0 0
3844 2 40.67925332999019 13.235983328404423 30.093921206288414 0 0 0
3846 1 42.43802203331388 13.174672405091382 32.408925212002394 0 0 0
3594 1 39.01745154617512 17.63596232883428 32.315930311440255 0 0 0
2691 1 29.030687241104324 15.433932791997133 30.13944752979975 0 0 0
3017 1 30.705095104614017 15.400363097042922 32.567956347521104 0 0 0
2979 1 32.28738862550653 15.656879215254126 30.154528365942234 0 0 0
3305 1 34.09405025740958 15.439471190827543 32.41125289813334 0 0 0
3267 1 35.67863705852816 15.385744388273753 30.103683889325335 0 0 0
3593 2 37.235483739761506 15.398580970247671 32.405376970097734 0 0 0
3555 1 38.88476600313344 15.354626680137798 30.13152788152177 0 0 0
3881 1 40.65753878540755 15.263954394106765 32.29313740484673 0 0 0
3843 1 42.542894426656936 15.315059336044868 30.244905160880766 0 0 0
3053 1 30.660999877790964 19.89587014814338 32.513254753612614 0 0 0
3016 1 30.57371677296441 17.804921323099375 30.094537889113106 0 0 0
2730 1 28.98199362023329 17.740467270747523 32.35559290827457 0 0 0
2727 1 28.876459535467493 20.10661132470398 30.083610188179165 0 0 0
3341 1 34.147806827278266 19.830254658319312 32.33577984696619 0 0 0
3018 1 32.3632876328578 17.81484228487961 32.28313043919634 0 0 0
3015 1 32.3670448980301 19.87284400036701 30.0358725069515 0 0 0
3304 1 34.14910975518875 17.617859938945568 30.08943204232505 0 0 0
3629 1 37.342429729433825 19.837549889995202 32.41327847996342 0 0 0
3306 1 35.755003593811345 17.65235962158812 32.537437758566895 0 0 0
3592 1 37.312857361838226 17.67896574936956 30.22643080377468 0 0 0
132 1 44.03076877616203 17.387959945951152 25.635492005115726 -1 0 0
64 1 44.137276610694954 8.787835658051133 30.137626749359388 -1 0 0
136 1 44.12336553240439 17.677427650678624 29.974610103605304 -1 0 0
65 2 43.973565099429926 6.379709579227667 32.534523203338594 -1 0 0
133 2 44.12391647578971 15.473380283231936 27.74563821067896 -1 0 0
28 1 43.890255460313135 4.058017478922889 30.258652766168346 -1 0 0
173 1 43.93120384026756 19.969715324975144 32.38975172017954 -1 0 0
101 2 44.105845236652776 10.866355770404903 32.318688158192 -1 0 0
2626 1 29.01883604333441 4.076368609868943 36.94483319958633 0 0 0
2912 2 30.71843515232156 4.0259119320126135 34.674262414664284 0 0 0
2914 1 32.335706288235265 4.0434048624301315 37.0560042717582 0 0 0
3200 1 33.833511466522 4.1846335815602425 34.663503635267205 0 0 0
3202 1 35.61914851755301 4.165406111828097 36.87969781359074 0 0 0
3488 1 37.381912355864735 4.211601595758125 34.77429822272278 0 0 0
3490 1 39.203395573560265 4.028648765029548 36.96772164940357 0 0 0
3776 1 40.582537178655315 4.037263363965574 34.57438164422055 0 0 0
3778 1 42.32763525783222 4.142010470177206 37.072163033135496 0 0 0
68 1 44.099699604339825 8.726641487732055 34.54882140685666 -1 0 0
2623 1 28.904051641002738 6.376338155315511 34.69591070452839 0 0 0
2949 1 30.53179234274613 6.293331005616652 37.01986055459314 0 0 0
2911 1 32.15764421966336 6.35564156378255 34.606807251885456 0 0 0
3237 2 33.92755879133513 6.465923282278337 36.91529177232857 0 0 0
3199 1 35.7304566757473 6.406402190798287 34.680057605240194 0 0 0
3525 1 37.5044977176658 6.240423993586142 36.960448026233166 0 0 0
3487 2 39.10695380754207 6.50744344649156 34.6246632109884 0 0 0
3813 1 40.63010701870557 6.394492935886467 37.04293994748639 0 0 0
3775 1 42.353231493872045 6.459893617887278 34.72121460405225 0 0 0
2662 1 28.874105494275415 8.472006955623485 36.979909983691996 0 0 0
2948 1 30.707060272926462 8.71749123850023 34.62667832348964 0 0 0
2985 1 30.520336872364027 10.876901315807096 37.03520624718742 0 0 0
2659 1 28.905766997069136 10.844356188757546 34.704346222895765 0 0 0
3236 1 34.014359833650616 8.59118708350591 34.58502834142355 0 0 0
2950 1 32.157022443073195 8.571227563725373 36.88270186836846 0 0 0
2947 1 32.37588459521331 10.84024011702214 34.85344765027773 0 0 0
3273 2 34.06460908972663 10.881792682691765 37.05632853833835 0 0 0
3238 1 35.820512419070724 8.692912542400078 36.94038913630283 0 0 0
3235 1 35.68147103590189 10.958013620767794 34.75167178715857 0 0 0
3524 1 37.263414522354616 8.637304051667975 34.60214020986358 0 0 0
3561 1 37.400373263895496 10.93404873028285 37.02188601372305 0 0 0
3526 1 38.967870020410096 8.652374095864946 37.052929230556614 0 0 0
3523 1 38.912567317688406 10.860054477683038 34.79057180797922 0 0 0
3812 2 40.693688701337535 8.77518523106248 34.751132700186375 0 0 0
3849 1 40.85935697157384 10.795349398286069 36.85864489070222 0 0 0
3814 1 42.60759909317903 8.539160064158303 36.84343999539236 0 0 0
3811 1 42.64104204589012 11.100773104502705 34.57116756688987 0 0 0
69 1 44.14118997509269 6.342979764512317 36.93652385216646 -1 0 0
2698 1 28.907515966163842 13.135360464241048 36.93156557370662 0 0 0
2984 2 30.546377619345236 13.12529996454813 34.72939221984633 0 0 0
2986 1 32.344400937693514 13.16308400850405 36.90468583212568 0 0 0
3272 1 34.100870725609774 13.213140631677058 34.751261601462204 0 0 0
3274 1 35.98311026244338 13.116933884593083 37.01595287191647 0 0 0
3560 1 37.30856873311072 13.323381325300838 34.60882260452841 0 0 0
3562 1 39.2676557799772 13.031317206352693 36.98230512058689 0 0 0
3848 2 40.644222378311355 12.997767007147525 34.58690950592542 0 0 0
3850 1 42.449732322566476 13.131284854577686 36.89574796128011 0 0 0
2695 1 28.94303096390054 15.49065570603648 34.609670365701376 0 0 0
3021 1 30.51846802712963 15.436856860794443 36.94003628945791 0 0 0
2983 1 32.283934424548384 15.334006008155882 34.831040618938815 0 0 0
3309 1 34.21726351787204 15.393786613065686 37.16966689230155 0 0 0
3271 1 35.66907494142298 15.531364579619694 34.67482258934736 0 0 0
3597 1 37.66030208836275 15.341408094493229 37.09350041856699 0 0 0
3559 1 39.06989436134981 15.41374489106068 34.663997358953665 0 0 0
3885 1 40.76712999935705 15.346742615945114 37.02305133192833 0 0 0
3887 1 42.52411549712459 19.894224567739986 39.254041114577575 0 0 0
3847 1 42.376539087094784 15.408024069587006 34.69436463380541 0 0 0
3020 1 30.698094534405683 17.668167277689996 34.58849471457988 0 0 0
3057 1 30.794356038978904 20.122679052556343 36.89916454199749 0 0 0
2731 1 28.8390205622727 19.995838557179347 34.80946617359494 0 0 0
2734 1 29.11138997048684 17.87205570076701 36.77596129432425 0 0 0
3308 1 34.00739039622566 17.650368630197647 34.73922587804827 0 0 0
3022 1 32.16714034764006 17.712101673267178 37.00629004569967 0 0 0
3019 1 32.43932073332316 19.961284697521627 34.68373268482988 0 0 0
3345 1 34.07865158274127 19.796345979073557 37.05961552632276 0 0 0
3596 1 37.52729156920399 17.579133370668817 34.670380229228726 0 0 0
3307 1 35.865661612026415 19.955408387215737 34.64944044080343 0 0 0
3310 1 36.010822679149385 17.735978437995506 36.94785120076152 0 0 0
3633 1 37.642294305149676 19.86551974827228 36.97194289894156 0 0 0
3884 1 40.73868826701327 17.60422729257801 34.58188446734303 0 0 0
3595 1 39.27056711357631 19.863800303057754 34.573113466615 0 0 0
3598 2 39.09647830222352 17.657187844241726 36.877676287181586 0 0 0
3921 1 40.834192480201615 19.890275979608553 36.92225122471662 0 0 0
36 1 44.04259338493948 3.9986286913835096 39.18433922042324 -1 0 0
3886 1 42.26347510830208 17.590084205708806 36.94492512752724 0 0 0
3883 1 42.49348827695905 19.83636501801155 34.63920621553848 0 0 0
105 1 44.067110493071866 10.956636563891681 36.8499996755193 -1 0 0
2916 1 30.597553257824522 4.136465089527111 39.382011233390216 0 0 0
3204 1 34.096120963403266 4.028895730683122 39.21226708561281 0 0 0
3492 1 37.376066397342484 4.088670073624577 39.215579842605024 0 0 0
2666 1 28.96728561392169 13.24623186435951 41.39304510637915 0 0 -1
3780 1 40.690627355944216 4.115977933954335 39.164588064880476 0 0 0
3599 1 39.28487464782675 19.875254498422073 39.28652812654434 0 0 0
2627 1 28.980385503492386 6.385336778186807 39.38556739947916 0 0 0
2915 1 32.327060751055356 6.285731118736873 39.15663571230533 0 0 0
3311 2 35.803097354197746 19.913924551919205 39.15192559981698 0 0 0
3203 1 35.719246384940334 6.309544553039057 39.19457932833106 0 0 0
3491 1 39.0702256701855 6.358188521766723 39.416334449157716 0 0 0
3779 1 42.47253616061152 6.35799747132185 39.22532955244061 0 0 0
2663 1 29.0684207393153 10.850116532170155 39.15994681177163 0 0 0
2952 1 30.686992829992292 8.536451749093995 39.2294544249512 0 0 0
3600 1 37.58401164077554 17.714223580812053 39.20396612680281 0 0 0
2951 1 32.28710304991889 10.874768068767677 39.20457781694624 0 0 0
3240 1 33.98633177605957 8.633021172498573 39.02495433484836 0 0 0
3528 1 37.45485883174567 8.579741243977953 39.325728840756895 0 0 0
3239 1 35.774729691069375 10.89904741751423 39.29480728477547 0 0 0
3313 1 34.15352262361667 20.02868183445185 41.38487541032477 0 0 -1
3816 1 40.87360846542904 8.741721718088328 39.192075088823586 0 0 0
3527 1 39.275945751421595 10.939294395873963 39.20765262763214 0 0 0
108 2 44.02518654183442 13.055291351748778 39.193415871403744 -1 0 0
3815 1 42.553806041557216 10.774973122762052 39.16672886376679 0 0 0
2988 1 30.709829524552227 13.127719212449163 39.15381814983486 0 0 0
3276 1 34.05447204691173 12.986930087921618 39.268611422837566 0 0 0
3564 2 37.5826959712057 13.081057482717926 39.14973578379596 0 0 0
3854 1 42.689647303638196 17.67692353204999 41.43735607296726 0 0 -1
3852 1 41.09202760498312 13.109392951444093 39.30826099756244 0 0 0
32 1 44.00108589784106 4.112166656565437 34.68474402251884 -1 0 0
2699 1 29.028700526953486 15.400437980731427 39.27591452114895 0 0 0
2987 2 32.38276584189134 15.391850529194997 39.05273955365436 0 0 0
3275 1 35.76405705129945 15.353516256427271 39.21446312527203 0 0 0
3023 1 32.31795636739312 20.013029598248174 39.19560918770996 0 0 0
3888 1 40.79756542652576 17.49567246774084 39.23801644199597 0 0 0
3563 2 39.174112508211046 15.108837725560644 39.353767713126246 0 0 0
3851 1 42.528566612348534 15.412266866842835 39.10502593601707 0 0 0
3024 1 30.747845744710013 17.67113885720664 39.363568425615355 0 0 0
2735 1 29.151766240477308 20.054958878910256 39.05146278268437 0 0 0
3278 1 35.69448296367184 17.720943604302665 41.34397444573867 0 0 -1
3312 1 34.01893889308099 17.64524998297025 39.1478292893063 0 0 0
3205 1 34.01883784638903 6.502263481450096 41.389021810636855 0 0 -1
3277 1 33.969105496551826 15.38934704956868 41.35896825958149 0 0 -1
2953 1 30.41072590836123 10.75229819457107 41.323543727561 0 0 -1
3529 1 37.47626368711977 10.938080080310087 41.39424319099423 0 0 -1
3458 1 38.94832078987859 4.064731273248095 41.388570563829695 0 0 -1
3241 2 33.9909137713841 10.990006096775673 41.27885975406454 0 0 -1
3028 1 30.668494713939317 22.10112780680224 2.974996822913498 0 0 0
3316 1 34.05402499641952 22.267724942682744 2.9271880563862434 0 0 0
3604 1 37.49543449067688 22.130989530884758 3.009364123265509 0 0 0
3892 1 40.71323789928429 22.311682904503694 2.9352405548435367 0 0 0
2739 2 29.021105462533185 24.5034663020197 2.9736091855542335 0 0 0
3027 1 32.23453476548377 24.497582704803623 2.9414355186763053 0 0 0
185 1 44.0877939222557 24.534856380654954 5.226201652207907 -1 0 0
3315 2 35.89005393787397 24.408087353348044 2.8514558853588796 0 0 0
3603 1 39.03926900061929 24.352745073106263 3.009968916313043 0 0 0
3891 1 42.46511402381649 24.502069051265693 2.8800739581778942 0 0 0
3064 1 30.7738975876118 26.825338323488914 2.8772159060586393 0 0 0
2775 1 28.803713822341223 28.802100943641594 3.03873814215569 0 0 0
188 1 44.007000095406916 26.926194027521493 7.476474122731774 -1 0 0
3352 1 34.03335325592027 26.564339009049196 2.8414810089178344 0 0 0
3063 1 32.44637107080059 28.936724561056334 2.7714811781367676 0 0 0
3640 1 37.33956606837871 26.756580870424354 2.9102382936296523 0 0 0
3351 1 35.72138113787065 29.007765429553015 2.9553132878607142 0 0 0
3928 1 40.74303487538543 26.65090077553694 2.815253384597256 0 0 0
3639 1 39.050483626638076 29.02163949307586 3.0011581317616316 0 0 0
5 2 44.121896932734515 38.16914711361028 5.2665578720926085 -1 -1 0
3927 1 42.3225586968862 28.990882720601128 2.8864808299616236 0 0 0
220 1 44.105514852910524 31.18116171681845 2.980388461520945 -1 0 0
3100 1 30.659145450757833 30.999452811411185 2.9815975734629006 0 0 0
3427 1 35.57159015527795 38.04997225759676 7.459198983210874 0 0 0
3388 1 34.01170104816447 31.33436062392872 3.098424279363757 0 0 0
2810 1 28.875608541396698 31.282048838994648 0.7356019763591313 0 0 0
148 1 44.13992706395248 22.294171200237223 2.9983171504498216 -1 0 0
3676 1 37.15777488531671 31.150439462697435 3.027993335431073 0 0 0
3716 1 37.24521585425193 35.73570473922718 7.452865393125321 0 0 0
3964 2 40.785690378013236 31.41127418572517 3.1113184743641487 0 0 0
4004 1 40.68163914436163 35.813000289690834 7.295968049822625 0 0 0
4003 1 42.5759857780819 38.01324287995035 7.563126703884898 0 0 0
2811 1 28.973413036796423 33.163844527710594 3.003458637662004 0 0 0
3715 1 39.00078589750051 37.9149653341222 7.538457367850889 0 0 0
221 1 44.041549689747754 29.004132015348464 5.041059577536597 -1 0 0
3099 1 32.190341295049635 33.53285102316411 2.927919159698352 0 0 0
3387 1 35.709556584565796 33.58988734080061 2.984458939545434 0 0 0
152 1 43.97694738239861 22.291751778687463 7.545535364124194 -1 0 0
3675 2 39.057577847515724 33.38444950609474 3.0252483192105184 0 0 0
3963 1 42.517447948385374 33.4976827967551 2.8815783914121917 0 0 0
3749 1 40.73799683709159 38.02848839578553 5.289512398118126 0 -1 0
3714 2 39.00266729954694 35.90990336000827 5.283277265936019 0 0 0
3136 1 30.287510815858866 35.7039426459037 2.9445330612162706 0 0 0
2847 1 28.831885419454224 38.21908025359435 2.925521948447085 0 0 0
3097 2 30.572382213937146 29.061018422470827 0.7668843026557826 0 0 0
3135 1 32.171960036123785 37.883798010018275 2.9922691454044914 0 0 0
3424 1 33.88916430650449 35.770211523837204 2.970380264814473 0 0 0
3461 1 37.30540785587744 38.17497142858685 5.252219369509177 0 -1 0
3712 1 37.412816966973494 35.83222450141276 3.0299273187904494 0 0 0
3423 1 35.70562077394147 38.14039370469721 2.937372566477347 0 0 0
3426 1 35.54300240044718 35.8617942905574 5.185353072449816 0 0 0
3138 2 32.222931221650974 35.862134754694075 5.131696416476749 0 0 0
3314 1 35.96549941687795 22.331453423135244 0.7439783626759404 0 0 0
3711 1 38.97328001886233 37.99749977493711 3.090069099653173 0 0 0
4000 1 40.62984634831797 35.66991534188679 2.9693174048167794 0 0 0
3999 1 42.345981687503844 38.113981390114404 3.0273632488413997 0 0 0
4002 1 42.42923855541888 35.679324822403515 5.253325588424794 0 0 0
2742 1 28.84204011662585 22.207078869610683 4.96387779115789 0 0 0
3032 1 30.62291397867439 22.303656930612178 7.457145029145601 0 0 0
3030 1 32.46324075535243 22.114103305764168 5.240236503045461 0 0 0
3320 1 34.127817004212915 22.121236320988725 7.3988153537675725 0 0 0
3318 1 35.83626177782437 22.149176698151038 5.1930676597468155 0 0 0
3608 1 37.49002936690318 22.088673338711303 7.475314361297273 0 0 0
3606 2 39.03491001437833 22.29905742604209 5.2574294663421375 0 0 0
3896 1 40.77212508909566 22.069783095495293 7.500153686260119 0 0 0
3894 1 42.37254418374946 22.30565579363257 5.223482440318882 0 0 0
2743 2 28.889131551726695 24.457728374353525 7.3042033824068415 0 0 0
3065 1 30.73394358143532 24.417241350717628 5.313485035408104 0 0 0
3031 2 32.521587284808135 24.28439488725555 7.559977428358324 0 0 0
3353 1 34.12361340911603 24.342199286370665 5.121424934374062 0 0 0
3319 1 35.677619278119636 24.372538007938623 7.372662118709273 0 0 0
3641 1 37.261938123370584 24.54051000400878 5.176791248042011 0 0 0
3607 1 38.98357490090398 24.46106259037762 7.411132165315745 0 0 0
3929 1 40.706419833853815 24.564672984348626 5.1683283660770885 0 0 0
3895 1 42.211329816520376 24.40506860272433 7.448145313849653 0 0 0
3068 1 30.755658004699235 26.507547889967796 7.316536580929965 0 0 0
2778 1 28.935065070760736 26.60974632775483 5.228238323774767 0 0 0
2779 1 28.982914405886632 28.974101682257025 7.334525665461489 0 0 0
3101 2 30.547177912747166 28.802258145872653 5.103779588287873 0 0 0
3356 1 33.88662244127596 26.736530108304237 7.617702122671823 0 0 0
3066 1 32.54271946041301 26.64805106145057 5.155433604203414 0 0 0
3067 1 32.17738190722617 29.052144387456572 7.47780941259563 0 0 0
3389 1 33.91245740541501 28.951495593398597 5.2184898869353455 0 0 0
3644 1 37.479169407553854 26.80516569572595 7.557411366547193 0 0 0
3354 2 35.641567447979725 26.744747504771464 5.1917921478408315 0 0 0
3355 1 35.62138647456334 28.85210678118473 7.4766340480812365 0 0 0
3677 1 37.24768339393727 28.95494390158736 5.223171481814017 0 0 0
3932 2 40.76273037458239 26.811186468894714 7.533298328195216 0 0 0
3642 1 39.103094809115284 26.84558845858034 5.16072316276911 0 0 0
3643 1 38.948719089941875 29.10644065127685 7.544780652034594 0 0 0
3965 1 40.7323496100531 29.129072490700818 5.270743882799168 0 0 0
3930 1 42.311158974033816 26.880556540187126 5.026519718220739 0 0 0
3931 2 42.42290309760628 29.051634583912783 7.361065725144922 0 0 0
2814 1 28.905637006016327 31.045398896548942 5.27640499099215 0 0 0
3104 1 30.64612322150076 31.274031088857406 7.645509163624543 0 0 0
3102 1 32.13878912016321 31.16872650794195 5.329335356152208 0 0 0
3392 1 33.935032474301075 31.32365447272609 7.538116547160449 0 0 0
3390 1 35.60960213663715 31.259808345660726 5.291036174344349 0 0 0
3680 1 37.24314551629527 31.233226417802232 7.414307097451697 0 0 0
3678 1 38.97626631198735 31.374522042552403 5.18481149320859 0 0 0
3968 1 40.713293858941846 31.31203646292581 7.536034279664848 0 0 0
3966 1 42.45858584399953 31.444433858223064 5.2635880560458865 0 0 0
2815 1 28.894683195842877 33.558160346724705 7.360435274286335 0 0 0
3137 1 30.62405576468059 33.409892992586734 5.162473000594203 0 0 0
3103 1 32.19639723259345 33.52024597622341 7.621890363757163 0 0 0
3425 1 33.789616106099004 33.498839895867064 5.129096675179382 0 0 0
3391 1 35.560241664129606 33.66425158278929 7.5212581453860805 0 0 0
3713 1 37.27149748918683 33.62880244036176 5.121965046940799 0 0 0
3679 1 38.90667457271551 33.55797103369109 7.508200146814661 0 0 0
4001 1 40.683940890934885 33.61313435922819 5.1973283251483835 0 0 0
3967 1 42.447128406334485 33.583899070343186 7.525736255517604 0 0 0
3140 1 30.539966206618367 35.877924067904424 7.38268177025035 0 0 0
2850 1 28.72593526301989 35.74791539739067 5.1568519922379235 0 0 0
2885 1 30.578845121532943 38.0780349110001 5.191994888202186 0 -1 0
2851 1 28.842097560938022 38.049762422515876 7.487996583403259 0 0 0
3428 1 33.857526284087655 35.763900878014994 7.320502394131621 0 0 0
3139 1 32.37655158136692 38.05089950350858 7.521995939780919 0 0 0
3173 1 33.91295058575035 38.238070758137916 5.171355118620022 0 -1 0
3926 2 42.57045086255809 26.64445391327876 0.738261682714825 0 0 0
224 1 44.094807124731 31.313944695662894 7.439400961940099 -1 0 0
3745 1 40.60958387787205 38.00045020104958 0.8091216350876945 0 -1 0
3890 1 42.508341103456935 22.11872261299876 0.7119977456795862 0 0 0
256 1 44.08004413780274 35.728210316698835 3.0239859113578427 -1 0 0
3674 1 39.03638915073324 31.29204139903155 0.9056876682181135 0 0 0
3421 1 33.828997858430164 33.434133430659806 0.7288622191691532 0 0 0
3998 1 42.46912700541946 36.015719532089285 0.7383274105503316 0 0 0
3709 1 37.49034124579864 33.495786106141225 0.7335341623462062 0 0 0
3457 1 37.26289481595673 37.97679886884594 0.7736924959458815 0 -1 0
3026 1 32.33926919064202 22.27761862349836 0.709023775288634 0 0 0
3169 1 33.93974757512842 38.014480909751775 0.7998923053633229 0 -1 0
3098 1 32.2789160586309 31.222767876330387 0.7595902748285788 0 0 0
217 1 44.102284057665344 29.085953122881584 0.809795078359095 -1 0 0
3386 2 35.62869623705104 31.25306845490098 0.7167133691438892 0 0 0
2774 1 28.990374935979503 26.56789831167174 0.7784979979230116 0 0 0
3134 2 32.225987995125664 35.68014541881338 0.8216297361061606 0 0 0
3349 1 34.098253629900796 24.42529955387728 0.769645051538518 0 0 0
2881 1 30.70907125373087 38.096231515163915 0.7308919299419472 0 -1 0
3925 1 40.90606696655056 24.509625971061496 0.7598856519942387 0 0 0
3602 1 39.040793065165346 22.10999104099363 0.7125036027094751 0 0 0
1 1 44.062794471425676 38.16064950062174 0.7424978107322318 -1 -1 0
2746 1 28.881200755607114 22.13596635938539 9.679320501809283 0 0 0
3036 1 30.659753082042847 21.97705679125586 11.919441862920523 0 0 0
3034 1 32.34782583929287 22.225640790728235 9.6365761389027 0 0 0
3324 1 34.12337669020558 22.31606500996926 11.93610621189406 0 0 0
3322 1 35.950422573827794 22.088120132749378 9.73644427748111 0 0 0
3612 1 37.41963876577155 22.108363925545444 12.052352845307183 0 0 0
3610 1 39.10007528915147 22.144726991637754 9.7308919391376 0 0 0
3900 1 40.74442338239231 22.10765289494926 12.038604476591964 0 0 0
3898 1 42.31274843726062 22.15826591806094 9.792721590254981 0 0 0
2747 1 29.2318711012489 24.364118295821573 12.052379602507493 0 0 0
3069 1 30.495100443450163 24.366084697232946 9.673327801419621 0 0 0
3035 2 32.27721350905061 24.321581696758177 11.94268022629332 0 0 0
3357 1 34.099643902771845 24.309399394775713 9.770710050223482 0 0 0
3323 1 35.64146623664013 24.48277664402703 12.060413650230064 0 0 0
3645 1 37.479511151234675 24.52773734382773 9.598574022301907 0 0 0
3611 1 38.974804696718124 24.32316251727603 12.08244567701777 0 0 0
3933 1 40.644101066548444 24.467793348990934 9.807031841519688 0 0 0
3899 1 42.32726354296255 24.40586935386235 11.986807631109293 0 0 0
3072 1 30.631977639818125 26.710951781843143 12.01021385492838 0 0 0
2782 1 28.95660358901113 26.735952883596457 9.47729976998208 0 0 0
2783 1 28.99068395421699 29.02824645424988 12.116904020326276 0 0 0
3105 1 30.625177305479497 28.990591533347665 9.670114427158524 0 0 0
3360 1 34.027400816035936 26.58963724557783 11.8757212887139 0 0 0
3070 1 32.223516324720784 26.56821780665215 9.74339248321885 0 0 0
3071 1 32.335013954237624 28.85343061939654 11.968208371844925 0 0 0
3393 1 33.98734927473655 29.01099020639697 9.782598896153212 0 0 0
3648 1 37.41439030726543 26.6301023065644 12.094034469575782 0 0 0
3358 1 35.687127404508146 26.755442389502097 9.64205463908428 0 0 0
3359 2 35.73689588833927 28.894683486973122 12.004345036375687 0 0 0
3681 1 37.31014659562433 28.985569619736992 9.7900223850006 0 0 0
3936 1 40.66259912401295 26.54706896568027 11.934303318306949 0 0 0
3646 1 39.14908030262168 26.78527824500778 9.68099512443891 0 0 0
3647 1 39.12951597701934 28.900102690744152 11.895464127489891 0 0 0
3969 1 40.86336041793824 29.080754849276666 9.729855636425292 0 0 0
3934 1 42.44483613185264 26.5965911427698 9.725280559636197 0 0 0
3935 2 42.39136110192435 28.826364844806992 12.075392951502668 0 0 0
4011 1 42.510617802783315 37.94171137156185 16.50711098434085 0 0 0
225 1 44.044780635467674 28.955606831851323 9.782439992176048 -1 0 0
2818 1 29.0030800368786 31.20710010556875 9.847400615162083 0 0 0
3108 2 30.509273555721073 31.399285359028557 11.980457644821689 0 0 0
3106 1 32.33076193736233 31.398671096635827 9.892608062190384 0 0 0
3396 1 34.03177254344605 31.109896454308778 12.143398931530305 0 0 0
3394 1 35.53159379391341 31.175037457093133 9.905612801446917 0 0 0
3684 1 37.25379487949449 31.300262244392385 11.989085209312885 0 0 0
3682 1 38.95052491106819 31.251115234019874 9.847265246219473 0 0 0
3972 1 40.76403415465107 31.19475684123026 11.984168615560838 0 0 0
3970 1 42.46389345706394 31.33010484568835 9.720287616267388 0 0 0
2819 2 28.82328158812164 33.5537319099046 12.137578036559134 0 0 0
3141 1 30.566672800553683 33.51486131863767 9.89292564047249 0 0 0
3107 1 32.399614322251495 33.54143291850103 12.016913021286703 0 0 0
3429 1 34.01103036994723 33.602915697654865 9.787081997605199 0 0 0
3395 1 35.50076446326564 33.48656706783632 12.053413788094614 0 0 0
3717 1 37.35489421776065 33.48142242350498 9.73198138571262 0 0 0
3683 1 39.0771047347044 33.449437069557824 12.106003566141576 0 0 0
4005 1 40.56601961931715 33.454453970445826 9.65385537875952 0 0 0
3971 1 42.48419152959515 33.50819084713644 11.945741050893387 0 0 0
3144 1 30.680049157581372 35.77467068973152 12.056105591522089 0 0 0
2854 1 29.0422711884045 35.845913508423855 9.812814877516878 0 0 0
2855 1 28.859757535101913 38.08784458184501 11.975371018006268 0 0 0
2889 1 30.58141761095031 38.089860063488956 9.775270276541711 0 -1 0
3143 1 32.16751122691514 38.060501968045386 12.07311564545444 0 0 0
3432 2 33.96591287990566 35.8803928198646 11.904846719669793 0 0 0
3142 1 32.29935287870953 35.94286690974436 9.614566709326018 0 0 0
3177 1 33.99545861902948 38.15431478646265 9.887736471743844 0 -1 0
3430 1 35.53921472587233 35.853656651592 9.720172600002128 0 0 0
3431 1 35.916013651688 37.99735359804772 12.007057091581006 0 0 0
3720 1 37.358759067071084 35.57675318566307 11.909780866609042 0 0 0
3465 1 37.30077848142498 37.98570745170196 9.754694235521823 0 -1 0
3718 1 38.949591327044956 35.864512574770984 9.611902969221825 0 0 0
3719 2 39.13181159126965 38.10131270677048 11.88520411038148 0 0 0
3753 1 40.56603163926309 38.013453928263594 9.538774775818045 0 -1 0
4008 1 40.71383595333779 35.72263938897669 11.765901891673316 0 0 0
4006 1 42.527466576517845 35.92512048092591 9.68680325603369 0 0 0
4007 1 42.08566718170204 38.036756554745345 11.772874357393436 0 0 0
13 1 44.008704692043 37.96723845087869 14.277405785177423 -1 -1 0
232 1 44.02965519343981 31.053843340546 16.46445934108325 -1 0 0
2750 1 29.01164300621908 21.976655948223886 14.161997664664517 0 0 0
3040 1 30.58098474832093 22.33721943789663 16.57052773355818 0 0 0
3038 1 32.31772701495253 22.098419979505906 14.250519611127705 0 0 0
3328 1 33.93311794695489 22.055049012863748 16.498002334602884 0 0 0
3326 1 35.570280167518824 22.170455405160194 14.256594803171227 0 0 0
3616 1 37.477531292896515 22.148179893219012 16.479593615255325 0 0 0
3614 1 39.117255247627824 22.10026352779273 14.22834536930029 0 0 0
3904 1 40.75919487836892 21.90195878712649 16.49309602677151 0 0 0
3902 1 42.525008336520024 21.973672057817634 14.442624348987858 0 0 0
3723 1 39.05367427179261 37.96998819222845 16.540101072881217 0 0 0
2751 1 28.950787155647546 24.494701202355486 16.584539779843475 0 0 0
3073 1 30.77985134132576 24.442446075798955 14.365440225326605 0 0 0
3039 1 32.66338044913988 24.47173123838657 16.500733481603238 0 0 0
3361 1 33.922064806008734 24.399219499754356 14.145654942734579 0 0 0
3327 2 35.63118081955336 24.344016571425083 16.43593755779385 0 0 0
3649 1 37.350803337005104 24.381395696546104 14.214570977597912 0 0 0
3615 1 39.01921524572171 24.345752689601618 16.255169751703527 0 0 0
3937 1 40.88753414881902 24.467797846321538 14.260520550799999 0 0 0
3903 1 42.37724784565805 24.413951634596856 16.567560291428382 0 0 0
3757 1 40.63786731171436 37.96867609234727 14.187906365619037 0 -1 0
3076 2 30.805693285953367 26.521066960609353 16.578270435675826 0 0 0
2786 1 29.056831820093414 26.668627709223077 14.316654218176188 0 0 0
2787 1 29.190287107232372 28.840436054943403 16.476553701785868 0 0 0
3109 1 30.650195687085308 28.986599166055385 14.114060758959544 0 0 0
3364 1 34.18858214435473 26.741487962622895 16.67024284460683 0 0 0
3074 1 32.386584122866694 26.63315719745625 14.216761936932171 0 0 0
3075 1 32.285188755032415 28.929397101791654 16.481197207909 0 0 0
3397 1 34.020654100236186 28.99660170340129 14.283057093407555 0 0 0
3652 1 37.32648586665413 26.63406522238744 16.342153788534453 0 0 0
3362 1 35.534908309583 26.60423220080673 14.190123664529288 0 0 0
3363 2 35.66713345983026 28.93546538964291 16.406048156801763 0 0 0
3685 1 37.36160062528436 28.799697661612953 14.235946511472088 0 0 0
3650 2 39.07406098013685 26.551949098119398 14.29959198697604 0 0 0
3651 1 38.902589962580095 28.993242672559866 16.526649813413187 0 0 0
3973 1 40.56062007177661 29.027697449582906 14.206203036003236 0 0 0
3940 1 40.740266190374705 26.745407889252267 16.518135522380454 0 0 0
3938 1 42.257999594166726 26.91976976918808 14.206567623460566 0 0 0
3939 2 42.49715418521922 28.9695530455959 16.395191718072518 0 0 0
3722 1 39.124656982945666 35.61983287632013 14.194288663112038 0 0 0
2822 1 28.997851302205824 31.4192861423586 14.267591489409334 0 0 0
3112 1 30.606737109766335 31.11732552535817 16.66344802738334 0 0 0
3110 1 32.19682947289082 31.137239751260797 14.22258544210083 0 0 0
3400 1 33.82091737678971 31.22095124852117 16.422714138075158 0 0 0
3398 1 35.66805580058347 31.068372665775808 14.260086390687976 0 0 0
3688 1 37.309433858364045 31.32363871605909 16.428957204815525 0 0 0
3686 1 38.932534071208764 31.332086835264796 14.223222555221371 0 0 0
3976 1 40.67523746182427 31.152666775896293 16.47355551906123 0 0 0
3974 1 42.463702423390416 31.167112932192936 14.244562365029802 0 0 0
4010 1 42.4382175938738 35.79032657280939 14.089959300354327 0 0 0
2823 1 28.921471736360232 33.54849264835932 16.646564357545742 0 0 0
3145 1 30.72210250052087 33.47382973990618 14.145841571238225 0 0 0
3111 1 32.252168887997954 33.73945454190601 16.344558806099208 0 0 0
3433 1 34.04958487547585 33.34445949205344 14.383622562741138 0 0 0
3399 1 35.61543239555844 33.51040806907777 16.56645008174027 0 0 0
3721 2 37.19792745723367 33.430866143856136 14.256496924810847 0 0 0
3687 1 39.10160445471691 33.61716180154906 16.357345051085083 0 0 0
4009 1 40.8799941083975 33.42911488873462 14.308037623982731 0 0 0
3975 1 42.33923373081022 33.32274540757963 16.57845874491294 0 0 0
4012 1 40.80168127048232 35.731972481693454 16.55908353839599 0 0 0
2893 1 30.39133859798136 38.137928868844796 14.2134430739321 0 -1 0
3148 1 30.52447829056196 35.86191368071789 16.586085739290844 0 0 0
2859 1 29.152602768061755 38.17767753504238 16.49911330080554 0 0 0
2858 1 28.99102071525037 35.78580914118438 14.231583292778256 0 0 0
3181 1 34.093880711334194 38.05826405555155 14.07636231946759 0 -1 0
3146 1 32.304406670734075 35.78150910567806 14.321082242948595 0 0 0
3147 1 32.28531556152082 38.09923917949127 16.507139044195952 0 0 0
3436 1 33.97884237707519 35.796491062347826 16.509513571251908 0 0 0
3469 1 37.5363660849484 37.9623562903983 14.252202771560011 0 -1 0
3724 1 37.33490936351354 35.80568153276313 16.509456131654026 0 0 0
3435 1 35.739901320379595 38.15647608553696 16.478270328003422 0 0 0
3434 1 35.657501084833456 35.76146544317015 14.146890885622225 0 0 0
156 1 44.02980831720369 22.035211888253585 12.113806614997213 -1 0 0
192 1 44.09253261791076 26.638534748113578 12.034711824083526 -1 0 0
265 1 44.09798544379071 33.39268460868804 14.186388209190739 -1 0 0
160 1 44.06589586758303 22.227810926932996 16.55340557374998 -1 0 0
189 1 43.97274512654354 24.38328968503831 9.738771150559586 -1 0 0
264 1 44.10678372935526 35.779663188822944 11.94022567350971 -1 0 0
228 1 44.1442724275835 31.16064077264399 12.028198173422407 -1 0 0
196 1 44.05274272235702 26.76377460602367 16.58315983500647 -1 0 0
193 1 44.038111429866774 24.526300583789016 14.280662586848928 -1 0 0
2754 1 28.86104329066329 22.31690273163653 18.86845871433503 0 0 0
3044 1 30.604422346953093 22.241723467698332 20.985225693363482 0 0 0
3042 1 32.3409610855585 22.27332220553322 18.688616214052153 0 0 0
3332 1 34.03035873388386 22.263034486123406 20.973888356760426 0 0 0
3330 1 35.815103383776474 22.188488461570813 18.591790374828896 0 0 0
3620 2 37.40481658976172 22.06833420272924 21.002988909016185 0 0 0
3618 1 38.998788670739536 22.115873733929856 18.841391556938724 0 0 0
3908 1 40.71355559314004 22.242650988770063 20.993158219709102 0 0 0
3906 2 42.3473081622497 22.278635559964165 18.878863727418267 0 0 0
3077 1 30.79716445603036 24.595529253609374 18.693848190964328 0 0 0
2755 1 29.199040887433128 24.563635644732845 20.894311389828545 0 0 0
3365 1 34.19030194576191 24.36347011891326 18.86044872817595 0 0 0
3043 1 32.271537208403224 24.57899942326208 21.000921576107025 0 0 0
3653 1 37.459688498987916 24.47204123810399 18.63736850311185 0 0 0
3331 1 35.84043249774467 24.367159202369237 21.021293894087723 0 0 0
3941 1 40.56803476553158 24.52229795361422 18.77127910364228 0 0 0
3619 1 38.947459501121514 24.38464945247341 21.10976832072173 0 0 0
3080 2 30.665564584794012 26.8256956967326 21.06544245866915 0 0 0
2790 1 28.96267564332875 26.72939096473039 18.70347064493364 0 0 0
3113 1 30.725675129651428 29.001161483876924 18.832991851997754 0 0 0
3078 1 32.56643628937889 26.71054035664133 18.89428684500881 0 0 0
3401 1 34.186909861918274 29.104981291983464 18.72850603548187 0 0 0
3368 1 34.26638196674529 26.614775370754902 21.122125047821385 0 0 0
3656 1 37.432041633314675 26.67252541060004 21.1706319881658 0 0 0
3366 1 35.93207697493546 26.786227739741545 18.81970392823074 0 0 0
3689 1 37.242752162807015 29.185963217749894 18.635951334498113 0 0 0
3654 2 38.942662795051426 26.777623178619304 18.673331396423585 0 0 0
3655 1 39.02836917907044 28.93756838062248 20.85332316361683 0 0 0
3977 1 40.844047126742225 28.965970711334446 18.637856462810106 0 0 0
3944 1 40.5895829590726 26.716928526222627 21.044880418091314 0 0 0
3942 1 42.4098500013749 26.692773857135748 18.854668517993137 0 0 0
4016 1 40.71137722723106 35.798569688783 21.238291385402984 0 0 0
2826 1 29.041550478361245 31.20115002527817 18.74943641233708 0 0 0
3114 1 32.34132929405909 31.299230835403897 18.85984359418014 0 0 0
3402 2 35.66554826789182 31.40414796207286 18.763918535818732 0 0 0
3690 1 38.91769234666478 31.34592783768279 18.794797775934494 0 0 0
3978 1 42.404147211702394 31.332009632481157 18.745121721417874 0 0 0
3149 2 30.68959904224439 33.61080152640323 18.72017260187712 0 0 0
3437 1 33.9094671963042 33.6394162582306 18.855408424450037 0 0 0
3115 1 32.38416144595322 33.53245751203863 21.088275228560516 0 0 0
3725 1 37.45321808416242 33.695307560352035 18.729882042101856 0 0 0
3403 1 35.56181192583335 33.46708465368539 20.9913897962216 0 0 0
4013 1 40.6542874668014 33.51501124815667 18.821919799414218 0 0 0
3979 1 42.239713206062575 33.57402060418153 20.99063839677062 0 0 0
2862 1 28.96500114714081 35.939711337018906 18.7970112068107 0 0 0
2897 2 30.655249996190754 38.20847378345596 18.77513691914687 0 -1 0
3150 1 32.18621498622778 35.980612257263054 18.75485461764569 0 0 0
3185 1 34.08235911526609 38.06895279194183 18.713813231136818 0 -1 0
3151 1 32.24656163557369 38.01438304294664 20.927437831175993 0 0 0
3438 1 35.667555124881915 35.848568487743776 18.800680519622507 0 0 0
3473 1 37.36696662166524 38.150441670365474 18.810819494939608 0 -1 0
3728 2 37.29699383908212 35.63461218754923 21.0271562317582 0 0 0
3726 1 39.0966843942805 35.873355279429724 18.740264243889293 0 0 0
3761 1 40.77400719178257 38.182948119172686 18.803783215943003 0 -1 0
4014 1 42.38399750685127 35.9093649408572 18.799269971482953 0 0 0
4018 2 42.499432148403386 35.79682719232153 23.562030518813778 0 0 0
2758 1 28.964139224875588 22.327664904117295 23.224278818992552 0 0 0
3046 1 32.312464171224484 22.348145677951532 23.26609861996445 0 0 0
3334 1 35.670338590495824 22.289402814951387 23.198812465408338 0 0 0
3622 1 39.11865503868714 22.218280290170984 23.362576785556072 0 0 0
3910 1 42.4680818173021 22.23381854396946 23.414433049112205 0 0 0
3765 1 40.732227460436384 37.98817861927738 23.309147604706542 0 -1 0
3081 1 30.841702742564756 24.468043430855985 23.333266347182494 0 0 0
3369 1 34.144637279704384 24.410727825667685 23.35836614061286 0 0 0
3657 1 37.36660088934581 24.490958166473526 23.42751707582 0 0 0
3945 1 40.636618822792556 24.489077601252294 23.30557425877596 0 0 0
3907 1 42.339852993228774 24.53258161399933 21.008367052937967 0 0 0
3727 1 38.81527835760145 37.868760939949524 21.027920053428247 0 0 0
2791 1 29.064936270878235 29.105161073612653 20.854404468421865 0 0 0
2794 1 28.910530485642028 26.76256220879057 23.345111444348554 0 0 0
3117 1 30.74281584724018 28.974892965294682 23.215993672135195 0 0 0
3079 1 32.565816072166854 28.851523286298868 21.013504950508253 0 0 0
3082 1 32.52596882789537 26.708657405170687 23.141478796185776 0 0 0
3405 1 34.02822800286654 28.990843921711733 23.390946450358264 0 0 0
3367 2 35.69605211846304 29.02443320457983 21.081793615725953 0 0 0
3370 1 35.70816347156866 26.873148034601805 23.482909985209073 0 0 0
3693 1 37.42007288017322 29.11369627802728 23.2994364669684 0 0 0
3658 1 39.06883828330742 26.65464009902273 23.390979325101718 0 0 0
3981 1 40.49964640535359 29.120827450785335 23.268437863343426 0 0 0
3943 2 42.34284011458674 28.84866241938605 21.05504707536191 0 0 0
3946 1 42.40588006552492 26.67950026002129 23.365582261452396 0 0 0
3116 1 30.619540423157396 31.233344760338618 21.139793388941204 0 0 0
2830 1 29.040146488670473 31.288330086993877 23.20259058641371 0 0 0
3404 1 34.02722021077607 31.261225557621895 20.98832014652851 0 0 0
3118 1 32.382829192701145 31.183982453592428 23.288567434336315 0 0 0
3692 1 37.40072919547305 31.269408576567066 21.110282316147558 0 0 0
3406 1 35.65921557457043 31.26915272692083 23.27809893583138 0 0 0
3980 1 40.686566289833216 31.108869651563953 21.00026107941505 0 0 0
3694 2 39.0307255371634 31.50123813895442 23.334883442301663 0 0 0
3982 1 42.28648668676084 31.173975487370555 23.310789248951703 0 0 0
3730 1 38.885361811160216 35.821168774123436 23.222575159363284 0 0 0
2827 1 29.12058979696051 33.46979804359239 21.208496006947534 0 0 0
3153 1 30.688522052220414 33.5112880502123 23.425239910528976 0 0 0
3441 1 34.047957844214004 33.47024232518259 23.309211202918913 0 0 0
3729 1 37.19635636497838 33.54192774860055 23.233423170066445 0 0 0
3691 1 39.18761268200763 33.42560124883701 21.216834293203288 0 0 0
4017 1 40.90151974515677 33.585439783448805 23.49172379066722 0 0 0
4015 1 42.445976953439065 38.13291248582348 21.069129311969707 0 0 0
3152 1 30.660331454539744 35.868602171550435 20.988479385596758 0 0 0
2863 1 29.031382984715215 38.029019272563744 21.038608152989557 0 0 0
2866 2 29.01960410009653 35.84932538368956 23.31564128426947 0 0 0
2901 1 30.60229212994384 38.06168778415515 23.204531059297217 0 -1 0
3440 1 33.98143905169553 35.81528797117976 20.98588053699352 0 0 0
3189 1 34.05109153726193 38.084403805773164 23.35866993494151 0 -1 0
3154 1 32.26840437626581 35.73807784402752 23.14211023049037 0 0 0
3439 1 35.75897833683648 38.065250733818445 21.071705134251918 0 0 0
3477 2 37.23674933062416 38.119410158945215 23.392297673428157 0 -1 0
3442 1 35.58141873151674 35.76651803933927 23.36608846287533 0 0 0
273 1 43.936756260021326 33.462064432379066 23.5063376442433 -1 0 0
233 1 44.020892786514935 29.018969962384375 18.832704147689412 -1 0 0
269 1 43.972322847453185 33.58151855642072 18.857082907383795 -1 0 0
164 1 44.005607848185704 22.23123123179671 21.218669996753217 -1 0 0
200 1 44.0857217590392 26.80408359932574 21.12965865318167 -1 0 0
236 1 43.88618900374512 31.232316718172356 21.102657942958366 -1 0 0
201 1 44.09065802700133 24.46171934930347 23.331294134704667 -1 0 0
21 1 44.13657795631542 38.14622599041895 23.240922271872922 -1 -1 0
197 1 44.06600325680894 24.425114301937242 18.842001809687485 -1 0 0
2762 1 29.04686509498203 22.211034215596246 27.856673552109413 0 0 0
3048 1 30.61328952165421 22.099629875388445 25.57712867546436 0 0 0
3050 1 32.30266504909291 22.05217253435804 27.75931521328395 0 0 0
3336 1 34.146736390676004 22.117110052973675 25.599520266798944 0 0 0
3338 1 35.64353500708331 22.126295546480907 28.06345908178066 0 0 0
3624 1 37.33950926828507 22.099946043812817 25.619113467754808 0 0 0
3626 1 39.2850871107453 22.175892887999044 27.836174585553326 0 0 0
3912 2 40.89427857005121 22.181840436269333 25.63093459288865 0 0 0
3914 1 42.59710249605985 22.17985196904212 27.841099328779805 0 0 0
3773 1 40.38035287263828 38.07035292082889 32.24908566978272 0 -1 0
2759 2 29.029078222545508 24.421380061012492 25.45697727305254 0 0 0
3085 1 30.796275771108014 24.387289925493025 27.85004373270813 0 0 0
3047 1 32.396396797832246 24.418239277327313 25.61916980121137 0 0 0
3373 1 33.995343219746935 24.48834059230157 27.885217642670938 0 0 0
3335 1 35.71971768756459 24.460119112591872 25.7145592069743 0 0 0
3661 1 37.537303291433 24.36642181595038 27.74653618990908 0 0 0
3623 1 39.11642906157937 24.352752648492093 25.597075006001468 0 0 0
3949 1 40.82794735885436 24.362037477528354 27.79854997430103 0 0 0
3911 1 42.29244833973632 24.59403403374748 25.600006839920816 0 0 0
3485 2 37.36633223094995 38.0819364690956 32.18447860623556 0 -1 0
3084 1 30.911818046572044 26.75646784018823 25.458403673828958 0 0 0
2798 1 29.312748063935288 26.737682412796836 27.7434219727502 0 0 0
2795 1 29.003976294821697 28.95820477685337 25.609482423270034 0 0 0
3121 1 30.67271406071766 29.102244042350698 27.857585909860468 0 0 0
3372 2 33.92941849596167 26.66175431562378 25.52521462396877 0 0 0
3086 1 32.39047391671249 26.74278615795704 27.817996949727274 0 0 0
3083 1 32.35539817403262 29.022004265903703 25.573752067562992 0 0 0
3409 1 33.86015053969141 29.000600831607603 27.833675044629693 0 0 0
3660 1 37.50381168113778 26.675102221889105 25.69689379209729 0 0 0
3374 1 35.6825599900244 26.542527057769664 27.88186778582186 0 0 0
3371 1 35.71908483691369 28.89076445485225 25.700950119763103 0 0 0
3697 1 37.48382525678346 28.90815223237222 27.94449339683215 0 0 0
3948 1 40.56537347893054 26.749919975151588 25.63481402420069 0 0 0
3662 2 39.11864602553114 26.76363517382895 27.947294835892134 0 0 0
3659 1 38.8857794850549 29.032135567636693 25.55691046616678 0 0 0
3985 1 40.760459267287125 29.014268091953955 27.725802985450088 0 0 0
3950 1 42.29021989937424 26.74362371192729 27.734327536374405 0 0 0
3947 1 42.29956414667545 29.087228089178076 25.453096525120653 0 0 0
3735 1 39.03725217795874 37.87314773447908 29.903562640790096 0 0 0
3738 1 38.910669497390366 35.690865726044635 32.311212666013766 0 0 0
2834 2 28.93184750033629 31.36887579498498 27.821073832524768 0 0 0
3120 1 30.721259902399645 31.229393558452394 25.589395617428284 0 0 0
3122 1 32.39221237245615 31.383740802270463 27.7309375411765 0 0 0
3408 1 34.08998635088465 31.1505012848745 25.569506158177052 0 0 0
3410 1 35.79632138497058 31.097007834694605 27.975869711946093 0 0 0
3696 1 37.089899502567775 31.271336372619523 25.541520009426804 0 0 0
3698 2 39.00838984866623 31.1392410774552 27.782895084591374 0 0 0
3984 1 40.729929901285 31.298328902152846 25.56513113376382 0 0 0
3986 1 42.32084463878708 31.46339880974747 27.958929533906083 0 0 0
4026 2 42.40833440601268 35.99524987470118 32.29583768289612 0 0 0
2831 1 28.993535096518805 33.54415053154996 25.683310516723758 0 0 0
3157 1 30.61001112306804 33.63455480320846 27.92048907927968 0 0 0
3119 1 32.39329504152606 33.536058359291665 25.668483113556327 0 0 0
3445 2 34.246072831449055 33.401342572332396 27.90380596611998 0 0 0
3407 2 35.58543693609637 33.609079231619404 25.620426924215884 0 0 0
3733 1 37.33945644700398 33.330571590375754 27.91001856994624 0 0 0
3695 1 38.87077006177206 33.50260255096639 25.428702047625105 0 0 0
4021 1 40.47455370390227 33.525816315917325 27.80958604993078 0 0 0
3983 2 42.49893732169825 33.67875835867609 25.858323131235082 0 0 0
3156 1 30.68228374898348 35.6840642575249 25.690584179264278 0 0 0
2867 1 29.04985435963401 38.05746936128927 25.625411914648893 0 0 0
2870 1 28.94099815472991 35.80096114508877 27.876997023485142 0 0 0
2905 2 30.617785425551254 37.957685488022925 27.916602157942833 0 -1 0
3444 1 33.905970486260145 35.86238252633054 25.516642180785944 0 0 0
3158 1 32.39053873396077 35.66553268684304 27.88831286030756 0 0 0
3155 1 32.1707231337272 38.17181773377831 25.648116104610427 0 0 0
3193 1 33.99838273897882 37.980567002551695 27.817803244936403 0 -1 0
3732 1 37.26620522061686 36.00248086390417 25.459769741148484 0 0 0
3443 1 35.5602197917717 38.15423269676875 25.544090607876676 0 0 0
3446 1 35.66582679322779 35.7682167016598 27.7217306499746 0 0 0
3481 1 37.23587753012969 38.09885464145297 27.66487526763549 0 -1 0
3769 1 40.783873120792585 38.133839864711696 27.809285946499653 0 -1 0
4020 1 40.57298154834643 35.78967737855593 25.55183524059611 0 0 0
3731 1 39.038425876740924 38.0248470606565 25.58282207492231 0 0 0
3734 2 38.85996676089797 35.75783495301656 27.812286419547934 0 0 0
4022 1 42.3809760688303 35.71333740707625 27.870778727213125 0 0 0
4019 1 42.362493341281905 37.977399197950305 25.490973148638435 0 0 0
4023 1 42.29961286793349 37.91858451784042 30.21438750401298 0 0 0
3447 1 35.80470079081094 38.098399060546846 29.94845000061645 0 0 0
2766 1 29.095592387760327 22.21301329891398 32.3937632330894 0 0 0
3052 1 30.68163737338658 22.165662184037355 30.081626342994138 0 0 0
3054 1 32.29691942565868 22.21574341905892 32.43665046949336 0 0 0
3340 1 33.96459134094332 21.98637946725213 30.100424132944926 0 0 0
3342 1 35.72999120970433 22.15820997377119 32.301251330563574 0 0 0
3628 1 37.4911558860282 22.04207835217145 30.184877517208147 0 0 0
3630 2 39.271741407526335 22.086910063308494 32.37229275971934 0 0 0
3916 1 40.99379906748376 22.093909212035303 30.105269236584228 0 0 0
3918 1 42.39932772208945 22.32591458641035 32.485207537530144 0 0 0
2763 1 29.08074991790449 24.44398327661289 30.168856887427662 0 0 0
3089 2 30.60466317214808 24.54185834311516 32.439585443758766 0 0 0
3051 1 32.45775274788275 24.371527220783904 30.265480918598875 0 0 0
3377 1 34.07843206774554 24.47725707603794 32.42578096555657 0 0 0
3339 1 35.67943755653319 24.43764186772904 30.04822901439365 0 0 0
3665 1 37.51952573815347 24.38315571743795 32.31353206837827 0 0 0
3627 1 39.31973915558605 24.376696568860243 29.964597701193455 0 0 0
3953 1 40.745757052430776 24.572144358732636 32.38076432030567 0 0 0
3915 1 42.62971804030943 24.457268146298663 30.03688812066891 0 0 0
3450 1 35.70394651988244 35.85838597485805 32.39049643939454 0 0 0
3088 1 30.660469229003795 26.565704536276815 30.12790057241539 0 0 0
2802 1 29.055314814808533 26.811556708106444 32.33767285531829 0 0 0
2799 1 29.10663860477935 29.05994678490923 30.226704125970688 0 0 0
3125 1 30.897672308677905 29.20524214834371 32.524806054752084 0 0 0
3376 1 33.95759260609429 26.759245708977332 30.153667633078584 0 0 0
3087 2 32.25128082420509 28.928910034826398 30.12759849606425 0 0 0
3090 1 32.277898768689546 26.789227477069392 32.28630129647519 0 0 0
3413 1 33.963339371804366 29.026927172361855 32.329231819517936 0 0 0
3664 1 37.414134157485655 26.69973188508791 30.065545505467682 0 0 0
3378 1 35.78678606182593 26.816843408829005 32.506513362798685 0 0 0
3375 1 35.6700841830353 28.93787229293116 30.141004108477812 0 0 0
3701 2 37.41708351303807 29.036996992405843 32.552447239865856 0 0 0
3952 1 40.815255420801556 26.742081791194657 30.15552211706788 0 0 0
3666 1 39.048834834495246 26.694632367331774 32.42749141806969 0 0 0
3663 1 39.112014838222564 28.960469343325713 30.186480711263194 0 0 0
3989 1 40.95132165149302 29.005420508835403 32.38374557550646 0 0 0
3954 1 42.654919234706 26.735060647987194 32.40913570034364 0 0 0
3951 1 42.36712709435537 28.99480577040667 30.172705017366418 0 0 0
2838 1 28.96891438804991 31.370896422036637 32.38774954595095 0 0 0
3124 1 30.740772698212055 31.432280478942083 30.064434149743573 0 0 0
3126 2 32.5050931139737 31.397876902704084 32.513330085777774 0 0 0
3412 1 33.92176256189309 31.154748918450423 30.04770451042863 0 0 0
3414 1 35.4892122477684 31.254028622005556 32.39689955583863 0 0 0
3700 1 37.545428430040324 31.127802072280733 30.355289145372467 0 0 0
3702 1 39.229744372178025 31.160300604308745 32.545746046482435 0 0 0
3988 1 40.715913633558074 31.265835287789297 30.135607803510638 0 0 0
3990 1 42.4461114250897 31.358787440857586 32.484314833933325 0 0 0
4024 1 40.670979443070685 35.58958975979056 30.05574782474934 0 0 0
2835 1 28.958388679640215 33.627842143019734 30.188735598721696 0 0 0
3161 1 30.79078919789844 33.57062315143321 32.43957516119043 0 0 0
3123 1 32.382341064261574 33.53462722973154 30.243382667729183 0 0 0
3449 1 34.173000202230945 33.651063543912784 32.41858126443273 0 0 0
3411 1 35.68254556153873 33.30185430688826 30.16469622242787 0 0 0
3737 1 37.262818917957645 33.48927890249615 32.423719619673065 0 0 0
3699 1 38.9061907853084 33.5370401233743 30.137501862877144 0 0 0
4025 1 40.71070927973673 33.61288751901587 32.329440884292495 0 0 0
244 1 43.999613771021124 31.276687908147746 30.201894052093845 -1 0 0
3987 2 42.23095924237265 33.519515538499746 30.049372673272103 0 0 0
2909 1 30.629507044114064 38.13199266105316 32.57613615137045 0 -1 0
3160 1 30.75117094267099 35.78018556619364 30.114893677759 0 0 0
2871 1 28.965248653654413 38.118696841214835 30.210655933059286 0 0 0
2874 1 29.183863331624202 35.77361418145415 32.446891903042214 0 0 0
3197 1 34.13540831698063 38.25965235810786 32.23540816153303 0 -1 0
3448 1 34.18320718463605 35.61678205811178 30.076695296892105 0 0 0
3162 1 32.47468030621434 35.88457683928301 32.42516175993302 0 0 0
3159 1 32.222616779864225 38.05361706016276 30.07739441017452 0 0 0
3736 1 37.21964017593654 35.782931598484474 29.96322273537873 0 0 0
240 1 43.96071963645456 31.265567012645928 25.649591816177647 -1 0 0
280 1 44.073544861176 35.59984295384297 30.213550286868358 -1 0 0
281 1 44.0674634951437 33.63709282151123 32.46572646785083 -1 0 0
205 2 44.088696452998136 24.462648073712725 27.760100546758487 -1 0 0
241 2 43.927755840084 29.004751243503325 27.702805790443904 -1 0 0
204 1 44.06801020163195 26.978049026175093 25.674525568364754 -1 0 0
208 1 44.112333324659346 26.717061680011728 29.825493548867986 -1 0 0
172 2 44.139170951607284 22.203303038367864 30.4794528631047 -1 0 0
25 1 44.148688590036414 37.964351464384535 27.97421897833683 -1 -1 0
2770 1 28.90700702733804 22.181215693989273 36.99654946836476 0 0 0
3056 2 30.576676167969325 21.97466012371015 34.763646747651165 0 0 0
3058 1 32.587326761230365 22.25860633638848 36.93498828064902 0 0 0
3344 1 34.201027047884956 22.183757018328812 34.556649595586336 0 0 0
3346 1 35.80468420708154 22.081089041849456 36.924779550983416 0 0 0
3632 1 37.55539672940509 22.05587797208029 34.58231649600853 0 0 0
3634 1 39.165682538480084 22.18181687148725 36.905577008681675 0 0 0
3920 1 40.78626631529904 22.306104504036252 34.700559382384355 0 0 0
3922 1 42.565510280914836 22.133797975261114 37.06958489039273 0 0 0
2767 1 28.913581007200698 24.287761973311795 34.71930285652968 0 0 0
3093 1 30.77545034316529 24.39247078947328 36.862122897603555 0 0 0
3055 1 32.297681116435754 24.350339744994777 34.634156767706514 0 0 0
3381 1 34.264732933639515 24.516017527016757 36.72926648950052 0 0 0
3343 1 36.037946420448115 24.532728058232642 34.55099390495272 0 0 0
3669 1 37.46044942216833 24.54930036674989 36.80695308684065 0 0 0
3631 1 39.214665928714794 24.560715222598027 34.59105909560044 0 0 0
3957 1 40.90079479577572 24.490281438583875 36.79530883090696 0 0 0
3919 1 42.753779624702126 24.489455770610093 34.541072362088016 0 0 0
3092 1 30.61068894154115 26.68487643926426 34.649304503109235 0 0 0
2806 1 28.91552592725921 26.577778434846756 36.911759933684635 0 0 0
2803 1 28.915510360548026 29.087206709739455 34.52612827931689 0 0 0
3129 1 30.70793006841857 28.827682841370272 36.96896901593958 0 0 0
3380 2 33.98877386826097 26.531956624284568 34.47240514558413 0 0 0
3091 1 32.4560456908503 28.863817996749354 34.68009066468761 0 0 0
3094 1 32.40554719290815 26.667847113750415 36.83331275752194 0 0 0
3417 2 34.048786990424276 28.975646142786914 37.0185132034959 0 0 0
3668 1 37.49631418676892 26.94522736530415 34.60741643094835 0 0 0
3382 1 35.651061799697125 26.746476364836614 36.873626426492976 0 0 0
3379 1 35.520218983175944 28.88513374308 34.73174527682622 0 0 0
3705 1 37.463759656072895 28.898887305302598 36.953747844484795 0 0 0
3956 1 41.06370608180057 26.677847365152275 34.64334537935895 0 0 0
3670 2 39.17220948266293 26.740569542966043 36.83548417722167 0 0 0
3667 1 39.14036295599024 28.975964401831668 34.67107702262955 0 0 0
3993 1 40.790563928397184 29.00295199806314 36.83918404756841 0 0 0
2738 1 29.08709113946494 22.184272383603624 41.40623612254264 0 0 -1
3958 1 42.527792223303955 26.721289919693184 36.85298735831451 0 0 0
3955 1 42.675445790818785 28.929738155657137 34.65326449826483 0 0 0
2842 1 29.080848814496548 31.137534657551743 36.920938406293374 0 0 0
3128 1 30.744961338746656 31.219313809193324 34.731029251150204 0 0 0
3130 1 32.31183036585916 31.15283902309137 37.06463363261463 0 0 0
3416 1 34.03008543453766 31.079644761761603 34.75367788044345 0 0 0
3418 1 35.83094798683862 31.173266473392797 36.991163960220604 0 0 0
3704 1 37.31898299510248 31.152258939395974 34.428774425786415 0 0 0
3706 1 38.931127773659405 31.168197893032655 36.898242006112085 0 0 0
3992 1 40.83775363526415 31.24062252332486 34.65601374251703 0 0 0
3994 2 42.31396656212199 31.33970227478967 36.88481519522769 0 0 0
3062 1 32.427680054444245 26.622414267730143 41.37991471184873 0 0 -1
2839 1 29.250894962205457 33.44285005332213 34.52235911067078 0 0 0
3165 1 30.542049306975265 33.35027860942606 37.0056854643814 0 0 0
3127 1 32.40971296644239 33.43601306451842 34.73866584597779 0 0 0
3453 1 33.95609991768852 33.52368453460663 37.1388077225801 0 0 0
3415 1 35.64323826864234 33.46699592430447 34.79800676774313 0 0 0
3741 1 37.308110396659266 33.450909668115585 36.96231950544984 0 0 0
3703 1 38.94626434790157 33.439906226590324 34.646774967345564 0 0 0
4029 1 40.60976791454527 33.4520052568015 36.71191352777488 0 0 0
3991 1 42.33672339031552 33.62830155422259 34.57814517642828 0 0 0
3638 1 39.09373034604305 26.714442986547876 41.31455049433447 0 0 -1
2913 1 30.613134138478564 37.99675893732858 36.935585513217234 0 -1 0
3164 1 30.642176227393712 35.65041636420659 34.656746811993145 0 0 0
2875 1 28.828759920728103 38.08074487460628 34.65502046651564 0 0 0
2878 1 28.997642821091333 35.70355731635452 36.88879374472708 0 0 0
3452 2 34.09252206822895 35.803283455996514 34.62647395620279 0 0 0
3166 1 32.36666744806785 35.805239100240435 36.81715473633035 0 0 0
3201 1 34.14590026086518 38.03041932665771 36.91671047457781 0 -1 0
3163 1 32.522197198959645 38.02910407560045 34.61059665029326 0 0 0
3451 1 35.76340013226815 38.15063572194364 34.55334475084287 0 0 0
3454 1 35.62071043395638 35.69618974726354 36.86799555069342 0 0 0
3740 1 37.291754012147294 35.772354212913285 34.730763159526745 0 0 0
3489 1 37.34165044800329 38.09846341025451 36.91635113990782 0 -1 0
4028 1 40.563914163509594 35.8132437915949 34.68433777890591 0 0 0
3777 1 40.733915512146815 37.961492785521344 36.88664147185217 0 -1 0
3742 1 38.864142370715044 35.77958840316188 37.089166175972395 0 0 0
3739 1 38.87338743097172 38.07721665801292 34.54958758924718 0 0 0
4027 1 42.225334828074274 38.106425971763656 34.46683484388291 0 0 0
4030 1 42.30577248517638 35.67300021890086 36.86773922072007 0 0 0
4031 1 42.29582422489231 37.98343560773316 39.25911887725442 0 0 0
3060 2 30.736736208220556 22.302784975035028 39.14588852580323 0 0 0
3350 1 35.885952143767284 26.658143082791014 41.409083623279315 0 0 -1
248 1 44.02933149812384 31.306951222011687 34.701565069141296 -1 0 0
3348 1 34.19788112171815 22.14433568519242 39.22469743809228 0 0 0
3636 1 37.47405585193532 22.32396725482353 39.14671841944403 0 0 0
33 1 43.77297609122011 37.921547199771105 36.92691409691709 -1 -1 0
3924 1 40.84028157705158 22.051598706782688 39.11901558198353 0 0 0
3961 1 40.667398029880246 28.953724388366915 41.316728164834586 0 0 -1
213 1 44.12346586005374 24.439546765427956 36.841864088369576 -1 0 0
2771 1 28.929181867366808 24.426639591701694 39.24241013356456 0 0 0
3673 1 37.45782467907833 29.092825859049842 41.43172474586254 0 0 -1
3059 1 32.47143420430802 24.311126860212507 39.202355654086446 0 0 0
3347 1 35.75413005379923 24.532738375492674 39.08637629203834 0 0 0
252 1 44.06583797313575 31.35926455815275 39.095273275569284 -1 0 0
3635 1 39.381891736655675 24.543931273582007 39.01729212135086 0 0 0
284 1 43.88989596786029 35.7591725172632 34.58302436980088 -1 0 0
3923 2 42.465523104068346 24.348517925437513 39.08057780439317 0 0 0
3637 1 37.540401147694226 24.428220974371634 41.21426833278507 0 0 -1
3096 2 30.67266349630153 26.554995469552473 39.04034372799447 0 0 0
2807 1 29.1315352955627 28.928622962889467 39.22068477951099 0 0 0
3384 1 34.05549520003384 26.906721707060157 39.253446503682255 0 0 0
3095 1 32.19446312161859 28.74130850901998 39.237413400820174 0 0 0
285 1 44.07193237567899 33.52639570321631 36.9090165430287 -1 0 0
3455 1 35.661260199584724 37.98876579438652 39.30014614718536 0 0 0
3672 2 37.463966904510535 26.591693914338997 39.07976833273831 0 0 0
3383 1 36.01459637586772 28.974366051539405 39.28870536695999 0 0 0
3167 1 32.44906953737188 37.95711473915494 39.278747441620595 0 0 0
3456 1 33.92332019571092 35.75861164314396 39.21971926110007 0 0 0
3671 1 39.20428454520387 28.843446247416708 39.048453402549754 0 0 0
3960 1 40.98423237392745 26.705109488994527 39.08948970369204 0 0 0
253 1 43.983995666393376 33.52466688116997 41.23353839541464 -1 0 -1
3959 1 42.524583971383116 28.950162206022632 39.27136987828136 0 0 0
3743 1 38.99246710481489 37.99701156807178 39.170392203025216 0 0 0
3132 1 30.58165597319411 31.307912600157398 39.19791443956095 0 0 0
3420 1 33.905986626438704 31.003384969013858 39.307940121945066 0 0 0
3708 1 37.57350966527027 31.18277560943417 39.384927529948484 0 0 0
3996 1 40.60403869031983 31.21937273687109 39.1523657848922 0 0 0
2879 2 28.967275900509662 37.88572996212177 39.241099051013464 0 0 0
2843 1 28.804798422468526 33.53714051617138 39.1927979534949 0 0 0
3131 1 32.24148191586339 33.357230233617756 39.31743618347751 0 0 0
3419 1 35.62676770863629 33.34131279608765 39.44906679193298 0 0 0
3707 2 39.01643313229771 33.61041654139689 39.201431700009266 0 0 0
3744 1 37.15387391052672 35.81029790879222 39.14930955744603 0 0 0
4032 1 40.72283788249473 35.657516767356945 39.1727277381401 0 0 0
3995 1 42.306397576434094 33.369046841069135 39.08971642666671 0 0 0
3168 1 30.851241045800784 35.72795550709549 39.1783425011476 0 0 0
249 1 44.12670786809295 29.18322066719521 36.985868296315246 -1 0 0
3962 1 42.40721912770635 31.291748411828163 41.41651789087298 0 0 -1
3710 1 39.08019322396046 35.789298201405195 41.43674502032283 0 0 -1
3133 1 30.434053280620972 33.580697493634034 41.42545500800158 0 0 -1
3061 1 30.65441056999787 24.50907352698646 41.43148797437307 0 0 -1
3385 1 34.02818637692579 28.960267848958534 41.34978103240029 0 0 -1
176 1 44.05654373449913 22.07108136168587 34.68259764285436 -1 0 0
288 2 43.88012576456647 35.64985339319933 39.2109030977051 -1 0 0
2846 1 28.925484290216822 35.90642318135563 41.285851807951445 0 0 -1
3422 1 35.751321048019086 35.629945571134705 41.33812714779926 0 0 -1
3997 1 40.59422456753631 33.53279974766599 41.44568412018001 0 0 -1

Velocities

614 -0.3965933146484921 -0.2645479488011208 -0.3615582909784875
292 0.6359117461456496 3.084080754343991 1.9699606149849935
1225 2.5388219260906286 -4.224756663501664 -3.748645017780499
580 -2.6082898779134513 0.9898642333836739 -5.256696432489315
145 -3.379897404240338 1.9778998231656146 -0.3352561842997703
868 -0.7219026693873705 -1.4541749226082317 2.863767258284775
578 -3.1182047620256155 -0.34334509386013173 0.2534503937584942
1156 -1.2052058862418618 1.9852278144110596 -0.7534261680636164
3 2.036700726595668 -2.820181891956109 1.9705369991716053
291 0.43651730593671895 -3.0820346235046348 -2.337928466437162
1267 2.1797698017308815 -0.12592775963416275 -1.5172415121959855
579 -1.5764975435257693 1.7290471700177816 -3.099053037555323
1301 -2.762637767460463 1.0559099718371825 0.19460236957604723
867 -2.3839350879279997 -1.9242531685470983 3.5865671479711647
978 6.519715453963614 2.311959359052016 -1.3602040968874127
1155 0.22029020293670917 2.5023036463894144 -2.3906298756899313
980 -5.2297752554963735 2.6606324988207146 1.1538212114912265
1013 6.837712068738398 -2.0345952936454927 2.620384272033398
39 -1.2085025142872703 -3.489614269267246 2.3612798730080176
76 -1.3976597697542363 0.12704106056185038 -1.2346827636693773
649 -0.23053163136864938 -1.3661782631543076 -2.169961072628754
328 1.1071443904735856 -0.9110791646033314 1.6828203028833204
327 -3.4115635163221256 -1.2054349068092733 -2.6635775430152417
616 -2.0178890421056015 -4.47547036653542 -2.0108547830187606
615 -2.0426319685877115 -1.1706742979984222 -1.1504622831386628
904 -5.270393652907385 -0.2653991670120688 0.7444885928907992
903 -2.6794629187293726 1.429938932550149 0.8320064769639405
979 -0.047216973664509714 0.9704880436818288 -1.9223453693030348
1192 0.3283971582624021 -0.789098776413924 2.5589434490148473
1191 6.228171201463636 -0.37917552868905435 0.286067038677639
80 -2.706092918640827 -2.294285390675207 -4.4424652861992655
973 1.1774544032512173 0.8663533852517736 -1.408278669110354
364 0.7895614241058301 3.4583747691617126 0.6366099628840755
901 -0.38964903386653826 -2.201930116396584 -1.2604315036009568
652 -1.33249588648627 0.6912683852798628 -1.880426422268133
940 1.5984115867097577 0.3265596041445492 3.3316845724396713
1228 0.7488012616314399 -2.389183576822911 -1.892937550103026
75 -2.817111389934109 0.2909364122311469 -2.853422847217417
363 2.4209638698622205 3.0118647768242606 0.3902079818438912
651 -0.14743465681233694 2.481444071440426 -3.313028491196027
939 -1.7452405193940896 -3.0863598548279194 2.886191512628512
1227 -1.8966220319526277 -2.9459109970891384 1.5113790478035565
111 1.1589744702083387 -0.5484144809899053 2.263196503057991
400 -2.7814770475635924 0.8634162242254486 -0.03071453154659111
399 4.7311940627400935 1.602386682551969 -1.4892037108410208
725 0.4567165686206062 1.2532808702102953 -1.5511923876382379
688 5.401837105973341 1.7281462321273016 -1.9736389199679985
687 -2.4425657357980377 1.3122386370602974 -0.6095233804944318
692 -1.9952056628067785 4.247914704531989 -1.3122602224650834
1009 1.8957062427850504 -0.15233059243487396 -1.2402380533359294
976 0.2419535288531633 -3.8972522620153374 -4.773661028823216
975 -0.8924557441058402 -0.4697693680543214 -3.529808070225448
1264 4.3118180256403225 -0.0637039679818605 1.9664861918634262
1263 -3.4831802287021043 -0.8220821906007079 0.3290976399567632
6 2.5838197918372607 -1.7717619804711078 -0.4644019999403219
296 2.0730160305336547 3.3072806709219833 0.6090503424117113
294 5.974819069771057 -3.3996790853310412 -2.659224073623889
584 -0.2436033033545104 1.3557254881605003 -1.7794916538845436
582 1.0445650345817454 2.082305089540345 -0.5521777136037949
872 3.012945540252963 -2.3580813447425917 -1.2540595502491845
870 -4.507779164340855 -4.382051329264107 1.0819763037461998
1160 2.8150341491212414 -4.469388418089871 0.39596189588047054
1158 -2.358279165225743 -1.1786504262501476 -5.124697873688653
8 -6.676625271628046 0.36718255144805473 0.5774404863720725
7 0.7136401060182472 5.899265451225812 -2.415054799103065
329 -0.6964748581251297 -2.1936556013649264 2.512077034729913
295 0.5249007197363986 -3.3507196024001162 -3.339583550332225
617 -0.22006310168804225 0.5850263575615711 2.8608111522755677
583 1.0341809929926793 4.112170947763544 -1.1943429619739347
905 -1.1421399894591648 -4.118424622543133 -5.040744251795433
871 -0.22159356455404827 3.617823035716213 1.886639337633991
1159 0.6920307554100722 0.3582798335353642 0.921845169393028
1193 -1.9644775330839166 -0.8691675292665318 0.8936788877408993
1266 -3.879731806957839 1.065760856791408 -3.1836376469377368
42 0.773183852190714 -0.7646591836991877 -1.950844101122157
43 -0.025710116992819314 0.16971349532990995 -2.9840373029584164
332 -4.717224969370062 2.126867592615828 -1.8423941861850905
330 -0.3032132228287658 0.0607182585805272 -1.0944649939887388
331 -0.0015222454646408555 0.598998455632448 -3.4445196498686252
365 -1.459582085031064 2.2098310237533485 2.3853758199174737
620 1.37003175345853 -3.4318178786977387 7.143388868808832
618 -5.751686311170958 -0.8032673471673086 3.0349053704518516
619 3.618904239250033 -0.5605134083655907 -1.7042322519770783
653 -0.04783086286187682 -2.1704870447236484 -0.8247548270290679
908 2.2050561000792728 -0.8584713312294463 6.194664194507574
907 0.5230270238015663 -0.46116712379551666 0.2958310694147918
906 2.511910900586887 -1.1682019654242841 2.9107079894907737
941 0.40837950093383457 4.227130952591748 2.233923391590303
1196 4.005628074178936 -3.7641809029553825 -1.6008590122206638
1195 2.5454835885663702 -0.7835172338410904 0.43039817270417324
1229 -4.200897340473895 1.8676433870414433 -3.4955233062332565
1194 1.0195408259583365 -2.5875313040225563 -3.660637050698903
1268 -1.8595008433725335 4.170574081933837 -2.035596985555993
78 -2.1407671292146064 -4.43864125075572 -4.813974962072642
368 -3.6277007881871732 1.482630842883886 -0.932313198150519
366 3.8028603442018314 -3.218028304840225 0.32968948086056493
656 -0.013898497462552386 -3.2507302378416987 -2.091206835570852
654 2.739256056930293 4.057070777297945 -1.4825904799748653
944 -0.1667007558370245 -1.130881957802398 -1.3253246462751738
942 -1.1267741559032511 -1.856708221577171 1.2094275577096296
1230 -1.5189511590028106 1.6357763804865173 4.449876386657471
1232 0.08960954527884392 -1.7344117675021502 0.026249015610249355
79 0.6933098265124725 -1.334763929708832 1.4016065788943526
401 1.7146764305427211 -1.3907038560072726 1.6004839335210685
367 0.5797207826224567 -2.0005312350807545 -0.5391847806736701
655 -0.10035271541878699 0.7393173398522034 3.6107772843978223
689 0.8078664946388329 4.675542057317901 0.20785233850258455
977 2.53489826627797 1.3740488540173013 0.954819680655368
943 0.034682279662200964 -0.8461538830642258 -4.388178470770844
1265 -1.2313919575444345 -0.5983317981857963 -0.24467816296998116
1231 3.3392910770965214 -0.7830543081810624 1.0916967610007524
114 1.6990977298582033 -1.7774583960092505 -1.2320508007172584
115 -1.8533955514827118 1.4441346913074875 3.203955466516007
404 -0.79217872488424 -1.1844531627289097 2.1843038851947596
437 -0.5923774349055977 1.1685011964970362 -5.925227704895966
402 -1.5972897296784012 -0.15655859891347748 1.6426461921442082
403 -0.47411914237340785 -0.8402371554374356 0.8755156225492364
691 -0.4376344650150195 0.8634251004548416 -1.4199550179069649
690 -2.379284105150348 -0.06028450842514334 -2.080906450288003
433 -3.028951503085763 3.892517759290469 1.1249610014577076
685 -1.706305081275344 3.7745679621722132 2.2220136839241245
937 0.6381977888054542 -0.2801239971542617 -0.31448614052657353
290 3.8361734277635215 3.1250388181336253 0.6228556775805177
902 0.4547604857035204 -0.16062528698162615 0.2104810201679185
116 -0.3823521241099261 0.06034934456901357 2.042840665178643
721 0.5613352392682744 -1.1389865569910833 1.0981740255445829
112 2.014589570923553 2.4615242955833927 3.9905607876453035
44 -0.014659726678058621 -0.4115248948559634 2.9991497677312746
325 -0.18999072403141368 1.2116124038734988 3.4593364560454725
77 1.400168141819945 -4.243049963484093 0.46879172243220146
686 -2.1137976598804147 -1.0047695808201973 1.3858877495337971
362 -3.4129217309414663 -1.7060305536612412 -0.6357870448815579
38 0.39391301955504143 -0.14176833965359864 2.8111978414774477
110 -0.18802767611051968 -3.39563369205188 0.05676631095665348
2 -1.5355787397304261 0.042313398307306155 2.8928300583539928
109 2.08183728198805 4.0205210036961505 0.15858192708124075
73 -0.23798491767398106 0.9881087195698273 -0.3131290311885984
10 0.38821546614577407 0.7205625745461393 -2.7345726516813946
300 0.07887767400812366 3.23218367931199 -1.2935248510295014
298 1.7107879062264857 0.531657401349659 -2.4068878547345496
588 -2.973360619136147 2.94676927015841 -0.6330761656716024
586 -1.3287454841216177 -0.028821910654929193 3.4208583557531895
876 -0.3946224464163897 2.179127104443979 3.5951575552012325
874 -5.27137921124155 8.820972494194312 0.3461501051403903
1164 -0.04159109342046619 -0.7874588841134933 -2.914253127191023
1162 0.4308978794833385 2.7698905610285496 5.002791621724304
11 0.01689447276014713 1.6292213250522347 1.8797691328130197
333 -2.2533677676461927 0.9840248491475552 -2.690834008642019
299 -0.6905010262962668 2.069529018958593 -0.38825917532790705
621 2.2492951507885235 0.25085749146474456 -0.5680946461383226
587 0.0330712897935374 1.5392492503904118 2.5096384707993913
909 -1.8722866270021008 -2.1531155504661483 -0.6634767056866224
875 -0.4743663003436224 1.9103518815238942 -0.18463678523177265
1197 -1.6969168483165757 5.245149214602284 1.4503968344240092
1163 -0.4376068986674506 -1.1198023680616103 1.0440335711709716
46 0.11799335083986305 -2.8186599251497197 3.5123842020850593
47 3.8055210890810263 -1.2968666762736811 1.1891750891768722
84 1.087566640311136 0.4811252299573134 2.4164072306232476
88 -0.8405838960022077 -2.5186736891153245 1.1155378925769088
336 -0.25630766834305563 0.4683660093171535 -5.042545754547023
334 -0.95603784412971 -0.9981939457285438 -1.1835124301931004
335 -1.4870274154336969 0.038513384742958894 -0.4187260224058299
369 -1.3067570806616617 -3.960226383752372 0.1936541197230009
624 0.11222217028198467 -1.3196405291315811 5.2718206499739875
622 1.0186154978474689 -1.8642131344540547 1.7731864048741404
623 1.8616104571058423 -1.255101767284292 -2.9510126520245876
657 -0.548349701606448 0.7723563189318186 2.310612180808576
912 0.2620364379530207 3.5843335216571646 1.5997973466442057
945 0.8607925988888683 -2.4211144857208735 -0.46563629632080294
911 -0.687443360974571 2.034007959931259 2.2179973356264604
910 3.854717144336701 -0.7108590982163819 3.1330611603742833
1200 -1.1095805569133903 -1.3464980400525979 0.7533219627710717
1198 2.76517704025518 3.97850670545823 5.097301476606204
1199 -1.9371069967258499 0.1772585844173341 -3.6452773526568847
1233 2.6326414754486196 -0.8539565367159059 -1.0647470737206859
82 -0.7067976867501655 0.014332564382528392 0.3225334441500392
372 2.182464275291382 0.3029484397421668 3.0727849538869765
370 0.9812494200089152 1.3333332383102627 -0.772722084812493
660 -0.01241673508346341 -0.03866647899293433 0.2423305751058966
658 -3.582172977500787 4.02407156912758 -2.4556670351234833
948 -0.1098589191525967 0.2831395320425145 4.276386034799115
946 -0.35303542958178935 -4.080910930151372 -2.1469196328559508
1234 -2.541740331900695 -4.478066573231613 -1.0334567904223317
1236 6.182862402960832 -1.0586121611408716 -3.2887305954319834
83 4.521761628745989 1.0948511843104287 0.542585689738645
405 -2.759460408743248 1.17121373401281 5.09005431151376
371 1.0409421460493151 -3.1398735676046217 -3.4307625420520345
693 0.061925539218298124 2.875138456018617 1.847420107836384
659 0.4161743142997446 -0.7585525588945085 -2.686515042564814
981 -2.318300577804444 0.4008015194238377 5.051040173186977
947 0.28234779680326005 -2.928482099903311 -0.7150114505412211
1235 2.299202170783292 2.9373224877282955 -1.2592527982115342
1269 -1.0693881126243352 2.37049624386796 0.2902849277014994
118 -1.7141869636427591 -1.9060898698222617 -2.173150343909232
119 -3.788041329720739 -2.508145646783443 -5.7431235295481
1275 3.4564993503740205 -2.9836758165313837 -0.7409996076212558
408 -1.6415128874133267 -1.1842059374747238 -3.318619369693229
406 1.516397500513061 -1.5893113942388606 0.7463848481170121
407 -1.6466668865693048 -3.3066447846434044 -0.45045219603211756
441 -2.3418750134614776 -0.928397428308352 -1.2529611536915042
696 -2.669534244068727 -4.128605997569653 -0.057869521085993185
694 1.5411658088961788 0.275787368277154 -0.1385414102474589
695 1.3276093598957275 -0.10934493576877655 1.4497014646323336
729 -2.322808813863955 -0.42542038105779933 -0.6656175164360246
1017 -2.4789751479775397 -0.9036345380982145 0.07362718190685284
984 -1.433981314856775 -1.5393236315489793 1.956203784306386
983 2.315994377268542 0.9319475408104266 -3.6287747388161464
982 -0.007613950509697491 -0.42261080445319493 -2.8016656500614565
1272 -1.3740815374450261 0.8869782774413587 2.5770966397764976
1270 1.1669124242171947 -5.042306935642745 6.872149977266714
1271 2.68401309051323 0.8644711250334955 1.9572835493269969
1305 3.740359636959296 -3.0090946561933913 -0.03597402522576768
14 1.836000961783896 1.5579032275848863 -2.818639436091786
304 2.6281057027690484 1.275553132862775 2.9384851433348214
302 -0.39474475784324997 -3.2145148774873062 0.18928349818546306
592 0.9217024343986784 -1.1021200804218652 2.974470018699509
590 0.9942064558360832 -1.7308384818351683 -4.4817119385713395
880 0.8633719840034166 3.911678103893216 1.4474023552053616
878 -1.4300835967171386 -6.4610335335302 0.8632862514861875
1168 -2.552150250738999 -3.251054196972134 3.09408557770522
1166 1.4129080762628052 -0.032183251835526165 1.731770636292458
15 -0.012031470359968006 -2.3694685906158184 4.390579276717933
337 1.118088409649938 0.4133050978397017 -1.917628765567951
303 2.7080227011840177 0.24302965197377707 1.839357139506705
625 -3.2854710945748224 -7.0077038169686565 1.1694737249544043
591 3.3187544858836766 -0.49171032624712224 3.7425520813804085
913 -0.4803021549696496 -0.8105914335331228 -3.2692514966913278
879 1.445898152578299 0.09105794465748593 -0.6291212058597393
1167 -1.0765138202366247 -1.474534672867373 3.8554672954928004
1201 -1.5195454438598393 -4.072830102156604 -0.34462734738646766
50 -0.8901788231982298 0.564556941303405 -0.41765476379143185
51 -2.127996977110118 2.9085165566453797 -0.3377940226425996
340 0.23596716863834682 2.289232658176402 -7.046108692435425
373 -0.8214373070293935 -0.0520730329065439 3.729064287558879
338 0.02675536630233651 -4.3465575509348575 2.24207134447733
339 -0.9168886725546318 -3.537878841629453 7.966038019581135
628 2.486506361317184 -5.645966592731691 2.4192449566675798
626 2.562543033639902 1.7647307796803504 0.2953838872531478
627 0.4072537233820453 0.990885735802173 -0.21622394128268455
661 1.4760558978827283 -0.4731859420268812 1.1440513948414122
916 0.006585510125683475 -1.4248404846056262 -1.1867902385028615
914 -2.4720284358364326 -0.8021301615525724 3.356357296801564
915 0.43140590436294135 -2.712055286700248 -1.61141863200684
949 4.642093953555757 1.8321333899578574 0.9085053223482608
1204 0.4949062027140314 2.5005196330855246 -1.2076583578123201
1202 0.2376239285464621 0.33026878906222723 2.299201632240784
1203 -0.9273722322655671 -2.5149319067833127 0.07876825161322915
1237 3.258372777715905 -1.443177880315224 -1.2351239218013679
86 -1.7018980942514885 -2.4773605272099966 0.20296835592521523
1309 2.682502406817729 -0.5434412705568911 -1.6860963203335566
376 -0.027841069007755313 1.960209530726528 1.175902661745449
374 -2.5002185811892246 -1.492647494263941 2.801705878904485
664 0.03452183673133841 -1.8868546361566336 0.20804527722507576
662 -2.9463798383354636 -1.0501091122218094 2.2864595906699203
952 -4.403372437544418 -0.2620533489713226 -5.907657634576339
950 -0.42244464533380005 -0.2546488865704054 2.7696167969095113
1238 -3.5161146376168877 1.0219168142185255 -4.213562500261817
1240 1.5423979589143828 -2.0635099360215547 -3.486449413438664
87 -1.375482436058848 -0.8613168586468747 -0.2517225918745695
1274 -2.318342501300341 3.459510464779106 -1.1160538729666876
409 0.3381998596320801 -0.9729835670508385 3.1436216135149873
375 -2.5714652830708093 1.2400868769345934 2.244433181148517
697 -2.606176999850484 1.3818281255299476 -0.7657911331394085
663 -3.3009585241148227 0.6509801769840858 0.47039978812103567
985 -2.7674077575262306 2.3050083217703268 -0.28187115525676193
951 -1.0717141965277324 0.46054721282321837 -4.135800373093233
1239 0.7491631443205186 -0.7710751234407056 -0.7109994986701547
1273 -2.098820987259562 2.3604093269750805 -2.8637383629027604
122 -3.833723725171436 0.39966419981057605 1.3233004125047225
123 -2.057802979457881 1.9751636177663652 4.343028359795659
445 -0.7820924285874955 2.0674492662443273 0.08969988244961112
412 -1.579675867894514 -3.173100170943503 0.04614751969300547
410 -3.9286469321983226 -0.42061691548803426 -1.5443484668625296
411 1.6458054413811316 -1.77552696541691 -3.9131096005426675
733 -0.02726818593032805 -1.4854093278532141 -1.5322434631952595
699 -0.766449581848937 1.7180264930873232 1.7261549660366542
700 -3.884639320820481 2.294311686959163 -1.316916158952456
698 0.74911394032531 -0.07576842147889329 1.2417937690004692
988 -0.23612841822748387 4.882988659911243 1.0843930260461834
987 0.6070586073653438 -3.5102073748026226 1.5886522398051885
986 0.09446688384675096 5.043996433976384 -1.4568268804008857
1021 0.8464937393097095 -3.5841515234082295 1.6894258099492139
1276 3.3419105715444077 2.106464034508199 0.442065648726852
85 2.808304491075626 -0.7837529214649908 -0.2133982968203746
117 2.7746866810505244 -1.6259756238813095 1.9098905890634712
157 -2.4528775034209715 3.0207603812613057 -1.6855648781470873
45 -2.841197150245926 -2.8365487084317285 2.982741723635578
48 0.5315738206203211 0.9842797992325463 -4.1985560644959605
16 5.761007562899476 1.2710824905753106 -2.8258836876636684
18 -1.0116455751154718 5.8561941341894554 -2.8619563333497577
306 5.798502807140612 2.3551961167003688 -2.9836265465666387
594 2.008029845806198 1.99130460204609 0.14145924027808837
882 0.8176606223637798 4.121194529791487 -0.0028404670483704367
1170 4.009679065882176 -0.5617133702252157 2.5062264084298365
341 -2.197706159682815 0.7385628726483088 0.9510760973646508
307 -4.139046754399024 -0.024954678080047747 -1.1443720562782917
629 -0.8709979717834115 0.5481460971449758 -0.5708668528561309
595 0.6397486735312441 1.7446216258647325 0.656220234557533
917 4.227209795953356 -2.7363953856270826 0.3317560578362719
883 2.4962738586986273 2.9070530857384353 -3.540802914531746
1205 -0.38119923163747416 -0.4851172738070969 1.0991348109695858
54 -3.1253458669187903 0.4749222381541146 -0.8018209846187601
55 1.815851856209995 1.1403881930489543 -1.137909787531446
342 -3.933503414181359 0.724402796598009 -1.3587592111174038
377 0.7196843609520438 -3.0680900284656643 -0.663730167109445
343 1.8829109060914349 0.6370493458693866 0.858798707964965
665 1.1726658770054896 -0.9501126565218803 -4.251472691507586
630 0.6788682612262539 -0.4978419238729194 -1.5494280805197707
631 2.2122994974665273 5.200275435786552 -3.194157317146933
632 0.2747090058530411 -0.5715098370978977 3.4890900440708315
918 -1.520785760401799 1.7894294603411316 3.0250192589815192
953 2.740540494352503 6.0484913126833755 -0.1772233137840261
919 -0.3125818832684287 -1.8903254185363532 -2.8682099705648842
920 -6.025923647687975 0.4258049280664511 -4.696830216727487
1241 2.0238432276334835 -2.4435998329926876 -0.9255211389587117
1206 -1.706619986254534 0.7728084217795125 1.4827703711627265
1207 -1.6691125255326145 0.6424901939958549 -1.383989268284524
1208 0.35301850967360204 2.4667582532366024 1.398749869863526
90 0.1414538986505264 0.40747435366007095 1.703063594439013
378 -0.10972204177012707 -2.232707658394582 1.8810037829629833
380 -5.0680906367172796 -0.7539184490401903 -0.4625213760625296
666 -0.03671856452578567 1.6331169204931795 4.7604040553674425
668 -4.282212130781163 0.7521446451027921 1.8452516909598944
954 -1.7776965591459666 0.9573004505779262 4.2206109484922445
956 3.1255286757175886 0.14034039009014493 -0.4311245102869299
1242 1.3464892286838095 5.112725175033823 1.7386944979517893
1244 0.4645783592343055 -0.7166273704764933 -3.537369743174395
413 -4.0719426525550135 0.03565854934157692 1.2877168797992813
379 -0.17373538096674204 1.9857512350625328 1.2207404065021474
701 -2.212580227237193 -1.7319393827019507 0.8420015109894119
667 -5.826297444409475 2.568690237794571 -2.9021029394595623
989 -0.6305922117196588 -2.1528307617181683 -0.33595010807557735
955 1.4927729218056554 -0.6327980447146591 0.5661936020555354
1277 -2.970314847592175 3.492760309231858 -1.756263594836781
1243 0.28691858401472276 -2.690904023361245 0.19629446892993366
126 1.6636305435065184 1.512412681201665 -0.13895376616820335
449 1.2558057045995183 -2.5130218362917107 0.9908489045561495
414 -2.119807072354793 3.907907373813535 -5.136949335547458
415 -2.238122187560352 -0.39974605133561164 -1.654861102717937
416 -4.209765311066322 -4.595188908458096 0.43256031339238826
702 1.7979243746002176 4.215801176664838 2.84425194196514
703 0.8775341974226727 -0.5327430346655733 -4.821498171886631
737 -1.08028251900959 -3.044138505574315 1.5160224308589663
704 0.7073890596177445 -1.0131554369944005 -1.2109975308362317
992 -0.7035981240961434 0.5484614549401253 4.053670683431525
990 0.01945044658393988 0.21569247841450936 1.4056003474745111
1025 -2.80292729773077 1.802742546125438 1.0348004284310055
991 -2.2163910466935404 3.2973135392991977 1.1032805145253681
1280 3.5276201922208474 0.8076357641176144 -4.763504693148043
1313 2.185176405855364 3.1414410595070934 0.381623241328566
1278 1.2714521616405292 -5.512282872755312 3.06878568963748
1279 3.3397138438058525 2.419994916742519 -0.530181566171164
22 4.28313425275613 -1.3815647662949957 -2.097928785200769
308 -0.5200057142896536 -1.0185690149627833 -3.347793828307375
310 -0.9307430428967373 0.9915054564283168 -0.352996803942279
596 -0.35979355355060405 1.2299120945469681 0.4834316677439693
598 2.2603781448853266 -3.24339618430108 -0.532292284845029
884 3.161431607868626 0.28493693629191974 -1.338026989915679
886 -0.8842424180937507 1.540414816891988 -1.795381876911489
1172 -1.6612804646986272 0.06377069437855441 -0.4472217289478189
1174 5.586279910116971 0.9899192460321077 -2.091756165845552
19 2.453039327431082 -3.769603702697887 -1.0744456475121782
345 -0.2621168420719726 1.9318260788283652 -2.0993289405182383
633 1.3562584018942707 -0.045910707317405555 -0.5941869729137527
921 -0.34705451975728907 -0.41998635600418416 3.0494110853077228
1171 -1.8403378333367275 2.4053172979778057 -1.4423610491440761
1209 -0.03950986592803419 -2.9028764985818785 -1.1111009828869913
58 0.23731843828375118 0.8997694103879986 -0.06577292796278444
1282 -0.33195469755914264 -2.4237998734254833 -2.632369835097427
1317 -1.692064307273767 0.12276294465357841 -1.344425667472086
344 -1.2550297001171715 -4.098795165834101 0.6890454607676272
346 3.1487411209812093 1.009234778600319 1.6302082818919306
381 -2.8644115565981134 1.7821117397877597 0.03558263589101304
634 -4.276480585253802 -2.0187820666713723 0.23776585675981363
669 0.6067651295645462 -1.5528946494867253 -4.844261400648888
922 1.7956540105530197 -0.5307400117687566 -1.951887107862828
957 0.3605894948671492 -0.08645139182634778 2.645330428780556
1210 -5.092884786459826 0.30576036673858964 -1.788075364898655
1245 -0.09883458172819574 -2.768872643940853 -3.94902225232554
94 -0.509134216499127 -2.5134160562441448 1.0936186666928627
382 -3.4884686067336483 -1.4716389942594001 -4.24601967532803
670 -1.7424312869230882 2.5386586474532677 -1.054979692540694
958 -0.004670669009523123 -1.2686595306985409 2.2188922214054716
1246 -6.312973789039699 -4.143929121689027 -0.6216789468774321
91 -1.5305073676606147 -0.5948270989822809 0.988606764758006
417 0.10562100358225922 0.12796052916986633 -9.141967231664895
705 -3.123438408216429 0.7002760910266247 -1.5459502836552277
993 4.147221123030176 -1.035297805435136 1.3888661799538975
1281 1.1875105192832531 3.061053031040185 2.8129035319176054
127 2.4002230512094895 -0.023890702304773404 -1.5898463579656108
130 -2.8732368883971597 0.8183849083437894 -1.6427219520493943
418 -0.7795272916986499 -0.24479740902644206 -3.268773820088796
453 -4.586630957454949 -0.5372947312123408 0.3260332005171693
741 1.296697297568543 0.15605990030263459 2.842471190876858
706 0.8574584522371217 -2.8324177928386125 0.620969004558482
994 -0.7784173012929184 1.3827765702409551 2.113754007177106
1029 2.718628069872017 -1.91811198271987 5.176861209138691
93 3.131601777625531 -7.626171590085533 0.2554099130990995
125 1.9250572074113124 0.03761259161300464 -1.5367380217029647
57 -1.1371803853992613 -1.0610225965383133 3.885610690750244
92 2.1262557185361737 -1.5515861642926154 -3.732959070746508
26 2.742464740950788 -1.89493197021336 -2.2261750702888987
312 -2.6004864082885613 -2.694549908458836 2.88962244336885
314 -1.0892774308774877 1.3386119745816534 -5.941144525531997
600 -1.1696927010399851 0.9103772582983831 3.6387721863969427
602 0.22792430820081136 -0.7185374695165941 -1.4885353463534008
888 -2.1914170104489905 -0.4474203148173654 -2.200436849671443
890 -3.731201070884923 -0.5468478287063765 1.606501357724797
1176 -1.8995301049878857 0.30071187115192155 0.3513430987805516
1178 1.501719656963158 4.922344696695192 -2.7213834960362218
23 -5.736356805269343 1.495684412535688 5.313838526732156
349 2.04307476583381 -1.1806259611440602 -2.233680705194727
311 1.2522533698065572 1.1407679016900516 -1.0556769769415981
637 1.112347550935874 1.5105498938548665 -5.730414250158759
599 0.3157999253188202 -2.308925603063913 2.759836138244982
925 -3.4779178744529116 -0.029169966009188485 2.9935260178788266
887 -0.8392694996467325 -4.3428349525629315 2.3451620724594235
1213 1.328916167937513 -1.9318152503814585 -0.536958398038249
1175 -6.709995700558599 -2.9492145266956906 -2.688326003718797
62 3.426877080145371 3.747099303205831 2.127533618266968
59 -0.819474395360633 -0.7306672197892395 -0.1529396092525961
348 3.3235079948253454 -1.9382935902017155 2.994884694264741
385 0.4487108760248079 3.1376821721057913 -1.3943621002735385
350 2.6902179610826296 2.286164657653996 0.3386571588604339
347 -1.3135270195035482 -1.689136522806853 -2.009049096306667
636 -1.8737718218402593 -2.3280094296156792 1.1325572220542717
673 -5.3427848675239185 -2.7137507280012247 -4.419141117763723
638 -2.232457728724274 2.2541569170035167 2.644069602061664
635 -0.49312509053584375 -1.1001963961090262 -2.10062262685768
924 -2.369531531075835 -2.332022606576541 1.8326135798185028
923 3.334264732565533 4.468098586060789 1.2385741513067905
926 3.283267261844035 -0.8658070026218039 -1.755559315520492
961 -3.7509382857029037 1.9139646388618927 -5.413075910609754
1212 2.8076346604667908 -1.3785854338979084 3.994813528408174
1214 1.3500470766840325 -0.46276744194871855 -2.6081504712215073
1211 0.7451893513543052 0.4358390411002357 3.361229836595507
1249 2.609322482933356 -1.6106173879602974 -0.9599191161149929
98 -0.26259722667655855 0.3979713683064627 -3.5882460459457257
1325 7.187922914088758 -5.108257047648508 0.5209465268574412
384 -1.4437711374539572 -0.003948203002499683 0.8983314388381234
386 -0.9669358429582897 0.0396584411914711 1.4124007200815956
672 -0.2886891126785428 0.3971044782971201 -1.5540386471794025
674 3.272894835093295 0.17879467577294464 -0.044792697249846226
960 2.816985482550543 2.6442940845208804 -0.8548907414551589
962 -2.556249859470345 -1.2533825491650437 -0.07347125282765522
1248 -2.9444783150182365 0.06658821617590877 2.7842689438359973
1250 -2.4600499346339326 -1.9276704562209908 -5.458255166025534
95 0.19101505844072794 0.47607399383485915 1.2318872699993217
1002 1.602398778041914 -2.8619146969845835 -4.106557021228595
421 -0.3932998400795209 2.3510225081057845 0.041301951814194875
383 1.0110910697408164 3.3081271704003408 -4.850110219502199
709 -2.8828454117774824 -1.1166586464334558 0.5478426118109769
671 0.1295444144244789 -2.869211726941167 -2.006776084746427
997 0.4345301711558748 -0.8688490752049142 -1.97371541889463
959 -0.8274689873907204 0.7301373129165449 1.8397666982664576
1247 2.0818125785881216 -1.784926548349344 -0.3421190229907255
1285 2.002003924089331 2.1561988827814758 2.2377083050499302
131 0.1803831302317419 -0.7765595778641651 0.8001601515528898
134 -0.9567927692116611 -0.5650504978709231 0.6325505759850081
1287 -5.878256574245991 0.7633998133118017 1.5156449937696077
420 -0.11590329453279566 -1.7746792708901233 0.4123239124753571
419 0.4451826029630234 0.6464082872583231 2.047893927831441
422 2.0470774867791133 0.618557894902864 -4.125076083217943
457 0.14972051669665362 0.4270608611800532 -1.40948505400303
708 -1.5520015683538704 -0.21904803711966334 1.689255690664794
707 -2.1562120380504775 0.7700477197551818 1.4245144444947115
710 -0.9505400516417672 0.5416004846344683 5.859799605238042
745 1.1629250517946534 0.261439468093232 3.2544950736183944
996 0.6105115359525414 -2.177130314581833 -3.0181476000952125
995 1.3956902909195419 2.5494030475875116 2.4136296424178068
998 0.550298847132778 0.44359376009847495 3.4140296377142794
1033 -1.8809538991735049 3.9466935927744804 5.88235588469446
1321 0.4768064800903779 2.1804633408628487 2.077655119423102
1284 -6.755023265297951 2.605243936265381 4.694810229801328
1283 0.18967602719979754 -0.5535240536673861 2.7813868302544718
1286 2.0029168881635053 3.521360261221348 6.205033514544485
30 -3.9208990594255844 1.7507403005400506 -0.9051205676402292
97 1.3412070740185058 0.4886778222336377 -0.47077584302615694
316 3.7132920069734787 -2.1517701531559674 -4.110525307493253
318 -2.3049810418378556 0.6714202560700052 -0.7763574209901775
604 0.18893560926241634 -5.049910575216205 -6.349531521556695
606 -3.7222842964482754 -2.523024079319322 2.1787912880355815
892 -4.288857938142756 -3.9440818782395315 -0.753931061999185
894 0.21395239039246225 -0.4580697339240002 -0.06447221934591632
1180 -1.0864508171395555 1.497278752195984 1.3222233333895146
1182 1.1539199984934247 -1.0325392108913314 -0.6893343900434772
27 2.019338706825659 -1.3866590544864894 0.3255859424477715
1290 -3.4606914965823012 3.9731309807211295 -4.561685114549639
353 4.096762393680878 -1.9615480297012227 0.26408786661291384
315 0.9169291280049404 -1.226628936299766 2.0282273116310527
641 -0.689938388423008 -0.07829159096321583 -0.143497812310551
603 0.013434275727834559 -1.969735701920426 2.1964161458534357
929 1.2066329401855893 2.162185604336724 0.6049519497785636
891 -1.037149458670111 1.3103866155232071 0.6035910405400362
1179 -1.3469763377158086 -0.41749929797375807 1.3840023364427796
1217 0.3416856469269398 -2.342351328655893 -1.7690283162788327
66 -2.617403738371366 -6.53117314631254 -3.979870230685432
63 0.4975670687345139 -0.15701042538084248 -2.292096605617861
352 0.44999357932307144 -3.270488828821185 2.707711131932331
354 -2.283295594797294 4.032174742356022 -2.222204847055163
351 0.7339437689892812 2.2304476153934356 2.354981201126885
389 -2.3010169902524904 2.0204119934371487 -2.9471678357681994
642 2.8928838807610626 -2.06444814871098 -1.2710048565683942
640 1.9208517120475537 0.3288721969842649 0.32883398882449977
639 -2.131754626051907 2.7518324600753177 2.591809947593757
677 -3.8055732471995674 1.3053817109597283 2.8148730456083877
928 -1.265421822137798 1.4448831255666486 1.946020526075839
930 -3.155568516627121 1.1190270046823227 3.7457723829382616
965 -0.45721408879799513 1.022554040798465 0.3075445350028741
927 -1.078599279618859 -0.5787451273597292 -5.757450873457123
1216 1.3852524484220041 0.8066242890066541 4.7678324402114365
1218 0.43165427380774685 -2.324740125829957 -1.6077301154413548
1215 -3.13535154528484 -0.28708670433748096 -0.16065935888679772
1253 -5.568448977820634 7.092164001612041 -0.11801648635574348
102 1.60517114321762 4.248169574932965 -1.4471808258022372
388 0.7367524865863813 -1.2337134177562759 -0.6609324832370198
390 -0.35599289650778054 0.29737494788224383 3.704207225560679
676 -3.8979463455271484 3.259412637241033 -0.6397560189593672
678 -2.68040404738621 1.0617830880546562 -2.055885939118967
964 -2.127077538278014 1.684769324354557 -3.514168889317573
966 -0.20786582935772172 2.280211426320284 3.766107960324516
1252 -0.5983639697813037 5.570482086501753 -0.7445442070734924
1254 -2.7338314131837302 0.46477046982994563 -5.533903724674783
1000 0.9544687385742079 -1.1802217473683658 0.3825214771513397
99 -3.4579289684948806 4.685582203578003 -0.16922678905283095
425 -2.8110517818440433 -0.9804748796243603 -5.421415816331512
387 0.22491056298145068 1.4864557814737234 1.3147717976322157
713 2.014522908534534 1.3119473193465923 -4.525411771204718
675 1.6486708270690378 -2.0267535197704363 -6.725805602435988
1001 -0.6401546030352014 -4.219806224788421 2.7152613420287848
963 -1.2136095194482348 -0.8783861167711461 -1.5076530109509194
1251 2.629814389584303 -1.8937518060027154 3.342963335773604
1289 -4.219355966493414 4.521083618976254 -0.6485971512022926
138 0.7315367636906709 0.7093392737854727 4.0402546184972
135 2.2316437794780364 1.2775845338747558 -1.8566215584735473
1288 -2.0217361178664937 -0.024482953276639553 -1.5958102040143907
461 2.672561936654135 -2.273003231661439 -2.764139747059566
424 0.8694426414778701 5.23208542212625 1.8884163412357338
423 -0.6137522291626244 0.971490629303524 0.2728371932764555
426 -0.2506175948054428 1.2911283920666639 -0.7422632190624832
749 0.6343719514283777 -0.32968539993211365 -3.7104036270837133
712 0.24274103799670393 1.4111157714953322 -1.291802759705681
714 -1.4950688970491082 -0.030115539546643404 -3.756357777288815
711 -1.5951466732279647 2.776351353575778 -3.478468452998638
999 -1.7093533893223005 -0.055299773997788876 0.6731316739792982
1037 -0.44222216259071556 -1.2834695951441755 1.8876650451458061
96 -0.6806577094111194 3.149760597519015 3.3941718738365747
60 -3.01636116953853 -2.1432085148463464 -2.19030353111114
169 -1.9456858853467451 3.212206257232719 1.5704192420252567
61 5.334772286360635 -2.5810517344009436 0.1797533157242558
100 2.4257225875298243 -6.7734574602846385 -1.2050927753694785
137 1.6557031129921123 -2.6589785269532276 0.1933060144461852
34 -0.3441076149343522 -2.9530001106638046 -1.920133990455238
320 2.034323637816655 -2.1240665012806734 -0.2864473526329129
322 2.7416464436469363 6.1842409856548395 -2.161370304082377
608 -0.029670708473130417 -2.7649617288260555 0.8106492126792325
610 0.9914597395384203 2.5923463988173734 -0.2926531215473351
896 0.19616983818566683 0.16611515720018744 0.5221437698492774
898 -1.0908840820077939 -2.686496713562689 2.3982639983427307
1184 1.5274805812760408 1.330044844985907 -4.52816017946607
1186 3.721291546746152 -1.8289734807795013 -3.0435741297186145
31 2.4805913393286994 0.8808231171272375 -0.15567957221496262
144 -4.241197109554734 1.7874980907921418 1.294352959141064
357 4.77325925132504 -0.05626172937241927 -0.993785756059756
319 -0.6824802375351318 -2.5550202677886977 4.452452185308923
645 3.205820209878112 -0.4618380967656176 0.4603478326654551
607 -3.595542424625652 0.2613314420867233 0.44838422721697846
933 0.28684226885853575 -4.336504084497026 -4.296683206607617
895 -1.9931002268864575 -0.0030594436945958242 0.3395201990911076
1221 1.6624706144002053 -0.5168688275096835 0.5109015738771069
1183 0.9507985796180686 -0.06262332892380247 1.2536453411954656
70 -4.103988875611429 -2.092929703673738 -1.1138252462528144
67 -1.6277815602576315 -0.900673556152459 -0.8460373479738331
177 -7.276704430124786 -0.4744330163188654 0.3655202831293141
393 -2.7126450388929433 -4.13740709883741 1.4254171686425927
356 0.34588172536641404 1.8616534365715884 -1.099966223820891
358 -1.1197035409854303 -1.9579619108180357 1.1220550707332801
355 -0.5685562682399344 0.09552942841830889 1.3407311898320589
644 -1.0423811978964728 -3.516257885859646 -1.3094081867349976
646 -0.013601088798844729 -1.4942667981007585 1.0359518781224513
643 1.6780935240530328 -1.3972017078882342 0.687842844041453
681 -1.3118764909048541 3.7002998894429195 0.2967031167757742
932 -2.204096718613735 4.487726833445628 -3.375567832374052
931 -0.1602407175622171 -1.448246855232046 -0.1392401167842929
934 -0.32758464762008227 -1.3326840277825365 -0.6258757671148453
969 1.5422514075843348 -0.06488496295243767 -0.6820910934813639
1220 1.2589460917943935 3.6787520118459067 -2.4824024875237916
1219 -3.0733454029520986 1.569793075279583 -2.3230880670315073
1257 1.567794887029918 0.045572611583121536 -1.4662114473039696
1222 -2.2723232390530095 1.6926216558077662 -1.8560437155091671
106 0.372860289736134 5.311397217764681 3.0531749096442127
141 3.160092152551971 -3.991814392684044 -1.6311005866708579
392 -2.383324260419979 3.0025215523058764 2.9327551547715975
394 -4.914615405473332 0.18329801315307562 -3.943021570239596
680 -6.143671096509157 5.440965103168663 -5.067325068960089
682 -0.040095760197735635 1.029061747008357 -0.6891491792793251
968 2.7921808155155103 -1.1016216924492874 2.9920160514434735
970 -0.9121463952514516 -1.779905222461057 -0.41114672831208826
1256 -1.3906996194848786 0.45112227795128373 -1.7285480671341622
1258 3.1611756267253632 -3.438300908772437 0.6464022068327998
103 1.3514200045356932 -2.588553074315735 -6.292138737283105
429 2.595221429838401 -3.6105845050580316 2.9723782625191615
391 -2.8286403141446694 -0.001618331240177425 0.3226961119061676
717 6.276204008694763 -1.3560397689276962 -1.0759088586941947
679 2.2358057043060184 0.19937086162891782 0.49701871850190443
1005 0.29886748932668933 -1.5998857287936112 -7.838373710821752
967 -3.092368742097355 -0.03572451316863272 -1.50930356876001
1255 -0.5690809981933648 -2.0675259265985413 -2.800379391926299
1293 -2.3089953751218757 -4.5112816646813085 1.7551693587783752
139 -2.846207092476521 -3.1265697213454025 4.2218828436240114
142 -1.0511196583987126 -0.7622751037951967 1.3343582294715335
428 -4.974676413141814 1.722734258560957 -0.051146406429990986
427 1.390487735958363 -0.9641200185070515 0.5711590015636782
430 -1.6657743079051728 -0.5073765595166907 0.6448169567161337
465 -2.7566698934398857 2.538699451206811 2.00761964114289
753 1.8644113528356518 -2.045652893510903 -7.7894878802039615
716 -6.619377458513694 1.9952958562192684 -2.7903860256095014
715 4.936155809703499 1.0663125629069736 -1.008900857383795
718 0.6178458588618554 -0.9988975853082378 -5.659703866464774
1004 0.431645800059975 4.390820591885098 2.3977274175164087
1003 -1.058413339065149 2.763862285438273 2.441701298788829
1006 2.3666092914458 1.1406015243604997 0.4122469357796526
1041 -0.0038595058732735104 -0.18099206603610069 1.0440263845639208
1329 0.5092725865156007 1.1552347812242643 2.029739515980596
1292 1.7895679820900332 -1.5009357474529543 -0.9849607655134742
1291 0.8777932871787096 1.2872160576118763 -1.4381842134993463
1294 -2.7004001414658965 1.2662963802131724 -0.16342682612557705
72 1.991726270026253 -0.8707262394658056 0.0793768142787312
613 -1.4173011644276234 0.7398564183594805 2.578725898513432
324 -1.4052626878559682 0.0429338575716153 -0.8167094844023404
612 0.22151276488717453 -2.25665810254852 -5.610826980059771
900 -2.859810718203198 -0.005570654150800977 1.746912021430911
1188 -1.58999606386526 -1.2028532259507603 0.2244870851219458
104 -0.5749710546867534 3.346355416591448 -3.905994917236193
35 1.0070406478786902 0.061781930814277464 -2.0706272642999526
140 -0.8842862512312668 0.4878975390050459 3.8072076685168788
323 4.68354771097651 -0.18392677119424852 -1.56095264322181
611 1.060809861326424 -0.6544254992620239 -1.5069237414467298
899 -4.651010207668185 0.9811210606300367 2.509428283067512
1187 2.1416480643088582 -0.8266557496737853 -1.6356710531013445
432 -2.654005825049094 -1.730016964707092 2.6017112047550635
71 0.2633251839721048 1.9538617226244306 1.930428921965266
1226 -0.44825238878140783 -1.0922502969363828 2.667383633977015
360 3.934859784281572 1.2235191426831569 3.8787942711717096
359 2.2964880854257093 -3.0700127908789687 -1.7653814687720188
431 -0.1000860396078669 0.7912445479810638 -0.44856405354080503
143 -0.8986037771121959 1.8091435358679373 0.26471853790559624
648 0.3678320578968748 -2.3442177251578213 -1.686418022696134
647 -3.1789708951393196 0.7903762245258072 -3.124624773158564
720 -0.255854369652962 0.4765201087438947 -0.3427086364714257
936 -2.227778145357295 -1.8123842463117523 -2.2856588267443887
935 5.6322500731245215 -3.6534998490949167 -1.1588036340433732
74 3.5056733827349973 0.11186766044440331 0.15566074554837045
1007 -0.275554577715086 -0.3492115487114873 -2.816097507884088
1224 1.9541294597528769 -0.0508514967000104 -1.4071710268514412
1223 -1.6191248047184204 2.3116924883289873 0.25482353022378124
396 -1.2237156706838646 -0.5618780140289952 -1.3796776970384965
684 0.37713466219464464 0.544622281443677 -0.7511908680419699
1008 0.39982315512971156 1.208273851341793 1.1107766541791453
972 -5.560777433224533 -1.5918138144079474 -0.4439080156104714
971 3.4650984623610235 -0.6148850524528996 3.5603875599534613
1260 0.06011095682745668 2.6547112902834993 -5.043845285508649
1295 0.19302195178162834 0.7331689789462482 -2.863097091398589
107 3.613194788407116 1.1461752441847752 1.7759457463725563
719 1.8458948829872415 0.8415266892067947 0.21058729161556514
395 -2.1318832635910328 -3.1385482226337915 0.5685746061776713
683 -0.4594403766964172 4.579552666055762 0.0012248215772450144
1296 2.282045370041334 -1.0978217918068387 -3.2268404411442195
1259 3.9746932720565216 1.8193021714283593 0.5629299883225761
1261 2.2832284120681856 -1.1675307355394633 1.570332419400923
1190 2.9556976381198803 -2.844181987970894 -2.2295109275039446
938 0.9629416428463327 -0.09403064405240828 2.5533003318373404
361 3.201693584243574 -4.164898598476592 0.598993040050788
866 2.6071471838166977 0.5391431116144443 -2.6195360666852965
1297 -2.3219660815950016 -3.067475287719781 -1.273421916897621
1189 -0.9702099333607014 0.5392861085532623 -0.46545356814971317
650 -0.7306030290597993 -2.436261761530689 -0.3432225705505892
1262 -2.1243018783730765 1.475801082778844 2.427455764003501
974 1.5261988561628763 4.756184756084292 -2.9444383794304745
326 2.035241073797322 -0.5713444890878341 -0.6007189819289731
398 3.3844539781413503 -1.1223755417342482 -2.7727248149691834
1154 -1.4959448168484792 -2.6598261162756462 -4.751837233005398
397 0.10928475856072523 4.198728344138952 -2.1140436539548744
722 1.0396301475913718 -2.6817650297583495 -0.4786808508979508
257 -0.3229782545332734 1.7893144369482505 -2.517670467354001
436 4.462697254094479 -0.32773947022332284 0.02188655420074367
506 -1.00898440147817 -6.736935958468683 -0.6339147156565795
724 1.9003530656074628 -0.4259473630053694 -0.029844266922681446
1012 3.717479893323701 -1.4373116554700591 3.055578201735031
1300 2.7622832857545196 2.1168511724466295 3.3495799965449455
147 4.614726760634852 -0.6514631772512182 3.2414037064799186
435 0.834731534956257 -0.9875301889838742 2.9262222682460686
1010 2.2298979385829263 -1.8001551531691493 0.5289425690190623
723 -1.5760269182596374 -0.6383178195048029 -2.0223250966531485
1370 -0.9918994467822794 -0.2714370879238681 -0.4507397099087643
1011 0.5128803410739091 0.7116186955824235 -3.3669827907556433
1299 -2.57553498581728 1.667916378508898 0.9887072669666376
183 -2.870897732667826 2.6852737006573153 -0.2464731080539882
260 -0.4108446012731773 2.014132837644477 -2.6583639515780813
1082 2.508214103841779 4.423695883346678 0.44095870596660236
472 0.1362747391229164 1.627653191809587 -1.2868683688217006
471 -3.325921482641294 1.9479961312296756 3.0383657820951657
760 7.589365571367093 -5.353018191928876 -0.9647470435137919
759 -3.480319117583175 2.427609713513093 -2.087631590917407
1411 0.7710352117493988 -3.1319559736373366 4.451579108650463
1048 1.6037298202946608 -3.14644366976528 -0.9909164643420036
1047 -1.793295642967955 -6.089021790138132 -1.9058127010558354
1124 -0.8139680488533519 -5.511832560887344 0.1480208067793329
834 0.3593789557886285 0.3529604136781861 -3.6024235090316066
1336 -0.26724680089213876 -0.9578476608369404 2.9129561509280912
1335 1.3753318175913858 -2.6141503083655753 2.6760054731100604
1410 1.1650551325124336 -0.9388455478654658 -1.0328308416599916
1123 2.772390106061331 0.2024018939810766 -0.45061338544410173
508 -1.1098926747039741 -0.4144698257277459 2.7212989783523853
796 -2.515407211777702 0.56263257799395 -1.3959661166993405
1084 -1.1314837186414013 -1.9981359427217924 -2.6290900947986016
146 0.2887264203811822 1.6528075080280784 1.8207598896367299
1372 3.590764061920609 0.8130264744774491 -2.7751171233924907
547 0.23286550425168095 1.2269696923066127 0.9650049707501411
219 -1.7225700818608014 -1.855575208330589 -1.4792953028410951
507 -2.0076349031704286 -4.768505943342006 -0.8522228166833248
795 4.904604734472261 3.5721385948179276 -2.1448953397379658
1083 4.326147523453379 0.702868168873829 -0.06364011351003848
835 -3.224633387297463 1.4837449415373876 -1.2675322504338222
1371 -0.08282274523724197 -0.7484746332279926 0.8369338907045788
1409 -1.4136415759881555 0.2393173064564997 1.5929581299414075
255 2.3694483884908766 1.724570273316759 -0.5154938175262027
869 -0.935002155980135 -0.600358963657695 -1.4003118693661392
1412 -3.628284090924764 0.31967440622375326 0.5342638271934879
1122 2.377676719634371 0.547131522350317 4.294278864942554
544 4.240471425582515 3.288442490302668 3.7815306200040757
543 1.6656629536226777 -2.679138400697891 1.8240601313134628
548 2.0345125581869463 2.7221915915565362 4.370478188242451
832 -0.4597890887757475 -2.2240028460711523 3.151582416562432
831 -1.2144577661564722 -1.8295532579221825 3.089997678296668
581 -1.5179555146200678 1.4501781954277893 -0.5383424114743315
259 -2.254347138470877 0.305494454852732 3.1536875762208196
1120 0.49908565628558393 -3.3592274151922 0.2927927244852344
1119 1.9865308601137777 -4.965270080304961 3.465490448122149
434 -2.0196685525431994 0.2117714313601464 -0.0005805719824662359
1408 0.35850291222192576 3.6210371283000344 -1.5700831757322384
1407 0.76711035723703 3.0746655074767726 0.044964798602545576
836 3.1412860979048403 -3.1019136414213015 0.46889575064409605
150 1.112916662436016 -0.794974170555832 2.5412464199681337
440 -0.3214606621985433 -3.0977173049694207 3.4564249142824806
438 5.301951761100307 -2.48632902615796 -3.452473107874346
728 3.0663613515956305 1.2725194377297953 2.481044378887456
726 1.05899507110945 0.601957933643706 2.568024841603206
1016 -0.5570829291226297 -3.4733808483855926 -0.14941436538178346
1014 -0.24308168045931797 0.3406454319956688 -1.3784578261967324
1302 2.3672939812523457 -0.3929078828111521 -3.3916964804234397
1304 -2.2017892933401555 -3.266822914341557 3.446035074427816
546 -0.9063400240399562 -1.3711449132529463 0.941707136241584
151 1.611360843959096 -0.07009518413436615 1.7949350517046485
473 -1.7127037795183953 -0.41329892734346346 -1.2728967146746848
439 -4.2587271191532965 -1.6932486304361376 -0.28384165263413813
761 -1.6265031140767319 1.579747581524832 -2.3597086101756313
727 -1.4093400920920605 2.1263468910091428 -0.4876653101541746
1049 2.0109275077029056 -3.4888738145553693 0.6100986735075202
1015 -1.3921394747657492 -2.3538907745555733 2.0860479202629127
1303 0.913813183587139 2.126811546743573 1.4850621626381624
1337 -0.3396721145943641 0.7617759444794326 -0.5789465692724723
186 -0.3312723622861884 0.5761428962325029 3.2734761218659028
187 -1.7971306504099411 -1.703843005102645 -3.1418057334249503
1157 1.1847042582498728 -1.538284460313854 2.7955444318995086
258 2.1098812965930493 -2.7164050816304384 -2.3970982591416448
476 -1.1276309110744038 -0.5811750766956301 4.271562032495618
474 -1.1690112207333836 0.45322371511146753 0.49000265510367524
475 4.5554473635616395 -1.2260671885636958 -3.1411637426014485
509 1.9149712510338015 -0.7749369554481923 -3.3252163206948815
764 -0.5995682340414925 3.171219719760872 -0.25203349196706437
762 3.6003257030820683 -2.085528147552353 -2.1430531064371143
763 1.1558977931849754 1.9977114862065999 -6.207061857468578
797 2.575495333416808 -1.3646291062970966 -0.6406707368365592
1052 3.009990751683079 -0.3855465758480956 -2.4758391389692203
1050 -0.38747565715662413 0.39405792138865 4.124960645647123
1051 0.6178916579475604 1.9168550793142483 3.7709040532174156
1085 0.7512978846100659 0.41676902001762434 1.3650963127414446
1340 -3.8227403320498183 2.6200077401412187 2.5033622402384728
1338 3.414354280301375 -2.287674713787091 0.9998428746624174
1339 1.2061396674248999 0.7197968703443709 -1.1105447809096247
1373 2.308019310452827 -4.225610603161268 0.6158195032450605
293 -3.7087595502435327 0.3784962562744894 1.635528172778256
222 -0.7025457645722992 2.8346515294619734 2.7268143154258615
512 -2.406432258666972 1.2194543061212573 5.003995309727162
510 -3.2935100247037625 0.7911796255801968 -0.003958781849002668
800 -3.384451675205948 1.9588729832212024 0.0541076231980777
798 -2.3477834134614413 2.8464986487762713 0.8090905846971604
1088 0.1241892770768113 -0.20197492704878878 -3.3781646529877327
1086 -2.9274472628199186 0.7551399349512623 -2.570540204476747
1376 -0.07911070507305668 1.2063708568501863 1.8374454451183275
1374 2.9656450360388233 0.7763126306850915 3.163861982139603
223 1.803965115934347 1.259161126423643 -0.29205022648491147
184 -1.4771671260110022 4.005687956811146 -1.4589531427753153
545 1.5783312986110078 0.7803143960769309 0.15740912622488046
511 0.5979297767111452 0.8535884094927976 -0.32923043090942156
833 -1.4725205127267134 4.071468061496195 -0.9021388847735191
799 3.316337155203311 1.6585911732352503 -2.6558098987722722
1087 -0.3193983187392194 -1.6577001398247047 -3.4589541038281446
1121 1.0230765580313954 -1.3240834220660218 0.0035637906435357536
1375 -2.350316422425585 -0.16039222092233188 0.09760926765272512
1046 2.097424073243313 1.6032139891026127 -1.0767148774923831
1081 -0.4435932073001414 -1.2325910058747584 2.377139609338572
793 3.2302893107542086 2.2666121695676344 2.8927247825546303
1405 4.0330609443587795 -3.2601664650886772 1.9683114323050868
1298 -2.935226427474557 1.5478354727157875 2.758392399493417
1118 -5.168860095002239 -1.9750288866115355 0.04066818482793847
577 -0.6806267312391401 2.7940402559450863 2.859774282784058
1153 5.445221020241263 0.69675135389779 3.2766424803897203
757 -1.6043072521454809 -1.3940230518779586 1.1681221969629563
154 -0.2515367563941232 1.8722694121495156 2.861455097347394
1420 0.9585441840459358 2.2704125141664044 2.0274580734152505
444 1.8463951346081386 -2.226303453719772 -2.7705274031321707
442 1.6881524133605108 4.3637452918650945 -3.3102100401057277
732 1.9227842923204317 -1.6517255758640714 0.8191100599059322
730 2.8101924085265035 4.318716054321717 -0.6427538661827785
1020 -0.09354464678967708 -3.157163286822503 -1.1748369525557643
1018 -1.0302679793299483 4.599456809287545 -0.3127882147710261
1306 -2.967720239892357 -0.23955863698338722 -1.3384413018247305
1308 0.9289364137641721 2.8408047019003044 -0.5325624375258051
155 1.3286467458301399 1.5166831956136986 -1.7525282507452025
1419 1.8999848330829472 1.5460310907315415 -4.976823175329133
477 0.7064190746582416 -2.368685272978974 -0.6856865398535721
443 2.48813305408046 1.8521610939750772 2.176759898569429
765 3.9269430444772317 1.268071639298289 2.9905380495102207
731 0.7844403133977189 5.337406190244504 -2.3542192859082607
1053 -2.8184433528062125 1.726740054342497 3.652413910759889
1019 -1.393098458980417 -0.45556138351882297 0.26510740667062793
1307 -0.40332097459185634 4.419092576149378 -0.665900067892861
1341 0.9252051662152767 -0.22675596914003487 4.261917740532899
190 2.154980999456673 2.883053766385954 1.756905423065562
191 2.2806634191156285 2.0268993118941374 -2.9381792906667643
513 0.6113552788468332 -1.989050595283857 -1.0357053432309133
480 0.14582335105268873 -0.9280160976666064 1.31123009255089
478 0.7317500326656928 -1.200644481117135 -2.323020903935281
479 3.249426120675964 0.3881258934317455 0.08287356108415588
768 0.8299280984445456 0.9270790717091134 -2.1264322894039647
766 2.095506085640725 -0.2358513501546055 -4.582025428418119
767 -0.9909697095921297 0.08290608284630445 2.826526126782413
801 -2.7811388281707647 -5.223201417925916 -2.9931852833744417
1056 -4.950603533435351 3.067960910889035 1.4343154049676412
1054 -1.9724482711262028 -0.7844604681103654 -1.906823373000777
1055 -4.852559509234059 -2.866932228010764 1.8902266287552547
1089 2.798915852019611 -2.9968989953050547 -2.1484397339781096
1344 1.5435951430273334 1.766611333879337 1.692232887652068
1342 -1.3800284373152356 -3.293323775790225 -0.6449589420613259
1343 1.4783401667888825 0.9188747936112107 -3.019358284483795
1377 -1.9558311447715135 2.0654209504629675 2.7702526678594603
1165 1.3498455435204917 4.611658580955056 2.055110005986888
226 -2.055396763292728 -2.4345319636406715 3.363526935784048
516 5.583560755375031 -4.276556534554308 -0.0024314034547309876
514 -2.462526181771908 3.9249850909405386 3.7060605785917002
804 0.9244640821982646 -1.1942998402659095 2.6563483491761626
802 0.8343691042187152 -3.0482821373339277 -0.3165573152025727
1092 -1.4447470835022558 -2.4338211356338646 -0.5105634857906055
1090 1.893431491891757 0.595281217137572 -0.3741293984154584
1378 0.3456676061268807 -0.8563528765285026 2.460511713289236
1380 1.354243273760125 2.747936858333955 2.1106511736671907
227 -3.5592155184693874 0.8308315536886147 -1.6297771391860154
9 -1.2999811752960282 0.6153261669545717 4.652470756762015
549 3.244310600065469 1.4145852948539914 1.00516415542734
515 -3.7055982436206802 0.9892759723815121 3.0740766920977256
837 -4.405388398968838 0.1847685208737637 0.06864516963636497
803 -1.6512678239698755 0.9473387671304886 0.13911948265420956
1091 -2.6583060783148733 -2.4752010331211256 3.1701380293675654
1125 -3.424966512787949 -1.7937017345557735 -1.4737026061292666
1379 0.16221533279159317 4.37181231665101 3.0228417695981937
1413 1.8170044421327658 1.2562822183109066 -1.0787463627109237
262 0.5960895387997973 3.769088986578893 1.69190587269088
263 0.7310068021648595 -1.0697141406547652 -5.980610366910957
552 -1.314517265403618 -0.6782081403445542 -3.302103392579188
297 -5.161285771737757 -1.551973561744837 -1.8936086784032407
550 0.12490285473562993 -0.06711708935593416 -0.9314653918562645
551 1.9114167504089907 0.21394868611786197 0.657686420803342
840 -2.2118841695535534 1.5309806106654444 3.683030034400152
838 2.9986267965250986 1.5504101398132828 0.3534556978853853
839 0.17821911656700487 -3.1696795112948575 2.400725585661149
585 -1.941074609658603 -2.335541447955983 5.472895512203614
1128 4.411379953778133 -1.8894208235585173 5.723492247570512
1127 2.5040718809889655 -0.480876539789 1.1128070085567914
1126 0.5937012921440041 3.0577485361040697 5.845506717789616
873 -0.15348986688916566 3.0842557455421673 -3.073126498395881
1416 0.15439837985039148 0.985664046747163 0.318557745944714
1414 -1.7397681587098606 -0.8548814814416807 -1.6304370008964189
1415 -2.5893743665007114 1.1761652601054458 1.3900837395247088
1161 5.752948912570357 8.956013914964297 1.190833774904766
158 1.0633992799097456 1.7689761689011585 -1.0008527344610525
448 0.30666478702566413 1.586344388073883 -1.8335693872765966
446 1.1372233198870216 -0.43763702078104566 -1.5394326385148973
736 1.1491080614530467 -3.3401326088498915 -2.027570099150707
734 -2.68472892774176 3.1589103988842835 0.9243212842486652
1024 0.10762026983703715 -0.8661765137922675 1.4802927191927648
1022 -4.213562158292501 -0.9871403583583506 -1.5946341305644327
1310 3.296934474236323 -3.6001792902345646 -1.8363875583474616
1312 0.44062660268204784 -3.6347925951694195 6.8034376753268715
159 -2.7538984595870097 1.5199926154108718 0.3857247363644181
481 1.396129000314028 1.8888860332032806 -1.6024597686436792
447 3.196151824119293 -1.2872436828075713 -2.9054302641128027
769 2.8340020086535103 0.4946945895729521 0.7090207474550108
735 -4.49924210015952 6.487974004355074 -1.751379078489741
1057 1.0259594090558504 -3.429278091919925 -1.3227031697294513
1023 3.830665651822634 0.44605214504331075 2.703848383880812
1311 -5.9037642739568295 -0.5955526605380338 1.8046836640123374
1345 -2.8576284140757116 1.085688835895632 1.9263552493729246
194 -5.1699572222230605 -3.626560544669913 0.1883810353147448
195 2.460448944306479 -0.5455712365065817 -1.5092616580813716
229 1.6980844428424717 0.4608720367007603 1.8614462915683319
484 -1.6391674074549896 0.8803683382326601 -1.3883030385862383
517 0.9421136434636458 -0.5321744772138756 -1.8616601573766116
482 -4.455341950337752 -1.4893503065874372 3.214672932363882
483 -1.1519893533633654 5.657456686457551 -0.16729573205080095
772 0.047156917453117855 0.663497018229193 2.1514333052651295
770 1.1022296648065073 0.15549405418405432 1.9981437673241484
771 5.36301304744374 -2.721626150695649 -3.0259449975258934
805 -0.20791024367130886 -1.9081341979191655 -2.8747712934081853
1060 -0.0906817890837397 -2.373902238919437 0.24788031892117324
1059 6.312175269222147 1.1801258507802497 -0.7152445561411285
1058 -0.020499446138117307 -0.24847757224793285 -4.467987777939318
1093 6.618211495409438 0.8037437799656916 4.127890306461485
1348 -0.3739432168382218 -1.7752386700105462 -2.2393861557709247
1346 3.4984129737114413 2.893806669383876 1.4434603398540307
1347 4.475307362059044 1.1374116337298756 -1.172250627448383
1381 -0.21681648750611435 2.6699168371291937 1.279792578754161
230 -3.601484005654319 -0.44110966759198267 -4.587768219460148
520 0.7154666793039474 -1.4959036354272057 -1.0684893354331584
518 1.8760213505051506 -0.9460366063157123 -1.614839901285592
808 -3.4815260731878377 3.4972765340040457 -5.53458129976118
806 2.987307237103848 2.9745735113705116 -2.0954761224033893
1096 -5.9004884115450995 -1.663504598987604 0.5695783841697291
1094 4.276904184746902 -1.560030626178825 2.4039514862490017
1382 -1.8684405105667008 0.22693406656417356 -0.43499860356504505
1384 -3.2847281779915622 -3.2865696154507757 -0.07919409073520264
231 1.7900202882570944 -2.3117171498619107 -3.3338161215960906
553 2.0862630321027105 -0.09526055110240152 -2.498809257317723
519 -0.59017647626032 -0.25267585708060364 0.3706527364921388
841 0.7657292773818974 2.1028121956280446 -5.229989415444925
807 -0.27714680991040946 -0.5667138927853295 -0.5030766858483108
1095 2.848828752487658 1.5355160526936953 1.6437834567126435
1129 -5.562143069612866 1.4133777637160851 2.4497061810631653
1383 1.4804771682023474 -0.1159830272635004 -0.40390904699881713
1417 -0.39402375586248545 0.45348495040069714 0.10075689410897874
1418 -0.32250838984450125 3.587436630660492 -0.28710086940374685
266 -1.4726099986449805 0.05131570154995151 1.323926629404643
267 -0.36274913034713263 -0.6267483240345247 -2.060758292830378
301 1.1146716253616906 -2.862677975181498 -0.8021231118522889
554 -0.8590328457594683 0.15263670875676633 0.47816725561900314
555 -4.58709581319266 0.8167502043159819 -0.33040562942546586
556 4.209235796696082 1.7667171621792803 2.0087111967470497
844 0.14100677748264406 -1.1033688319379689 2.8820903732417347
843 -0.4349092345061414 -2.179992929580794 1.0315141002707922
842 -0.7846669769702744 1.843487064041316 -0.44190663489678783
589 2.3628059473097176 -1.5740782619742812 2.0301236638952593
1131 4.944381958261077 -3.249910198812535 0.5349829965455581
1132 2.642063223249824 0.9625646864426055 -2.9703035506924587
877 1.3422095603104995 1.5724489492007938 4.033249565385427
1130 -1.4039124394391849 -0.5691916893813391 0.8122505847135435
268 2.521480680129217 3.2430613994340742 -1.1454954592412647
261 4.308096714266214 -2.337159674501596 1.585651167515404
162 3.6576430665307402 1.2964494945043241 0.628305704466811
450 -0.29971777581317144 -2.5160613855671006 0.23923651802796808
738 -5.9985969153362175 4.041305247624182 0.06893585652659605
740 -1.3801981281458917 -3.5914076166615025 3.8249553658357134
1026 -1.0505228752650375 -3.7210359816958265 -1.0475924474668765
1028 -1.5045041078286547 -0.1946804038380892 -1.125602722224032
1314 1.2020494120307297 1.4381970707451708 0.9862444946452423
1316 1.1765879860988242 -0.4095158761428923 -2.762529340570293
1424 0.6414541738070852 -1.0754059864914167 2.754670963350301
485 2.538145991122197 1.9999088162697136 5.313373759309492
451 -0.4171821120434711 2.598101127898473 1.2931439947085515
773 -1.3014517001639665 4.812641902326584 1.5422439693830041
739 4.159287563829825 0.8841960905363492 0.6911523234622478
1061 -0.9860755527396088 6.816731317707935 0.9142887113409707
1349 1.0420719825117077 -0.8979195185796339 1.8112918087821928
1315 -2.943181900262158 -3.221202896248986 4.60906407981018
198 -1.5799655537717132 -1.1691528668098226 -3.4376940374118203
199 -1.0021760271866773 -3.1256600671218524 1.1293277097703824
521 2.0072435257961683 -3.5651368959294873 1.911753846767604
486 1.9568989097105012 0.2213179133793434 -6.025057050285877
774 2.163630135095426 2.2217422952715435 -3.247309129414523
809 -1.9068951276920356 0.8028061441267739 3.5227626311258575
776 -2.8146258463731972 -0.3946610979210972 3.25042517761805
1062 1.3842335620548265 4.322045458200792 -2.191579819410977
1097 -2.1766255409050483 -1.4716587742124219 0.04992362261674859
1064 3.09682562501568 2.370462563680432 -2.688559951387372
1350 0.6815095667585458 3.0361992573364436 5.068142194515578
1385 3.907691741974777 -2.2763879483088254 -0.06750545504735828
1351 -1.6794477730830843 1.2631286863535816 1.9139324010387553
1352 5.404940425627246 0.06571392558163497 -3.215234779249855
234 0.27829853018391404 -1.5761805670802924 0.012818423979667471
522 0.146770552030449 0.6312170278795346 0.7615801375546455
810 -0.21017654298893199 -2.2467362719842328 -1.3826656587343995
1098 -0.2986970352319952 -1.198851846701883 -2.6261377909758004
1386 2.046789783950284 1.7672966849050968 4.40392714956322
272 -2.9600339432781744 3.5346980732294426 -1.5045705247334986
557 -2.291961356495728 1.000413176119072 3.400078352089616
523 -0.33444223101899384 -1.6716719705683856 5.090972014756963
845 2.3285854090583546 4.783740097333113 0.41195180553838684
811 -0.8712071173893172 -0.799305124718596 -3.123371046035238
1133 0.11642773917605154 4.865713412668746 3.849843315259554
1421 -2.9257478542767927 -1.808175159920305 0.03424791642267928
270 -5.028175109698761 0.4912929274947635 1.889822213894037
558 -2.7170125109358674 2.631225849888118 4.571151927108643
305 -3.07378892017015 -0.8376896669853126 -0.6095091827910291
593 1.7937533269407169 1.7870579867819105 2.764048153870426
846 0.8806632436503191 0.04740631959730368 -1.0097625558598111
848 1.5375743753239484 1.799232971318376 -2.861680720606502
881 1.197466441296272 3.9192130351243177 2.089218634729997
1134 4.749857169816367 1.1228995777955846 -1.236374206103562
1135 0.7477169918433354 -4.893299733950245 4.8956146518396615
1136 -0.6262732703143771 0.5090526663904045 1.0579274663416054
1169 -2.4797417381673252 0.3444954417710397 -3.6961269547775473
1422 3.4303730627153763 -0.2366361281245822 -1.6449311028530005
1423 -0.24128985289301125 -1.7991122550161216 -2.025542502543114
166 2.396764430333534 -0.32279480488689755 2.0616152774050467
452 -1.6322909736137923 0.30441076758609625 -0.19191082975698587
454 -2.582123827992248 2.1658745517301665 0.16393760017759645
742 0.5752914242033136 0.19796087902378323 0.5591682835298413
1030 1.3489609407757033 -0.3606702271271017 -3.2687876195682746
1318 1.4573503447008762 0.5179503168447697 -3.647724354578664
163 -0.45449106390538807 1.4827819748763196 1.5208981077627575
489 -3.2339832929722556 -2.5286469724281013 -0.34808519562088325
777 -5.109332497861259 -0.7704519393997592 -4.491419965999571
1027 3.5700018548431927 -1.691172133978341 -2.084875610888742
1065 0.04188107897052624 -0.8632023234393734 -2.980826458705833
1353 -3.356346940350116 2.147407187336894 -0.2663997071870391
202 0.8257710375619366 2.6226102246971914 0.7735487157930913
1173 1.711373715080876 0.7148431440508006 0.7183703401543791
1426 0.46237024709134744 0.9978942741095367 -0.9369232429825829
488 2.4856929442087132 1.5895248608200587 0.32623837275285467
487 -2.1234035186783187 -4.154323117989228 -1.8743904907029285
525 6.712111657718101 2.3149615988659074 1.7892404490762281
490 1.4500741024181223 1.2168213493586333 -0.25174910797467287
775 1.8298336746691584 2.7412625500276264 2.189647901947652
778 -1.735267646497036 0.3143401598624216 -5.265337291513498
813 -1.6574465947184258 0.7734908283601364 0.024773830445375476
1063 -1.613371070974916 3.0325567497275876 -1.1116881458621368
1066 -1.7602940520748964 -4.572162103687135 1.9374983554237735
1101 1.5257853209728132 1.5711542286275948 -1.124001068641159
1354 -1.0863321253968734 0.40023053168912776 -7.755358966907348
1389 1.0532755105277731 -1.0986323723603155 -0.7551207501310192
238 -1.2530547185741867 -0.3971281401055767 -3.642952714338288
524 -0.18413323472205712 0.9186556130021674 -3.897094521596294
526 2.39850117736285 3.7888085835428025 -2.447274145697071
812 -0.03316159876317884 4.2219119073293365 -0.23184152085210358
814 1.4286651939587096 -0.05233684337170241 1.2711436650709014
1100 -0.9693762786119025 -0.5145216801433244 5.763396612216249
1102 -0.9814208109819895 -0.9185260619841472 -0.21251801887321894
1388 2.6648925001224515 2.3151728074148767 -4.334058561912854
1390 -1.5230706457834193 2.5178820478303647 -2.4054206400090195
235 2.23870272069316 0.8237209363982034 -0.6844286174777644
561 -0.816637699856183 -1.5742371736440322 -0.25749734240460803
849 0.2747600775456923 0.9235726237111034 2.7831770538659337
1099 -0.10969291056451014 1.295913813087796 2.1170095585210134
1137 0.39027396726610886 -3.378783252934471 1.2893125362881896
1387 1.6911464137705277 -1.735800598612883 -3.180962140121697
1425 -1.4496386651313613 -3.2060253658938054 -0.21715075960811575
271 1.887818830950773 0.10987638166802659 3.3426693362670266
274 -1.2624493010174143 1.4272821909052478 -1.6301301724520656
560 -1.3152795257153864 1.8694753177937589 0.1015284198023485
559 2.750257341147665 -0.7596149013830586 -0.6722742709980672
309 1.707667293408329 5.5747312624168535 2.470878165162716
562 -1.5751215473383866 -0.43745156464147655 6.302881399699959
850 -3.307371199078502 -0.6849449686342409 -3.106567061833545
847 2.4426303678825483 1.5858169641710425 -1.693778793648158
597 -2.0081361872879913 0.07350541806456877 -0.7353656703901057
1138 -0.628156235983856 4.663739951912715 3.3121646502998874
885 2.790744393055446 -0.5421986339183142 2.5653518598287093
17 -1.7630323968105834 -3.651693492989093 -0.8878043290501247
237 -1.6193516339700613 -2.021346839472241 1.3335554453374823
170 -2.787165737957432 2.691236277707555 2.2374167201697137
456 -2.047137702482548 -0.492444157179084 0.34285293306888054
458 -0.3530867834867489 -1.640991758567032 0.9720923171060751
744 2.024222169662099 2.208807112275962 6.754754444260921
746 3.519403878217014 1.0390393635775563 -2.9258966048496555
1032 2.8885748236102904 0.1729621835513192 -2.185364490211381
1034 -0.06156530658367239 1.036852800832216 0.5235938906060006
1320 -1.6530183735171078 5.190550218089394 -0.9110733440026817
1322 3.7626323499156573 0.7418043817525153 -7.670637907718135
167 -2.426350340306182 1.0668167471859191 1.5471783600880162
493 3.070167117765791 -3.521841420633191 -1.075014695458258
455 1.9914573442404382 -3.452584143116011 1.8287378558225418
781 0.9098484517080595 -0.3146160162114204 0.5612588364449179
743 -4.092941214214996 6.29809692222655 0.43437896457017605
1069 -1.1994701101743277 -1.5162420257326616 0.20112283717396764
1031 -1.9439466520842976 -2.267844490926982 1.962226837131614
1319 2.565831901863989 0.5108453919055024 -2.2657306271716857
1357 3.351384110230578 -1.521307048319024 -0.2651294455633443
206 4.310821058119915 0.9295633988252264 -0.21791897316783074
203 -2.6858451699550843 1.8330818672142923 -4.816907632321062
492 1.1800301368450583 2.841461006051621 3.9649852182098835
529 -3.5108102401501733 -3.148651797014089 -2.261020166466405
494 -3.2758918423468795 2.248976629114968 -2.30308226303865
491 3.1525178731184083 0.7298365195562811 -1.0468410789127702
780 -2.43266047266965 4.779774417370566 -0.7273116660510746
782 0.7547062241363787 -1.7316050200365296 2.315296751772722
779 -2.503719265578172 1.033782011533008 -1.6947455276325005
817 -3.6113291261430747 -3.7798549817659235 -0.3592154309076049
1068 -3.2210812401984303 0.8263551263089798 -1.0969240086701824
1067 -0.3339778532144844 -6.653783991033797 2.03835588423679
1070 5.380808275207723 -0.48285641146422725 1.0724733583476587
1105 1.7588130789355083 -0.10561511972154863 3.6042246040224635
1356 -4.697880756661297 2.976650467897314 0.4320020759035451
1358 -1.9780004700603253 3.3147619193346167 -1.5220981322527054
1355 -2.3234733004422234 1.444263369046048 -0.20471829143126297
1393 4.793484326693977 1.3343225077557714 2.0357143907252007
242 -2.6172632668548643 -0.6148406544778493 3.2798034802214437
528 1.634794420403175 -1.013128551719217 -2.747862734248659
530 -5.225758061060722 -1.3455681815764604 -0.2626422499598229
816 -0.9250809736940167 -2.176878549809292 0.6786715464520949
818 -0.044592606943763706 -2.448862099051971 -1.342031556461205
1104 2.1931309617997266 -1.4881826370437379 2.150417335912859
1106 -0.5443245919003545 3.1142718331620003 1.6752989095531667
1392 0.9873094893000365 -1.8383626013838872 -0.0185858702980855
1394 5.446436953445068 1.9135994391032267 -1.4967263138654336
1434 -1.4445463235978622 -2.8396508058560963 -1.4118735713621409
239 5.165517101116441 2.3194649484770697 0.5562837358771843
565 -3.520096435781478 -0.6519583463065113 -2.092530886142143
527 1.5413815751520215 -1.495252618356366 -0.8665815717669382
853 -2.8164123529003002 2.4214755179615737 -0.014647995482817335
815 0.6493611857380435 2.2376564432734054 2.124523252454679
1141 -2.8219792492998015 -0.045325921453530024 -3.00513194736338
1103 1.2302906214912748 -0.7227696837150507 -4.787821063823334
1391 1.3766795779409065 -3.8596082991817946 -1.2378718319455548
1429 -0.3075457562271328 -1.7080235506648642 1.8370704154850674
278 -1.3394320198100516 -2.6015250759719866 4.216864985219235
275 0.20817676909530267 -1.8766670154586733 0.6862718328668107
564 -2.1054844804599893 -4.210868598149403 -3.4242201911245482
313 -0.9862226451831054 4.047709622255471 -1.5726369590151479
563 1.4666722535709202 -0.7549500604414485 -0.3104095231026175
566 4.184721377267339 3.548348251482934 0.752486283859973
852 -3.9310659760678828 0.5024929913408538 1.0283499673704122
851 -1.4357309792948967 3.323089906741259 3.1343831457487954
854 2.115084251752337 1.7214159999686338 -0.9321414013391287
601 -0.45372910904863206 -1.4632056737349703 5.942629704950103
1140 -2.2304117408885977 -1.8510851614725827 3.1684307847284505
1139 -1.3974279827061673 3.2693820826574367 -3.5809827707520134
1142 0.8769861733339114 -1.9914432575496224 -1.7897054061010498
889 0.037370621501682626 0.20323930889230069 0.4310052879238851
1177 1.94966752422215 -1.5231676098300049 0.5843222729250087
1428 2.7324086387031783 -2.5947741428195057 4.392675885086031
1430 0.32796385227807373 1.285822924446014 -1.8404657307318368
1427 1.2419355164616188 2.0783970042037065 0.814762935076104
174 0.008653923491801318 0.5272504019490298 0.28135133844916205
1431 0.9562716021553435 2.048093353737175 -0.2864821717507352
460 -1.1748950587377112 -0.08178041939981522 1.8652553862200667
462 0.2364727047340998 1.6640525992711672 4.174953086194018
748 -1.0121018412412053 0.171452825955238 1.274988528709857
750 1.224640689219736 1.8809885540083444 -4.353520029260627
1036 -0.5411159757330185 0.8796187043871441 0.5673184151813234
1038 1.8569227969981899 -3.1542185728752083 6.681788249218675
1324 3.2563983858617815 0.058634228197309714 -0.14990421095314302
1326 -2.145191859604757 -3.5344661963987285 1.0196956426036585
171 0.8274602744437681 1.1013975118858899 3.815085871975314
497 0.7718238884462404 2.605926374923568 0.8387992199611176
459 -1.429479274650991 4.135346132094204 0.5745531417590478
785 -2.256469882678227 -0.5998384953563053 -0.3969002993657045
747 1.7302589717464236 4.658580598011979 -0.6606164274792641
1073 0.8016712641896845 -3.0574754726031577 3.5353052773523905
1035 -0.30216924263010175 -3.066992229107573 1.2342634633344802
1323 -1.1197513769783982 3.8604338579604343 -3.128244955750757
1361 0.31241312743991473 2.635245424224424 -0.6414283486724528
1432 0.36071433760492905 -1.6353339650476624 -2.0986861298826787
210 -0.5721875315092605 -0.6919138658624666 1.1557512605682425
207 -1.1621589813785058 -3.352908956074418 4.865000044949215
533 1.9167545308313558 -2.5110346027017694 -1.7997269977708048
245 1.4404749439267943 2.3851533280715005 -2.930730932049265
496 0.1827040616855209 0.47326815083910256 -1.9288485215826208
498 2.522593086008325 -2.0079800412752355 3.017136755320685
495 -0.4026252341698812 -5.61445137575852 3.391999314986482
784 -1.3815934265873 2.558625034958343 -0.2598124254674949
786 -0.7983764861670762 2.266484755566601 -2.4973529218450086
783 2.85782063493023 0.11559744263879715 -1.202784752769812
821 3.731441674082686 0.14836827326392862 1.5957515236197026
1072 0.5392456538042836 1.0679028808961155 -2.147225803134093
1071 -1.8305886715998583 9.170382262630076 -0.5508918837938427
1074 1.3842332860508455 1.0373067242730798 -2.338174319944464
1109 -0.45889260556202727 3.827122434470606 -2.084345047043201
1360 0.2101822124148188 2.6019376602552877 2.1902563303628537
1362 -2.136954792838098 -1.849376283769148 -0.8661615171808879
1359 -1.196591374061327 5.486883138736639 2.3872714865479794
1397 5.167823090174236 -2.0386293981168118 5.383929705548513
246 2.1302534672785463 -2.419173393123571 -0.8913048634714517
532 1.4648724885060271 1.406435571389999 -2.52867695111629
534 -0.20212950118365008 0.3390039891446806 3.5619541577544735
820 -0.48082550453085504 0.6428699267922328 -1.030019131869276
822 -2.937486512997505 0.8436479222672957 -1.1176442440585475
1108 2.665361018071802 -0.7772951875848604 4.352073594037618
1110 -2.735965842797205 2.4157774123062805 4.3620096076004895
1396 -0.5264208320984177 -0.6225548133712732 -0.24109123217747888
1398 0.19143654602096077 -0.2133018256903217 2.0906398331439955
243 -2.6800687871837816 -0.35300967323511806 1.0009323777994923
569 -1.8869731970688715 4.987209609557887 -0.05427753349178341
531 2.208396121422956 2.5378901998501213 0.36386433180602284
857 -1.9077617596153877 -0.03648378234242687 -1.2089648503132724
819 -0.5752880959101234 1.1702909450725107 2.064992381712731
1145 -0.5245184346540064 -1.3027891065410697 -0.8051898721163175
1107 0.09632441097153255 -4.626664086495178 0.6883724747121285
1395 1.1202360470849975 -0.9679056613594813 -2.7815712498441685
1433 1.851398778329596 4.550605322867629 1.6810547708199686
279 -0.2552263622822257 0.3627606325885147 -2.785572754825654
282 -2.335450177369246 1.2831402715479734 -0.5966005592812379
567 -1.4730434294635537 1.1295453179062984 -2.5696666367441043
570 -4.460936917104204 2.009480500326737 1.8095094557428142
568 0.6909304394535422 6.690559098165467 0.6964353247828509
317 -5.399029591152966 -4.004862997357534 0.3260315075494694
605 -0.6823411755583184 0.5704387923383244 6.685839173193651
856 -2.6569321967415656 5.1262597419663205 -2.192248923829205
855 2.13386353340742 -5.399773002041738 2.9724852821807577
858 1.005770895184169 0.9056753163867316 2.9234257431539
1146 -1.276158610691267 -1.9904114119779521 -0.6948846855083011
893 -6.172649118500884 3.1072221432488276 -2.478252381422164
1144 -4.246818452002774 -4.5830828468545475 -3.688544967488353
1143 3.9588316954591845 -3.8526731726692387 -2.3211229837901675
1181 -5.391710960527193 -2.079770686221146 -3.6636186891227895
277 2.8433186270498143 -1.5169205965825305 -2.0339510017413587
29 1.9739382749300736 2.110238325357154 -2.907818418840817
209 3.9501828449704077 0.5191912124297785 -0.6447355810196743
276 2.790809492969138 -0.6020526760179737 -2.1223397534481574
168 0.47048518923998217 1.0127789262074844 -0.11139268098977702
178 4.5143855122488885 -1.5711250381948907 -1.3978469684836734
1439 1.5669352085866766 -1.7995967586950776 1.4460875156163737
464 2.06760241749096 -1.4973388113311237 0.5515545640697473
466 -1.2401091442820928 -1.649812156925634 0.16195164272657986
752 3.4361247202752248 -3.9734798034052443 -0.566288614250822
754 0.9839172923409726 0.3459521074884418 -3.045522768934378
1040 -0.3811220868092084 -3.078845368304775 -2.5893494498222336
1042 1.7842102582586097 -0.4016867482743489 -2.776045594197976
1328 1.2991331333146594 -2.6350232500137944 -3.1878760607794887
1330 -3.6591107130231433 1.3762104352584688 -0.7613261162406223
175 5.509081628819164 -2.7540331534032076 0.8441421751595768
180 -0.3814018012626507 -3.2627639007847153 -5.2290984169169725
501 -0.9349965776464172 1.1348230450739438 -2.5067402788862774
463 -1.8485739504905574 -0.522392516134225 0.9380483552427421
789 3.0461549515618036 -4.603997633432934 -3.4812271311419036
751 0.8177057469465343 -4.136877708327408 -2.599835061196503
1077 0.956183701097509 -4.212834728469662 4.243525045531813
1039 -0.6075473223786159 1.64585664158864 -1.0091647981077856
1327 1.3463927957139945 -2.736872551876499 -1.672067157370301
1365 0.43976886471701077 0.7327005842650751 0.8531882127573187
214 -7.845393863052887 2.056605654117854 -0.44963581962093263
211 2.8292342092595786 0.48480705181758343 -4.068153363793612
181 2.2171336495994995 1.367254032805122 0.9226297475909779
500 1.1931009399662456 1.2121025155886214 -1.4798232614688243
502 3.7208675598825596 1.874348369058968 1.11590688989781
499 -1.5433379281923865 -0.7155027071194574 -5.276465123699043
537 -0.4233522616788363 -0.9700236879374146 3.2440338916029114
788 -0.33326543621683075 -0.9864985063508159 -2.5791970721848596
790 -0.4201179530573635 2.3480105373640536 -4.173707210466988
787 0.011812650081741172 0.7605586307956042 0.4377543969284829
825 0.40178209786884744 -1.4725216484759414 -0.7207091992318067
1076 -0.8973922416606531 0.0998715336368106 2.403053817355953
1078 1.125553014889973 -0.8414207917577265 1.2870194962660684
1075 3.2335762883683175 1.6448258982762929 2.178124034531498
1113 -2.372019093323762 -0.5027845371252682 1.894368554738813
1364 6.289173201103884 0.7186209737996289 0.7635662939597475
1366 0.8737991972286472 -0.8609827871356383 -1.3306464942030958
1363 3.1805797884754528 -2.4583422541617237 3.4017082733410215
1401 5.935873581928039 0.18031189018085242 -0.5347046687501965
250 -2.605085462401351 -0.1307097117714842 2.0725426921748844
536 1.2696548732748596 -0.5379238193872492 2.425026744104044
538 -3.0365544273469594 -4.107436527025104 4.603270649752474
824 -1.5579225937917598 -1.7524749667713304 -2.041930537306246
826 -3.5758180806849675 0.5542233063934285 4.0044647411514145
1112 -0.16108688275659658 -1.0581918239224524 -0.34690380811110605
1114 1.8839395699160288 -5.9544332087986644 0.03803592261038492
1400 1.582972211553118 3.671948129750059 -1.4002307484157173
1402 -0.2002989417503491 0.22211420566492845 1.639969487378357
247 1.1803216719574536 0.05114002819134944 -3.619250967744991
573 3.413877917586771 -3.542400119292815 0.874483835606568
535 -3.0527661774407813 0.502187909137518 2.241763794818149
861 -1.5433309863068947 -0.7937822871522056 -2.12998193103625
823 -2.1604100170912695 -1.4447520816032182 -1.3254646106004384
1111 -0.25171531211067 -0.4236440906978583 -7.363577041182033
1149 -4.215189652182489 -0.44087420501207975 1.0682663986032936
1399 2.559763994735778 -4.876615425825388 2.5501462318072945
1437 2.047185541974485 -1.0293577152882778 1.5505209333951104
286 -1.400324462782379 -0.5953862735611519 0.40056632162711175
283 4.809231451632725 6.353500638219651 1.4092138744264164
216 0.8879824233494561 1.77156758677193 0.7382270103256006
572 2.2811622800054887 -2.087022999493723 5.247561268019814
571 -1.5641107145932254 2.0891831867659527 -0.574022008120938
574 0.008218213135137991 -1.5814428457781244 1.0286673612032724
321 -1.9120587290238142 2.348524508656533 -1.684310343322791
860 -0.0352548273816854 -2.133498406027558 -2.521979421554141
859 -1.9137619570332685 -4.396217180091918 1.4952416468561558
862 1.711282300018638 -3.6884504529222455 0.5592951380132883
609 -4.010517329136114 2.91206722795438 -0.9937772388603198
1148 -6.50861224888168 2.194254307824977 1.0626081282252742
1150 1.6460633321094316 3.352390303390916 4.381412928036524
1147 -1.4056268947334845 -1.5673723993513538 -0.32290394916070037
897 -0.6747067213983327 1.2930550263292224 -0.5187324459413438
1185 1.0716435293597615 -0.33691786789763073 -1.0689497115408206
1436 5.469558931067001 -4.199016814181145 1.9560965339867222
1435 1.8963692526094638 -0.024650053200081266 1.2784398295966761
1438 -5.0532840511641375 1.771061214099257 2.3093911728672545
289 1.729026883775033 -0.4463765906313216 1.6823378242271811
468 3.6855504063398707 -0.9743637208557085 0.45221171675932315
756 -2.2752034158432064 -1.9814255162947796 -2.4278556801896607
1406 0.004491872017343675 -1.5401471013872428 -0.03297153196622174
1334 -1.9003502186607149 -2.7755240576826936 0.14243804088879183
1044 5.393240853287775 2.5024030021043875 -3.2533961009182684
1332 2.183856930160817 3.61185854500796 2.671948158498309
829 -4.422283379198204 -2.6928149636314163 0.9826262932876024
179 1.2365784944285225 -2.283526336348557 -1.3903896042439183
254 -1.8711963939202814 -3.3134765123183945 -1.3975655237361515
467 -0.9589475410812937 -4.000361511032283 1.6591456690843691
755 1.630023869392103 0.801040170701875 0.5717651503438612
1043 1.745554780946941 1.853663879295541 0.9108896723926029
1117 -0.864365917412892 -2.811159859746634 -1.2768796076843671
1331 -3.208852744909089 -6.377507445980982 0.6102251485593249
182 -0.043723896060207476 5.52622921300815 -0.8133775445451505
215 0.03643077426884523 1.2455782515956861 0.7947100799324116
794 -0.5312018138308054 1.597736085362834 1.4136347521468484
504 -1.5127482388098057 -1.4736613668257794 -1.9879109124135312
503 0.8407632668009073 3.4414756366379713 -0.733082566939552
212 0.7583206811390732 -1.2985477641444099 5.865402969359961
1151 1.2565892528248135 -1.4351449346997551 2.9874264433764863
863 -2.9928577848448206 1.4364855783773247 0.7242224602891263
792 2.1562555133436434 1.6072396743079977 -0.6051435142343936
791 3.5932605326544405 -2.950953222426409 -2.261944067552188
1080 -1.8655276365771736 1.5156917259508724 0.34664071101287713
1079 3.1072357829674258 1.317864716032527 -5.4557925978527555
865 -5.676448585840812 7.73405820907266 -4.975384796614695
1368 1.2015914944217811 3.4765748185134817 -2.5752068663275067
1367 3.5243940206121653 -4.177629295363055 0.493010891335011
540 0.20113052042184001 -2.3187350862911336 -5.957920442598325
830 1.8801116998771081 2.3719292592954258 3.205066605439978
1152 -0.5199486523182899 -2.5361497715908197 -5.415363177160565
828 -0.85219789453915 -0.6044215828505028 -0.422549531302761
1116 0.2981848889490805 0.9416934110276953 3.880644666342189
1404 -2.102850699037629 0.865074518920844 0.8881221249034067
251 0.6232672439820243 1.4312065204041846 2.4374339180403917
539 -1.9843488427175895 -2.4189557997104596 2.523136153679057
864 1.3969075011141003 -2.1580875931390167 -0.31317833667309003
827 3.8143043174762923 0.8850732037531094 2.5425280638470293
575 5.2041509019067105 6.113781755051461 -3.428062434772006
1115 2.15808650223602 0.5534137313293757 1.846488362895777
1403 0.3302309172882987 -2.751843890845817 1.49100803076735
1440 2.0368416548558943 0.5364072267129989 -3.0912238547442143
287 -3.4187120224089487 -1.6468598794440557 -2.5676302851029824
576 2.0277680221893144 -0.6267006398385313 1.093584120227765
1333 3.5623414392327533 -5.457010777974827 1.7868802619147128
218 0.5574052490511909 4.622266231161882 3.154541464472324
505 -1.9422384798934154 -4.305658279291045 3.2431263956911005
542 1.5785745382754544 2.4828194921626503 3.1948080557425333
469 -1.2348621681281065 3.3050223316414957 1.1495226606116495
541 -4.1451353907414 -3.221446167073601 -4.201198845764375
758 -0.856351844073689 -1.5344354418263313 -1.6554081574780624
1369 2.387297530770516 -1.4718390405738908 -1.605303241569182
1045 -1.5156072053672596 -0.11708800578606561 -2.8361944487601702
470 -3.950770477260263 0.1358609229245806 -3.8422306829459534
1444 3.3701664839644754 -3.432897080611689 0.8463787448443534
1732 7.10717695398276 3.3048499006391934 -0.47371272098420697
2629 3.6646820488151155 2.4953406409492174 -0.34117633453364304
2020 3.837875576935874 -0.1313180223467509 -0.1319632905447475
2308 1.323208952561321 2.8448896582417427 -0.2327038562216637
2596 -3.568395620856724 0.43714777832212764 0.5379828657781175
1443 -3.499977613614054 -1.0132357408755899 -0.043155278358392106
1731 -0.3814849653756466 -0.2771559699195951 3.441044162506218
2053 -0.9016707342927011 0.9640240724871549 0.6977384331306321
2019 -2.7482941019606617 4.341134216666975 1.1857362641290219
2307 0.46631455752793544 -0.5106148345693454 1.4499689712629218
2418 1.7154892395636145 1.6570634414328727 -1.149612329212982
1480 -1.299242464015612 -0.5526638462268239 2.5566118202419053
1479 0.4548494034583952 -2.367042756287725 2.9145003648707126
1768 1.416378544276242 0.8755951934958318 -2.54141878204173
2449 2.539515843098732 -1.3158090018331337 -0.44033729586301756
1767 5.275361874481139 0.5470530154330288 -3.863043738906959
2056 1.2202280375641514 -6.875771803122772 -1.0153785709682404
2055 1.7694343526467877 -0.3107652116323656 -3.377566041425262
2344 -1.2614250919296142 0.3506066424424632 0.6025599227514437
2054 0.968873292199802 -0.3453385052913712 -0.6352139869416377
2377 -2.3322571528064895 -2.242030843878043 2.047692680360691
2343 -1.827653521847246 -1.7942124375424928 1.5318169356406512
2632 0.9339875015438313 1.8197092731653277 0.5916364811888001
1516 -1.5412965696135281 1.6833542410424402 -1.1156176329834109
1804 -1.6777115607761957 -4.169140250331634 -1.862478301357774
2092 0.8884685463371103 0.6247725530097842 -2.0466422514656184
2380 2.2401497663228644 0.003626816332499163 -0.9521186302943483
2125 1.3078758439085936 -3.9414439578028264 -2.2970047541526393
2668 -0.47565651089372973 3.7954384967102373 1.6454136669748356
1515 2.1102240648708253 -1.3095707941712866 0.3352849448980249
1803 -1.397176404155866 1.8733381057640264 1.6919271351106784
2741 -3.656102337668015 1.6540798953735265 1.1766684007419892
1838 0.258962243823527 -0.36565318408870706 -1.190030615099064
2091 -0.547496469055255 0.5809790338285349 2.5570516726466925
2342 -0.12635017515380384 -3.006942120905273 2.2224031146526566
2379 2.0860132991640885 1.8229530192344332 -0.9945700530012629
1552 3.108371340941183 -0.760124997648472 0.7590869135214714
1551 3.033960723286856 2.3373550001094046 0.9961796789773735
1840 0.8437599308528957 3.3470611367566363 3.88950714966696
1839 6.554218177336406 0.22100212654633508 4.316817372662939
2128 3.6281512995064977 0.46720639972400074 -1.081019553253162
2127 -7.508160257777077 -0.9385624305827122 2.3134348106642366
2416 -0.5994448200192286 1.727728450659195 -0.39542630967348763
1514 -0.33347162351937576 -1.2069520610230289 -2.04133870556745
2704 0.5322339009368267 -0.05445446205231513 -2.222766611375639
2415 -1.3247845227091806 1.5773098708404587 -1.8992365522989856
1448 -3.4495867920470893 -1.4250879671211192 4.997380612281296
1446 1.6236771890789252 1.026143102097196 -1.606725777244892
1736 -0.16328905377282651 -4.457775970082972 -0.5522988865890517
1734 -1.607272582163335 0.21486445650475056 -0.2068779945952047
2024 -2.466700048058036 0.20655827018793946 -7.739624539473694
2022 0.5181416096941553 -2.3636743051825486 6.545006409123229
2312 1.237489378640542 -2.6107392404606684 -0.31410297553607963
2310 2.3623508095087695 0.6120716328726965 -0.19465578209591866
2600 -0.5022572704326566 -0.5951443578681938 0.9742164576333432
1481 2.423718285961387 1.9605545990609201 -0.8642942004871452
1447 -3.4747207696360394 -3.7684200665214167 3.2269276886474456
1769 -3.2079157506873037 1.0127577852180072 -0.9435015360719847
1735 4.927291502654981 -0.05422376601301147 1.599724859252058
2057 -1.8061279934845809 -0.8666113944810447 1.3477509230448057
2023 0.22502067874765322 0.2645227749706136 -1.7138659757442405
2345 1.5856901109752832 0.012472998380311493 3.3432659797009294
2311 -3.126302309806062 0.44750614810507056 1.5376817081971133
2633 1.4715799640200733 -3.049104060109698 0.8316794885827637
1484 5.648360260410243 1.2769640131913667 4.954880556700347
1482 2.01720565014928 1.0947126182422597 2.534250806621749
1483 -0.21590430106718841 2.925875193155146 0.6604872857182039
1517 -0.6767999295539056 2.394485222703 1.7883897337030465
1772 -2.4361533518152534 0.00386093258403069 0.5257258478841079
1770 -0.6251705099738193 3.3058271019084837 -2.074337536849543
1771 2.1145644935760517 -1.9415811766062703 2.3920780734531686
1805 -1.571268228033704 3.4841305810874297 -1.8830038895017354
2060 1.419131939124461 -0.6844993495087055 2.962139555723477
2093 -0.07480706026794405 -1.075320494641316 2.857320842559253
2059 1.0908453730610754 0.3207578460202255 -1.2121806923603395
2348 -3.475228469041549 -3.881595704282323 -2.1252163942734037
2058 1.5098558559331632 -3.997319112779534 0.516953343129613
2381 2.4763255320739574 5.56480049064651 0.639937362887206
2347 -0.46865843006985186 -0.8809353575980831 -3.3398600199643824
2636 0.4835097916128034 2.20379024335475 -0.217181348814448
2346 -1.8627602756575823 -2.784715444978729 -0.5325311058509166
2669 -0.04463693739210008 -1.2329501709584252 -1.0827832205994934
1518 -6.158629376011642 -3.8098078852948696 -2.6667297776045964
1520 -2.1922739046622612 0.14423652871336254 -0.09118813649244316
1808 2.401797517913393 1.6413912587022514 0.36235646331326016
1806 -4.9572207656610585 -0.038554346608722624 -3.67606199625496
2096 1.6814863328538068 -1.1569035011863442 0.23867331560327487
2094 0.7982101517092162 -1.6974529579855315 -0.08532099103275
2384 -0.42824085899757014 1.7217572477554608 2.3203601040031523
2382 2.812976016055526 3.6695581682644036 1.7867502614841968
2672 0.7418990956828583 -7.493028001165742 -2.6561342250008115
1519 0.7549319353071586 0.5819867636836537 0.20907283806636462
1553 -0.8759184168199371 0.08623680737391248 -3.95033439688402
1841 1.5198128156163524 0.5843044908053193 -5.576874650903274
1807 -0.8305334236270756 1.400241684436533 0.6073489768333925
2129 -3.5820973439418085 0.9291610724496558 2.0781666941490813
2095 -0.04520858375052911 1.8765709850339036 2.822143229797691
2417 -2.998912070440343 -3.2023883265018895 -3.063317654897502
2705 1.6485885813258283 1.8297356958673945 2.2135134327468164
2383 0.7907377525469798 -2.2651172295981143 -0.4466229213200429
1556 4.164586341544446 -1.7583176586598226 6.908199660502301
1554 2.7260364894669142 -2.1162974571057607 -0.1631283078366719
1555 0.4159542156817491 2.6642867479504213 2.2066953985703797
1589 -0.1383132568362326 0.5088971070502462 -2.6247503249823896
1843 0.5935173823401879 1.0802746753999573 -1.0199625131898717
1844 2.5431657419566163 -4.718050819564606 0.31980464605512715
1842 1.1369601892717234 -1.718103123233806 -0.14689559908492245
1877 -1.053196546319447 0.7306340855659776 -2.3177547196435784
2132 -1.7188060977117008 -4.953354674573892 -0.6898761829282124
2131 -3.3021111457839107 -1.3255124020810987 -1.5551035788899308
2165 2.020551260755426 1.1845511816931342 -2.630450616363794
2453 -1.5470539579795621 3.665995741208905 0.4777656302777114
2420 1.2054057790949007 -3.613012465226981 0.606155914174514
2130 0.1033345142912237 1.3307380675417417 0.3208712675221121
2419 -0.0034181842546324908 -3.0841055648202023 -1.1441718842376285
2708 1.656721595352871 -4.748517810299197 -1.3018105922187113
2090 -0.7908537338887477 -3.4481218181458275 -0.9367871459376786
1766 3.218355075351251 -0.10888451380195359 1.8443253251839469
2161 1.728752313219142 -2.1658107614989235 1.226992613899418
1801 0.14987210186342234 4.05481255536674 2.414912731351504
1585 1.767856489786893 -4.979312963504058 4.777696463147984
1513 -0.14547937624755364 0.43240360579497367 -0.10357362434233904
1802 -1.6929874130633413 -0.17139851484008806 2.255388013695294
1549 -0.7786291750378052 0.22854727623518206 3.049817162441903
1477 3.824114187474385 -5.793357053010797 0.08210096244472659
1837 -0.11255294634618654 -0.28464320819211586 -1.8541025897140093
1452 0.3731232886304593 -3.512051871635967 2.1490618472334297
1450 3.0845234297426276 3.074263645081869 -0.18763720412022103
1740 2.3687349164739513 -1.6064014833411047 0.06101220001123903
1738 -2.6370104783068262 -7.60938361866273 -4.102448828659163
2028 0.7404495131805992 2.535372621734547 -1.284011961571712
2026 -1.22693397914236 -0.824558168904857 -1.6219914573717855
2316 -0.5935615179437931 2.5094325254899874 0.45553144390358186
2314 -0.15674302166973078 -0.7013669309476603 3.5877007144169215
2604 0.9121253827417178 -0.8702839758413607 1.3278125354305736
1485 0.5775173698907019 2.7136511758901567 -0.8053834396544831
1451 -0.765676268340423 -3.2708500707325947 0.21836964218709554
1773 1.8005110250331728 -1.284073119859251 -1.8572307944823139
1739 2.361346350892932 2.236336682529773 -0.3853261138292813
2061 -0.6678508076502505 -1.2002361704122506 2.4510303146611214
2027 -0.2756132760163893 -0.04581311959157324 1.8232892682033743
2349 -1.0781139364831198 -0.41349122143786493 2.1652494224677947
2315 -1.4930366187713537 -3.1289586146903074 -0.7761797860806968
2637 2.9266258704687207 3.589593077027607 1.2105589062733417
1488 -1.7663140240932815 1.532863571813599 1.6954633944579196
1486 0.01817268453011469 -3.394757055364385 1.5392543873829003
1487 -2.1132614754999404 0.8864530463812348 -0.44125117665265606
1521 -5.043160900038124 3.5641020878577714 1.446008835698166
1776 2.732432013637468 0.9764487883843707 1.0157627068205692
1774 2.432909952490851 5.6423443557282695 -0.10074998407103802
1809 -0.6576237574676614 0.44282321585158285 0.28932775261414734
1775 -1.8695570853188503 3.262206822183373 0.15412690946113664
2064 0.5044850654643022 2.291743786995938 -0.3003024171283539
2097 -2.417221344288411 1.8953953731841375 -0.5323751081296405
2063 -1.2594239812974586 1.281667848793765 -4.027313929273266
2062 0.4912130997230277 1.1883500849425233 4.4298005708973625
2352 0.8847020207428015 1.112647518531675 -0.631185404099559
2385 1.6521628567430633 -2.858834473235181 1.9981838387631872
2351 1.7205913439605713 1.2201630825727179 1.2589582840136235
2640 0.7093768165568766 -2.396571021010207 2.8012162856581893
2350 -1.7043698773152578 2.972431392851029 -1.2961890850799052
2673 1.6811731846221334 0.5005426378597074 -0.7784227694981588
1522 2.828873114052294 -1.9989607346618452 -0.9078236176363174
1524 -0.7526343332204738 -4.035806382987468 0.4012670182092993
1810 2.0010064424075726 -1.8984494275109032 2.2895724927788184
1812 3.042670496905533 -2.6469491798803113 -1.7445658086934193
2100 0.6329484204218799 -2.360028522373462 -1.1085420115002858
2098 0.08538119818787979 -2.8797140049813854 -4.093749516508878
2388 3.6635752914812456 -2.1027792266459917 3.5858930007113163
2386 -2.3442894402083234 0.8399823164805542 -4.561479956646992
2676 2.100915935140694 3.722964519020857 3.714569035602945
1523 -0.3077317276763669 1.4801735100030382 0.5955402844154288
1557 5.165743359220517 0.6616970758818546 -1.3938339883134576
1845 3.385346727899047 1.1805206839001177 -3.6032689208992004
1811 1.4939193645377857 3.705266247110727 -3.1459142767118085
2133 -0.8318526294051464 -3.930631317917643 -3.1188340098337157
2099 1.3685943775250156 -0.47212696839000295 1.1183058391357452
2421 -3.257912708133111 -0.561707015754533 1.2105870385633148
2387 3.965015430157505 1.3095069304995577 3.0846453689300306
2709 -0.5524955058666384 -3.9149790687314487 0.2910797415377058
1560 1.1544216274083443 0.13896647162373707 -0.5002449924111898
1558 -0.6573287756662349 0.3752757825086554 0.995387478446287
1559 -3.0323779135307016 2.15982964078634 -0.6571425472242659
1593 0.0005652504817887439 -1.1609568147072333 0.41697116841117915
1848 -2.9048472278097504 -1.451057937757683 -0.20011955755976557
1881 -1.5131366221193188 1.275158772880746 -2.277946881579272
1847 -3.486095185824796 -0.9096427497228191 2.4189281015779662
1846 0.27184240816035704 3.1180845215875523 2.9592626997492832
2136 -2.411210776349527 0.39189971084975384 1.918131649502954
2169 -0.3428520751461264 2.6994803717585873 0.6459673716036275
2134 1.1452746065272565 -0.5814287537091548 -3.3755443372003673
2135 3.1304029558022353 -0.7375418915523223 2.7838105745638932
2424 4.025050409142628 -5.3002445225253165 -5.638963993226416
2457 1.511884182351437 -3.131271320118563 -4.659001368468469
2422 1.3359450458214281 -1.9499693157288676 1.4112678233799048
2712 0.661582101509373 -2.7043345271904187 2.30619557341154
2423 1.209277995587767 2.0072120252438665 0.36556966760027343
2745 -1.2084083464824327 0.4428736136046077 -0.8153306464818798
1456 2.909935178968259 1.2159814928330444 -1.9394692011429295
1454 0.47623710248207785 1.1993732510479218 0.06714681199234031
1744 0.7105469807341773 -3.596633527600251 0.27236927660130283
1742 -1.5602283627368236 0.9143026263251893 2.948037407813295
2032 2.04701083333625 4.364928621148748 -0.01576059894898259
2030 0.8615930208914175 6.751642867834823 0.9459830341858453
2320 -3.5152669238849197 -1.2337713416938847 0.10474126013693306
2318 -2.0684208471734813 -1.112755273915171 2.745294752226339
2608 1.750999938242032 2.5451911547849946 -1.2054244772348781
1489 1.9830962899051205 -1.281607701198217 3.8698697633679977
1455 0.3700801114425627 -3.3813387250093627 1.471251007979452
1777 -1.43762814526137 -1.5281839657725724 -2.721250920019738
1743 0.7227892964971938 2.6755239164218465 2.378036682293704
2065 2.541481002088599 -4.369531023047672 -3.3955272167656494
2031 0.35950707718974806 -2.9545674423949033 -1.9968089836035046
2353 2.3974299979116176 -2.106658872000961 -3.6064050856740115
2319 5.66459078346552 -2.575052917930784 3.8995256609507276
2641 1.250790085801685 1.649372764944108 -3.3480469727571265
1492 0.8348839049321923 -2.730545058553617 0.12004137127148617
1490 2.4789980350436136 3.3789110133055784 1.726390927703626
1491 0.3277822358250621 0.36608474201297553 -1.9983730152704513
1525 7.691435276173941 1.7403704726122502 5.662142148002355
1780 3.5455922664652326 -1.557253545318074 2.257530835809693
1813 -0.8661560212475568 -7.044867173973089 -1.1717488940737297
1779 -1.6453440917874882 1.4641997017730897 0.3106543351001654
1778 0.03227379524124485 -0.1442417288825645 2.778686697416842
2068 -0.33308297851928736 -6.051910206336064 0.04483129770353639
2101 0.7662718444119487 -7.37289603888392 1.1527243965603573
2067 0.12334236619784152 -1.653422278008442 -2.4828959650567533
2066 1.2245082938792073 0.6571289657783447 1.4295028524399183
2356 0.1437326146862991 2.806966962568305 2.5314805954807444
2389 2.7477151464142535 -4.273328997080153 -2.01903137911998
2644 -1.05517042944292 -3.2466233687634634 -0.048697263138845905
2354 -1.8015958473694034 1.0576786291896345 1.5218634751428872
2355 -0.03799266374608041 2.4920686484016072 0.4205065532774399
2677 -2.031994530223613 1.2538995209130999 0.13509471528921144
1526 -1.0136659931390273 1.5241358629423887 -0.6093809494818045
1528 -3.803117721651537 -6.45160185455866 1.363849830607955
1816 3.847957374618534 0.2351891345005643 -3.9512806542968884
1814 -0.5151387607205516 -0.9166231339068034 -3.105906791502879
2104 -3.1956405347512753 -0.7699949635760664 -0.023973141258122124
2102 3.179499087847526 2.358573401133555 -1.5795912090291253
2392 2.3486766092271316 -1.0405341787934987 -3.864937081402735
2390 -2.3315016892812923 0.7701282297985664 3.49290851277647
2680 0.1379530755644672 0.5052602108572336 -3.3535610739481294
1527 3.571719982523269 -5.00082736728789 4.2371358646441415
1561 -1.943497278014792 0.8608535262443416 -1.1194247565702635
1849 3.8646141395015223 -3.5452559074304504 -3.531293259084569
1815 1.2749764846625506 0.4429216058690334 0.6228592518572934
2137 -3.083504799797057 -0.5185086384455179 4.56429049669035
2103 4.234615396004036 0.3530459831315016 -1.1421750175817864
2425 1.6910426724069014 -0.14179663496228886 -4.97648198483813
2391 -0.5484911425340345 0.20561183185508383 -0.9498735574570093
2713 -0.249313750578586 -3.1745772597150697 -0.8849369726630338
1564 -4.221554905204441 -1.1443677602507887 -0.9204258169785375
1563 0.7745711887438775 0.4702119446377588 0.5209803228702297
1597 -1.3248822217568024 2.0437028567853024 1.5183394260959562
1562 0.23594200985762076 0.9614503772615728 -0.5148714666147056
1852 0.2035071188443503 -0.7598380467569977 -3.8195058026050313
1885 -0.577666755062955 -0.18915917336398086 1.2849985520254745
1850 0.5338322819750257 2.172733274809942 0.02473355403265728
1851 2.5961393373186876 -0.19542676794123173 0.023867334638041183
2140 3.9997393408812028 1.4646836188560801 -0.12468021206380585
2173 -1.5326172131961628 -1.4965479547893532 0.6005027625950303
2138 -3.266683718286361 -1.5752595714912778 0.001756297493021093
2139 -2.804842470092609 0.17096853522908614 4.402543208732426
2428 1.0752858765649311 -0.05565543156161338 1.0850023754572165
2461 -4.975394818693975 -1.7981623017427393 3.876015173998342
2427 2.6927028857680715 4.167110456901431 2.495772488159356
2716 -1.5787059598481088 0.417011991205142 -1.9745443209871711
2749 0.32414291347983937 -2.659245180213966 -2.321286671213224
2426 -2.9066718855289055 -0.9543035838947741 0.21950681168428954
1458 -0.675171005923114 0.2977004027694189 2.2448190295755563
1746 -3.629590935673598 0.4409365217442875 0.7639216176564825
2034 2.254661421609408 2.8760977019871428 -1.8735949822467086
2324 -1.3904880880689792 2.206828916438259 0.8629512722610502
2322 2.4774947584379916 4.470783478853777 2.1032751910566563
2612 2.3187624417947323 6.323961871686641 -0.27806347133680065
1493 -0.9451795689138357 2.3739603299760783 2.4880469556590383
1781 -2.2179239492418223 -0.32371681498925625 -0.06456067074494469
2069 2.41686020316751 -3.378196442258196 -1.0527797801795244
2357 2.9177254141884372 -0.17803357846740328 2.881841845062312
2645 -1.9850324826139163 0.2371792308790742 0.9729640315851344
2323 -1.452328093228592 2.318470857072269 2.7871669997785373
1494 2.6077274411995988 -2.7464599979068303 0.3553683114301794
1529 2.2828999801373486 -1.825675905104863 4.627353760190078
1496 -0.39558936198698014 0.38977842601994384 2.694537200285793
1782 1.1092660685556137 -1.3685120689443313 0.7481412246626278
1817 0.7555783818777595 -1.8107088346291011 -0.08222818794453995
1784 -1.6541087631165934 -2.621619993986791 0.9338246458071723
2105 -0.24206790889070165 -0.5376025500276121 -1.4033102417292487
2072 -1.614450399497816 -1.3732065097771304 0.3657688426330574
2070 1.8142833252139954 -1.2471095190849524 -2.748647618015016
2393 -1.9661421237221457 -0.9026190106985446 2.3604642680384056
2360 2.2480909970760763 2.751608876306619 -1.472667199259539
2358 4.047283112927258 1.4503312875657508 0.2811721536941944
2681 -0.1630963179365254 2.2673946133797447 3.41453237168123
2648 -1.358031138280837 0.3607041012784872 -1.4055117244721944
1530 1.1186717646640687 -2.16049570316732 2.132318105827524
1532 -4.723070880869209 -2.3434871558674724 -0.5966697829011736
1818 -1.17378917830091 -0.855795724489295 -2.574991187226489
1820 2.7047540381210147 -0.3032046326674671 2.191501512359222
2106 1.9191218060493445 -0.9609624553651114 0.9486196605295183
2396 -0.679721141377839 3.8271749962608976 -4.4748077564514555
2394 -0.26329141865547484 5.404266285819556 -0.1681145429466412
1565 -5.030391109666517 2.617665738573246 4.454104512927618
1531 -2.787297521716672 2.7012814484541554 0.9379971895088212
1853 2.4380836652646405 -0.9177099193323182 -3.27360661981666
1819 2.3379803029505615 1.4475203220810973 -2.347971683525988
2141 0.9946557769544313 1.9041080678342592 0.17724287078721382
2107 4.890979267551811 -2.611688676219869 1.7901500477585768
2429 3.1170301305281782 1.1861426316461479 -1.7769375750586536
2717 -3.22402608943464 -4.125040314369856 1.7438377725383278
2395 2.391322383881585 -1.227164191539163 -3.204434868929874
1566 0.33557467179648437 1.0530993590482627 0.6105662382147454
1601 1.6957622598295954 0.3020978755332808 2.1371084814200447
1568 1.6988374980751166 -4.431395114307533 1.1628137392018347
1889 -0.18206425970772286 -4.619607132365189 -1.5283318397558239
1856 1.8514205488810085 -3.6225547071671045 -1.578373950351603
1854 1.4698739554510818 -1.6839505444429885 3.6464036653317304
1855 -2.299801488160095 -0.722803519831461 -1.7247762360839767
2177 1.6696094792166165 3.2671409214404004 0.2204915244719682
2144 4.936455689752608 -5.470022344834171 -3.025514305460526
2143 -0.1645511574816939 -0.7893828509488953 1.1949389178884702
2142 3.992110469418338 3.6627017237819888 -0.293203749723987
2465 1.8049525828053807 0.37186222406563163 1.84621500185242
2432 2.180668969765757 3.8400072726818473 -1.252058610713819
2430 -1.6830438963414902 1.7434281093234618 -1.1504057390731737
2753 -1.7904393846071252 -1.5373079666768228 -0.3868173564175112
2720 2.405475489892157 1.1772353321294704 -1.612165587878705
2431 1.7742572470273623 -5.562175863116864 -0.8238183758570948
1460 1.6731395174935768 1.593348924596581 0.3038225932648242
1462 4.644472208318332 -1.3296230318208853 -1.4026143235615856
1748 2.5329527160867826 2.287708143838596 -0.6154731962542229
1750 -2.6805142458193374 -1.2210559337720592 2.4426253825989366
2036 -0.21867054908968858 1.3502608580798203 1.2015851585216124
2038 -3.8288880456416323 -0.67568184921713 -0.9167268815209483
2326 0.5645649676639988 0.16803652918929834 -3.385010559075245
1459 1.7869558429938242 0.07573554729410373 -1.4165439582426282
1497 1.4046155842982513 -0.5377669952835528 2.4170287748294808
1785 -2.248856077595686 4.557979204624072 4.544316977627378
1747 -0.7228970001538005 1.963844562950901 1.59984312587907
2073 -0.9892266565671699 -4.1052330104987735 0.9162824842088623
2035 2.6199352619223686 2.332775751473209 1.8473728671698657
2361 2.030384301322372 -1.1225315708862937 -1.917903153702344
2649 0.9260939081507364 3.966620387721761 -0.6652689480663602
1495 -1.7556094573550969 0.43477767612537044 -0.09572888711212277
1498 -3.961981067468207 3.7876748183258595 -3.257706874843405
1533 -1.4102705227046841 1.3961986012855618 2.5462289523200283
1786 0.6303358809840042 1.6206135890488926 1.8367905116595162
1821 1.7943671773128684 3.8450213289893833 -0.43276036027631604
1783 -2.6516080626324294 -1.022679909082282 -4.002665365628995
2109 1.1628013672081599 -0.3706735473735255 3.2516239012430135
2071 -4.069100038307027 2.089152182764273 -0.9849679164831847
2074 -0.444782881492357 -1.5655961258468343 2.4936643833946386
2397 -0.30492217352186524 0.23335575990159219 3.1142011560213234
2359 0.7181938184051408 0.24474925268042952 -1.350423883717707
2362 3.1390141632802293 -2.815302819855033 1.7940174993051994
2685 -0.5655539976372755 -2.120545816880882 5.212448836356202
1534 0.2274704522979711 -0.7410355135538199 -2.504709374096657
1822 -0.6059054667896621 -1.0557740235846906 0.9164523935616806
2108 0.690122377078663 -1.730412171961546 -0.9081012873060611
2110 3.675535961141303 0.839881524229025 -1.8493264517297714
2684 2.9751674571931077 -1.615147859818528 -2.444605205565628
2398 0.3765522561923841 -0.6154737717184849 -4.966821053664359
1569 1.81709221970109 2.5281102142457597 0.4346365074102418
1857 -0.40467166636458257 -2.2639041855935216 -3.822524378737343
2145 -0.5109885836162401 -0.9654574730959022 1.8308097661011693
2433 4.78966173479665 -1.2770429282432971 1.7142143078272802
2721 -1.8543693958434728 -0.5808490513647346 -2.0574587723762803
1567 -1.6881469140119243 2.927503112168039 -0.008979456680059464
1570 3.6049911367308596 -1.504658727566926 -0.6258413761518392
1605 0.3211168903887545 -3.1746937770218078 0.11284975407213768
1858 -3.107299712095133 1.7292115787270048 3.3789358705555212
1893 -1.5827968903106757 -2.4396534853475815 0.9355950639016737
2181 -2.211017060686771 2.2609104164222464 -0.502439128635791
2146 -2.4822646609164774 -0.1111583654539392 2.841143638584989
2469 2.48664059097189 1.9849950701001937 -2.1140180924642897
2434 -4.538769007675606 -2.9641162126702207 -2.3455438027440803
2757 0.5616039888710117 -1.50867033079318 2.2687524736660603
1464 1.601709059629376 -2.125096400722145 1.8112605661432506
1466 0.1279969096860736 -1.7462650214792406 1.2908667537579146
1752 -1.6421707721578735 3.6368901537221174 2.6885747665712785
1754 1.5068571657246053 -3.362499812621159 3.150874999350241
2040 1.1565695403506195 -0.1078972352763467 -1.4849580558626838
2042 0.013419477758683695 -0.480507434760501 1.6935718217347442
2328 -2.205090250441914 -1.4136411687169215 1.3668759100198347
2330 3.7415688345508133 -0.8761811163285664 3.1116835375897396
2616 1.4245451287383495 -1.5862141112335264 2.346833783802047
1501 3.9417419138900742 3.8104371734073865 -3.5016402735772156
1463 -1.7566278730738607 -0.9190243347807827 1.7050576937591366
1789 -0.43360046002630076 0.35392814249632903 -2.0258981320819913
1751 -0.030851802734806418 -0.16138151318689542 -0.5396581779589048
2077 0.14977317587758163 2.5695592988622784 2.6578130498561108
2039 -0.6371021801599985 -2.512404625368576 0.4132040712986705
2365 -0.18388689228485927 2.9098842400791303 -1.832937001917839
2327 0.637485402601531 -5.003020588010084 -0.5398331071724781
2653 2.4910845736604528 -0.7093502259394897 -2.6258688417716063
1500 0.8887115591157184 0.9188299375626027 3.364906252365711
1502 -1.7170485834268117 -2.0159354246176497 1.5223976666310735
1499 0.09486850940504726 -1.2976363584017885 -3.239717823971121
1537 -2.1807001687938596 -0.5879132922194308 1.4654327157646294
1788 0.2824170024713557 -1.0736993675644178 0.6255127433210285
1825 1.451285913025319 -0.2804304407296892 -0.6583025974621209
1787 1.5740267889666504 -0.5647408939103167 -2.081898835542591
1790 -2.0497459801153397 -5.036651990570743 1.982484806088402
2076 -1.0887264190151804 -6.432140342465474 -4.9978062043182545
2113 0.8722018814657572 2.1000449246769173 -1.4343433997789423
2078 -1.2920209155953328 1.854720581502347 -1.9897628817467439
2075 -4.983644669767334 -2.3388191123179465 2.28391132006333
2364 -1.9220952242229608 1.846937034495704 1.8362577726162368
2401 0.6771312765388564 1.3365685574532657 2.6101955904995053
2363 2.3347031715786297 -1.6662459000328724 -0.8245298573431141
2652 -0.4527903835144571 1.2640670491811898 -0.04325760866945403
2366 5.110788978344132 -0.2655013464106859 2.7251929679831886
2689 4.2245679676278085 2.096337859839182 -6.5192686377197315
1536 -3.2309211434674014 5.565612777230824 -1.7596248646012018
1538 -1.5865658351033913 3.8735688167438957 -0.438698154534331
1824 1.718657509957486 -2.7956561472572563 0.14714328407506752
1826 -1.669683723674425 1.7126196753365666 -0.23976075909657457
2112 -2.4071561567352884 -0.4240730502803896 -0.7916171693349024
2114 -1.6851742616787708 -0.27313300021081816 2.269897052938744
2400 1.5229628754985354 -0.5560322244249615 -1.5296813218051084
2402 1.106294354605044 -3.2784084384655148 -1.9813167303638233
2688 -1.6202663919102305 0.638630299381357 -0.9186665565023104
1535 -1.7559261586612334 -0.5945738059914382 2.4929142718932455
1573 -0.06088969471087051 -4.068734619031896 2.3863556901288527
1861 -0.59685763536762 2.2340157314690012 2.1928759288916595
1823 1.2218334800344333 1.5611571768620813 1.1790362381618722
2149 -1.1488376902188004 2.4357824959364445 2.942745641868005
2111 1.1050327572404 -0.8918544890191153 -0.16229617097012852
2437 3.274698706550654 2.6554587504307627 -1.739183633998688
2399 -0.9732429527133085 -1.1097558822715634 0.3783206871639615
2725 -6.253406709166117 -0.3428605095663912 1.5302579213402336
1572 0.7148586965553976 1.9713543515698475 -1.0254183458640662
1571 2.0345608959221027 1.3962779712759026 0.7153113910369183
1574 2.28927263517177 -2.0022841174093573 1.5999698067733472
1609 3.377477357469499 -2.2882448043817547 0.37940436693524626
1860 -5.683988009460994 -5.258601948184471 -1.8245214870587105
1862 0.4722925700110264 -0.8107442120784614 -2.367751680297265
1859 -1.0995613509370599 -0.9315305695438705 2.2529425049060072
1897 1.207058862967708 -1.9466828972262524 -2.2879873343113863
2148 -1.9405286973474185 -1.3792335642258233 -0.05921800742042906
2185 0.20968216368446504 2.5747800090769695 1.531956293978773
2147 -0.6786884974155042 -5.017210208820633 -2.0574407426013126
2150 -3.3384071637946344 0.890001377498184 1.7634551124297297
2436 0.7616376405700638 -4.38533060083382 0.3545351260933316
2473 -2.8595620295818307 3.116355398857431 2.0621999707965775
2438 -2.314106108430288 -3.9392934237962933 -4.209763249020239
2435 -2.8657855187868257 3.4086077401996917 0.25890955908511565
2724 1.6557577648504895 0.16443236969037917 1.8992798207234793
2761 0.5431306128783964 2.5174421198241435 0.5692884067682793
1468 1.6009660842640008 -1.0236358714093288 0.027057352600184457
1470 1.9248545212092303 0.0783559109474198 1.171995562261987
1756 1.0835958728330597 -0.4043594326801164 0.6384079717694459
1758 3.627806927833076 1.066574921145936 2.748860131422953
2044 -0.09753676294447779 0.9642278272256407 -0.6833943793924394
2046 -0.015639667843803728 -1.0576128127471267 -1.79215466928489
2332 1.1296139915558978 1.9314091081476648 1.9457372562874538
2334 -1.3345220896125307 0.29396534356467535 -4.156208346728985
2620 2.189939981375598 -2.8355263752638415 -2.178540516093477
1505 1.754071538599201 1.1910122000791945 -0.20969198540531653
1467 3.991682351591025 -2.1325862201866084 -0.33326397049321327
1793 3.347889939158313 0.9163217923825288 -1.02562736409229
1755 -0.8511240659295455 -1.8693244148810138 -3.6650032848903944
2081 1.176030508925418 1.4502016648250586 1.9697725501501748
2043 -2.8428805575974465 -0.0005423808185274163 -1.1050674337967976
2369 2.4413697308146394 1.462283637110597 1.9521146583425084
2331 1.5154495119244584 -1.954693502272396 0.4501265439638106
2657 3.1334930168266704 -1.0305760445445022 -4.522002071158156
1504 2.50376230258385 -0.5552547078677025 -3.1135774382251573
1506 -0.01972846630874667 -0.1492120749069652 -0.7209474682256047
1503 -0.951391727197316 5.8105851857945465 4.894918507321866
1541 0.5036321320608025 -2.826041574988637 -2.463789197959212
1792 -0.964032544104161 2.500624113768995 0.19553960180155844
1794 -2.6968685299230852 5.311526295623215 -2.9737760303884713
1829 -1.3572360824588598 -0.12500968959972872 2.328666925796773
1791 -2.8353346543641305 -0.016940850076542974 1.935668977248424
2080 1.2864588413199576 1.7590428543097556 -0.8933183102357611
2117 -2.105581372816472 -0.06950744926134779 -1.5110347158275148
2079 -1.1309669691539264 -0.9441017916692387 0.10188813940285578
2082 3.6552375962053034 -1.3501758216357105 1.6397044712162252
2368 3.840199016353642 0.12469751784653037 -3.966946826002847
2405 -3.9588359615242825 3.9687730586222654 -1.2692006483519962
2370 -1.8777621199139491 1.7706498716948045 0.5056258751931283
2367 4.17174134965212 3.6010070066213915 1.4542255862752764
2656 2.8187281823663 -2.843543341828973 0.5590244868374639
2693 4.540260906094955 1.0996508854101645 0.29879086777434094
1540 0.1562598363938913 -2.7718066465822924 -0.7638392731562558
1542 -4.1540059154055315 -5.559867316826491 -0.9627398595951675
1828 -2.7587859773221997 -0.6544681637884726 -0.8682570289408951
1830 -4.514136125404469 1.730448444341381 0.9647675064736007
2116 -3.853385196058743 -0.3077172410607108 -0.9761034247041408
2118 -0.6595456823625506 2.5558717402031825 -2.9553393580504514
2404 4.693595441625283 2.8785128360278787 1.6014539780237171
2406 1.6353304266740343 1.0328481334987558 -0.5160208723993027
2692 7.200792187678395 -5.189718592249451 -5.0477550354683265
1539 -0.7892517641114443 -2.702293788912741 3.5294083720893212
1577 0.39848506456068716 -4.2533737354072505 -2.2162523591807153
1865 0.741970516959279 1.1508281785840764 -2.43980692750307
1827 -1.7720769672199985 1.1761400758036582 -3.5703642183643245
2153 4.567293642421963 0.012274019702302524 -1.1786604690463822
2115 5.420878721167524 6.608836733351793 -0.3895033887287758
2441 -3.0565860694846587 1.2851601547568159 5.038274225547021
2403 2.1894116903861884 4.0038690685600615 -4.123094237897145
2729 3.303289217067386 1.4017055383550867 -2.5490334567681874
1576 0.3636417323331843 3.7211528651241736 0.9652183817859156
1578 -1.2931940467309 -0.04815548882129393 -1.1621500599506227
1575 2.7246046341800016 -1.1283138130251311 -2.70674543861955
1613 3.2928537344516857 -0.7779122637371182 0.9568901277235752
1864 1.9542765291574111 -0.1367454717726254 2.6835429131648585
1901 3.3922822230633973 -3.164611652240325 0.03542207837427525
1863 0.4131356637290571 -0.18749423358379003 1.4276481563766088
1866 -1.8703628069619795 -2.2431208852185054 0.3213077623015745
2152 0.4181247030447965 -2.9124891181352286 0.8987840323339951
2189 -4.400696996173767 -0.06257166184429896 -0.4412562678144858
2154 1.5007026575012181 2.592580914584924 -1.0629845563694706
2151 3.138951831720781 -0.5414919181080051 -0.8559735457288818
2477 -2.0619308508962093 -0.6308834894679476 -2.1674242042687415
2440 -3.0736147422872393 -1.8470987308543119 1.3050775311266818
2439 1.2303038687493075 -0.9329744845010554 0.9490909724768789
2765 -3.251855141093049 0.37550421417798097 -3.712086621706337
2728 -2.1866939962883416 -2.7427768123687635 2.5411753753094364
2442 3.333469466903548 6.085480419197224 2.4823593738263248
1472 -2.3970548674123973 -3.3873318536409314 2.589535846006927
1474 0.27135915350796924 -0.603721930358444 -3.904977224476003
1760 -0.8081262596413454 5.240694873830789 -3.1186655125295277
1762 2.82205340955403 -2.4561780441185137 1.0019829384059429
2048 -0.5725766913056375 0.7499525044179581 -4.48249953216241
2050 1.0893506415243743 -0.5227476087979048 2.242380215577727
2336 0.6273118431774317 3.151695786184484 2.7482622682673847
2338 -1.580979161652217 5.843866011944236 -1.1917847255943042
2624 -0.17837660538907016 2.246189973098191 -3.502592631377667
1509 -0.587424440853307 0.8261767491872691 1.9944175054821587
1471 3.0820790616809735 -2.85124727302679 0.8280703638639484
1797 2.3539762368067727 -2.911976169774704 2.9896291517279985
1759 -4.108444965659312 -3.0369538976232286 -1.035798149965449
2085 1.834895781021313 -0.2653782662009708 0.9507810970037663
2047 -0.6340430624115587 0.4661583889928921 -0.44725787410314943
2373 -2.6308764444704655 2.289852541139509 -3.065114019756529
2335 -0.6771569792120159 -1.807049541422249 0.7826002487676705
2661 2.3854448889510294 -0.758301532668856 3.2064923154791227
1508 5.746249582840253 1.0518221775076104 1.1426554016705928
1510 1.1273192014761995 -3.6154863929005243 0.8333898572667022
1507 3.738812160096246 1.0793133819934697 -0.40060379974962246
1545 -1.1781102779029269 1.317835032075095 5.533736309054235
1796 0.7467681434087218 -2.683280768691195 -1.2988927216807131
1833 -2.013028995949619 0.369987222475601 3.259984505512773
1798 4.862984368692718 0.17923326907900777 2.3755813858486956
1795 1.548212127493644 -1.2973200036870685 3.5725360565761637
2084 -0.4187578255978208 4.199031715318239 -2.892861549651853
2121 0.9648567064909258 -0.8118916444715234 -0.7378234207612029
2086 -0.1123369629356646 -0.6422519036137092 2.6144374742996126
2083 -6.253425666003965 -0.20530247305536928 -2.256446564116139
2372 -3.013368414387015 3.995742743477263 1.4556751911531172
2409 -1.3307370708982922 1.5827580128611183 4.800114004571286
2374 -0.9580102264838629 -3.809872132319176 -0.5337182322848225
2371 -3.067222558024425 0.5618852323601704 2.2028367066351513
2660 0.1443092999071199 -1.1724155505191236 1.983945892317445
2697 2.5141541007691512 1.0561765837123134 0.11616163540200188
1544 1.111924995744114 1.3087916362717666 3.3232745770575955
1546 -0.13154937939270273 1.2271778963897597 0.13094670646248824
1832 -0.26724477522410295 -1.2522573240215011 3.4994721589152116
1834 2.685660989525265 0.7746537689029288 3.511703829662947
2120 -1.1820629855016451 -2.985822035200559 -0.8660853299055811
2122 4.181147527700632 -3.2650916530696494 -2.1384950854862135
2408 0.606760171078495 -0.6171210836027111 -1.6299011013934501
2410 -1.1056482296553285 0.41889606992122685 -3.486010983621982
2696 2.9245243595711647 -1.2487337687208409 -2.8630987171748417
1543 -3.562224770989919 0.8497681452131755 -3.678793801240913
1581 1.4339376769951544 -2.2405158453085794 -3.6016891708580925
1869 2.9304461468510428 3.913351114279866 -1.4691696905148586
1831 0.3879107462162766 2.3707538678592055 -2.2651165456746214
2157 -0.30910878085798277 0.44180188017715155 3.9660457045377764
2119 0.5687499893288276 0.18822668843436285 -0.20511542245491726
2445 2.774954444104491 -0.25631081066327194 -3.312162895702388
2407 0.03778016855865878 -3.3480375251776464 0.05918920829805187
2733 3.7349146496685677 -5.238731702455266 -1.8327684884776876
1580 0.7188312038998316 2.0125547344561334 -2.1483850052235067
1582 0.7058005033547406 -1.9455678173678197 -4.0088161923445105
1579 0.27301490312769244 0.762153742359355 -3.4789495918773556
1617 -3.3068270875544266 3.3051173738848245 3.209298696009724
1868 2.5528298294421767 0.03180293524587029 -1.3453199959334747
1867 0.6407800080370966 0.43602688940341755 -0.5507126784138935
1905 2.0398793335825305 -0.43154889866967683 -1.0871709176799833
1870 -1.8449601819233286 0.036262823431456905 -3.169034175072692
2193 -0.40077546780377005 -3.3121132159759177 -4.0667631166491285
2156 -2.8509012948270205 -4.01399204011294 2.1865409229935455
2158 -5.610848184114715 2.3968130465478974 1.156420370517979
2155 1.5406298302730674 0.49372007944772256 -0.8954809170298278
2444 1.316163510236613 -0.532412232964331 -1.1782071314233897
2481 -1.5662006950867011 2.316136599933851 0.3446725781510354
2446 2.491485133025022 1.060264486494704 -0.27829849388960204
2732 -5.2509387809416985 1.4398077394528568 0.20620651430721967
2443 0.1687819811533822 -0.9966795959691569 2.923605360929895
2769 0.6210913815294508 1.8740470995249197 -0.7820767646752778
1476 -0.661869841041614 -2.029193840729964 0.5477930437477431
2123 -2.1604964206456883 0.5438719977571691 -0.3952823983965071
1764 2.395105269323868 -1.3731839388432519 3.0277698191070592
2052 -1.8323291087347187 -1.6678493010066326 -2.4435429089246106
2340 -0.6566238535079808 -0.42054304442489243 -0.41630569437518317
1835 -2.758576438972705 3.421364309186613 -0.5093746076493274
2628 3.217272602507539 -2.842233003561919 3.1352905290021713
1583 0.3186012285856225 -0.6187182250789205 3.5143738194668823
1547 2.9057888177235416 -4.33151167589511 0.9233536147441365
1475 -0.9576840662679267 -0.513934277085679 -2.5592487317509303
1763 -1.1822219224913013 -0.9459943692164806 -3.9940268399460526
2159 0.2336420590420027 -1.578761916601855 -3.9104916126400555
2051 -5.766370269992748 4.292154722811918 5.804333941547325
2448 -0.7822521523510092 -3.625859020801775 3.478795172154226
2339 1.951196525479607 -0.2692688984685096 0.14863858977963731
2736 3.7333229968211135 -5.210249738783395 0.42398112050909276
1512 -0.2283328297041803 -3.1833530135552564 0.7458769663351966
1511 -2.9280333827393843 0.8815627749109374 -0.3268523627754991
1872 -0.01755627360757775 1.420989077427314 -2.931998743539503
1800 2.0545031652828034 -1.0234050074147487 -1.4175234544094337
1799 -1.0681257411414018 2.845331938317186 2.7490142398987945
2160 -0.2908980679606761 1.8494495817968866 -0.9018408127474672
2088 3.2574855309031543 1.2825826788197412 0.37555124209278773
2411 -1.153946703429504 0.3973094490845346 -2.18334876993532
2087 -5.419286660700626 3.1438936222752694 1.1303657601679231
2376 -1.331714327222808 1.1232754926525848 1.2153560714498965
1871 -0.226822632321809 -0.9736908604883663 -4.07523963547173
2375 2.6009011453648605 1.021951552409501 2.028402779648091
2664 -0.2561231145350599 -2.2130400036330955 2.5845000464143104
2306 -0.6177065330636726 1.9080847710064055 2.8994083522910543
1548 5.490147918940775 -2.9312177643853787 1.3184190914116922
1584 5.136749223673058 -1.814141487940275 -2.8398194270084014
1836 -0.03801273110413343 0.36608050009883975 -2.7757308166484664
2124 0.36940421155736836 0.3084506735520132 1.8919178109006058
2447 -0.8111593398123683 -0.290351099382542 -0.26618712603959166
2412 -3.065070946739395 1.364985414155185 0.0606835449076615
2700 2.0504904053088233 -2.6645703130612635 0.9588358971371553
2413 1.7957390939725084 3.0277267068292484 1.349390642092758
1730 -2.1776363295136503 -0.935997534038832 1.031808550005226
1478 -0.2122451804096367 2.204843839731608 4.77931596375648
2665 2.5187214347952183 2.6883031624252465 -3.1138950660624833
2089 2.046525116099816 -1.1955405062217945 5.730761643330612
1442 -0.5641179555339989 -1.1979829737263241 0.40176568369565513
1550 -2.99583478669007 -0.14317140920347068 -2.6702154127921096
1765 0.5585622897071988 0.8360839341791186 1.074579152085118
2414 3.264646141450176 3.77044929878403 -6.872021599303378
2701 1.1144775444810475 -0.5576931340357872 2.304266531956034
1873 5.513566287125985 2.2206668200997264 0.31552042064493374
2126 0.4561223522615908 -0.931974881404905 -2.0739314569421836
2378 -1.1544021744820336 3.2912827411905625 -0.12726593226912886
2341 4.362977918924668 -2.709199571286262 -1.522470167285522
2737 0.6416755885160298 -0.07393367885161571 -2.6740701905741027
2018 0.885991719181077 -0.3754995997617407 -0.9146728826827798
1588 3.0446910814722576 -0.2733653007353537 2.074942362494208
1876 1.8281865956103438 -4.632669905985147 1.4871961699537688
2164 -1.6655686598415895 3.3891539710003022 0.9990089892797359
2452 -3.396905811998842 -0.16999197207852548 2.1180102833225347
2740 -4.645726283572887 1.5040017820984355 0.07714871494576304
2563 -2.2340811163156213 2.14601528001269 0.7942576283845851
1587 -5.03826256753317 3.732836753267157 -2.1844638344265155
1875 -1.78372187207459 1.2711609048365444 -0.5474650420894639
2163 4.149852526961818 0.15493673548842382 1.4376470177233944
2451 0.5985808271366069 5.013363313193448 -2.422461345400398
1624 -2.685874941731528 -0.14937330375483734 3.9373981065690784
1623 -1.239493605926757 -2.453901682436469 3.744156868147691
2270 1.663704233555809 1.213659781299157 2.294328278980098
1586 2.619659916984788 0.7923965048271346 0.6809026267633327
2486 -0.30750262288374497 -1.6031612798074155 -1.2812757559986574
1912 -2.6447293186766796 3.3829601869679298 -1.881425076375142
1911 -2.641297283604786 2.174983863530594 -1.9780915000038757
2200 1.2173208290929025 3.291426325220359 1.3287960063175028
2773 -1.1900650317319208 2.4849204206804436 -0.5213275872880152
2199 -1.5973306471557036 -1.1874211068016998 0.11280412856200459
2488 0.3559961211354254 -2.30099401999819 -3.4799332843374264
2776 2.677579556237068 1.3060807869217708 -3.648552531325475
2487 -1.5230885861694095 -1.0605569612021934 -1.137116058199602
2450 -3.7256357563541926 3.879817346826809 1.5509828547454634
1660 1.52030600973721 -0.4708828369924223 -2.146706577317591
1948 4.210435682534238 2.2902281136202833 -2.5342655228326034
2274 1.0571836585488679 -3.959813016449881 -6.188316418972781
2236 2.4944366442450114 2.392128471952411 -3.014209069592659
2524 -3.567237635868656 2.927875015488235 1.3217644140259444
2812 1.1341657160185046 4.370728854583343 1.6152561919933166
2309 -0.10886699429869064 -0.05720838348390015 1.6836404703258148
1659 -1.8864370518762512 -0.2953772397791569 -2.2822083094608336
1947 -1.6730625386298708 -1.3562297046253968 -3.015962536483129
1945 -0.002616353963174279 -0.819056871189577 -0.15839215304654164
2235 0.12880612112141357 -3.4841354032729592 -1.0369634882728058
2562 -4.507451477905318 -0.04512800671542807 0.84728472357237
2523 1.2018843766708605 -3.2238620926567516 -1.9980716127816889
1696 -0.24514581466800525 0.6443292794823409 -0.5206893545737348
1695 1.7474613802319565 2.088553194278629 2.0679403643762555
2597 -4.425251784143969 -2.358904966670589 -2.6686609061114175
1984 2.5295562631456368 1.2636411579673887 -4.675891815109784
1983 1.1068736098896246 -0.9699527898041915 0.6370828053837688
2272 0.9202840054259148 -1.8853070879247398 2.184871599506252
2271 0.6450394564824217 -3.23118576672508 -3.407039705625351
2560 0.2702169989559674 -1.930086382336358 0.8171521644973918
2275 3.3235975121326637 0.7693286677191193 -0.2865656478389639
2848 -1.532649982512186 2.141623961539588 1.3417516716903848
2559 -0.6088712017664666 0.37592330960914094 -3.22187593861216
2852 0.09441264677560338 -1.8061992369699593 1.1802515536836173
2564 -1.801120462491831 4.340830982955959 -0.03832629755905705
1590 -2.747701253684518 -1.1291128411564808 1.5518757138017303
1592 -0.8946540209885637 -2.215832608549854 4.054878222776079
1878 -2.9242748008495805 -3.2330454125373618 0.4298165631155489
1880 1.3515716692304418 3.612270422257363 -1.0073957842198664
2168 -0.6331155424637431 -1.19077968473118 2.35949434193723
2166 -1.0624837312905342 2.4069425419479544 -0.23236886064941373
2456 -0.5077856882243255 0.23723088789390098 -3.399499186372391
2454 -0.6245532135582244 0.7084354505079586 -0.2685797816204539
2744 -0.09275026152060038 1.7881688408507017 -3.5096543706431262
1591 1.567258212811627 -3.52129513610641 -0.13305539942837533
1625 -2.625863012847314 0.6497721441441318 -1.8177561832029367
1913 -2.478654954072135 5.3088956925090995 -1.3153718191090211
1879 1.4144541308448615 -0.9866994418142468 -0.1122917071418017
2201 -2.019029078850406 0.7468058579739396 0.4780175939130084
2167 0.09140963438619011 1.9869095347924124 0.27293674724222117
2489 -1.8467570092780003 0.353099413908465 1.807083232512414
2455 -0.2246169432143767 -3.9507639901228244 -2.9751849509931385
2777 -3.9813684411384105 -0.3185904405674984 0.05495537991742366
1628 1.4127096887090318 -1.9620177819168074 -5.67087432842461
1626 0.6137728010822983 5.242559658801132 -0.7211116068327041
1627 0.9134131335614826 -1.2163458640583382 -3.5369140498372564
1661 1.2051076018863662 1.0446012407024783 0.3653500444508116
1916 -4.144769409956113 1.6226538010662293 2.705764163288742
1914 0.7548830210716749 0.09782426041958352 -0.8499706048927427
1949 2.591190744025235 -5.393112834453591 1.4877156312730473
1915 1.3033572592471372 -0.07424740436629249 -0.8082035174519809
2204 -3.9865127716163897 -3.9323592282826305 4.136715026378989
2237 2.7296070491866913 -5.64460259892244 0.6607135257876963
2203 -0.39942889568135526 -1.5087971841625065 4.563885513616566
2202 -5.22960247721363 1.2383419123678647 0.43239740293421364
2492 2.315082389186165 -0.2593824451509328 -3.4424463534701046
2525 -1.873771013845635 0.9934649122484546 1.6415600637560306
2780 -0.7158989910701536 0.7328529927012498 -3.8490706026126382
2490 0.581670363747373 -0.8518259920294773 0.6306750018082516
2491 2.984146178329892 0.5596069262235268 -3.051667304854687
2813 -1.6202520793873092 0.5634597426490245 0.8033681555779384
1662 3.0603547106563043 -3.1767184159711714 0.22360873186908667
1664 1.02602832607308 1.5913918073022424 3.6080710805175564
1952 -0.28755189481069054 -2.2211201169033483 -2.531061320002605
1950 1.147515674120369 -1.2774965040063457 1.910114849822403
2240 1.8386154385374365 3.8043973447341535 -3.9332599567504154
2238 1.0204239258434007 -2.8856334044702168 -7.167714883702211
2528 -5.789394011581332 -1.8206758238005378 -1.138712586400368
2526 2.852239746274375 -2.280570725730636 1.0776430088213693
2816 -4.030537941094404 0.5161419265833521 -0.08399098791652083
1697 -2.193785492746208 3.7917517163865995 -3.651559511587818
1663 1.5104263327247183 -2.395955728432469 1.3878557762351595
1985 2.67926467550058 1.92652037121218 -1.2535744334654744
1951 -0.9071179148261594 6.369226804717776 0.5393991852231432
2273 -0.8863422107797615 6.548190488032074 0.6733022814605917
2561 -3.2080796298682843 0.10516063746728477 -0.9190942638850629
2239 0.08363125031578708 -2.326296467592226 1.2015829112926273
2527 1.3753693612734004 2.0171378481548348 0.8725007584868972
2849 1.065473410161828 0.5936911371263964 -1.1745388952888185
1445 0.6333823971168013 -2.3778274642350543 -1.6300575563537847
1699 4.714331744438952 1.4786544920566367 -2.7754392272297617
1698 -5.868942172768413 -2.480359539860259 -0.9533382899532749
1700 4.184912713360215 1.6793459598685327 -0.7838822441396623
1733 -0.03673246889504987 -0.32187397196197115 -2.30765128313943
1988 0.14193057088185648 2.950256368812167 3.729473250808416
1986 0.5985222655518104 5.326910900116888 1.2431665015513673
1987 -4.402078996817117 0.6827568837936611 2.7246944797879067
2276 -0.8067354470119581 -0.14088628822582955 -0.7576335726099647
2021 0.25890148598407314 -0.2084107813296846 -1.504527848294595
1909 -5.12409248757725 2.9598493910133845 -3.1512602279302486
1946 -0.6516029189349564 2.828898438621186 3.4497149392052364
1622 -0.33826096226139574 -2.9569630885495712 -4.526428666136236
2197 -2.4850603422610846 -0.6485874092535522 -2.7126858009306796
2485 1.947367327037906 0.07821402954541751 -2.471087952399002
2233 3.8582276832011884 2.0999677969507005 -0.33157604199663304
1621 2.3483672277653347 1.5565250498784677 4.833146915773548
1594 6.5090154994562655 -6.377832212480538 7.767930795227631
1596 0.6722579483269006 4.222653768330657 3.547630267143803
1882 0.21419753709865877 -1.1343167049244005 0.7606067866595121
1884 0.07439587860344814 -2.510538873420287 0.7560202018360446
2172 3.1218325605030306 -2.0681550829451543 -0.7815701459810157
2170 -4.427605814651642 0.5745948508685053 2.95960305418411
2460 -5.598953282166443 1.3787170933397155 -3.634317899595511
2458 3.7930464436646822 -1.2999241115589562 3.7316066748407777
2748 -2.014223120855112 -0.06442070578599016 -1.6596224012727558
1595 1.7275374017920322 -2.7536195625109934 3.478764056425421
1629 0.8150206685331778 2.827876370428428 1.2480369457353404
1917 -4.463271489829852 -0.3880400311748325 -0.6903611506866819
1883 -0.5184966335772566 0.37274228799142634 -1.2399038240181517
2205 1.7422414013894207 2.0026884849243483 -4.905150858501929
2171 0.4638915780249281 4.276569243124571 1.8235661613402943
2493 -0.039478069771205083 1.0935026350347985 4.236982634907159
2459 -3.5930526298453986 0.1249760061304084 3.8812181562801435
2781 -2.924763268177213 2.8312521390814522 0.2485478509835778
1632 2.686636926670523 -1.530191190155678 0.5179113767188489
1630 -1.797545389416538 -1.6112111870601409 -3.0830284415069116
1631 -1.526397476014066 -3.86244230372944 -2.882314459221735
1665 2.9189283631692775 -2.1110970260567528 -3.511530299734838
1920 1.9470047358964422 -2.642239279342123 2.0632590888289104
1953 1.3672092421177735 -2.896400068379096 1.679323647049985
1918 -2.8268750605340665 -1.8816589463773266 0.9533492184864903
1919 -2.2626900525387885 -2.6178660141795054 3.1170935950761343
2208 0.997888554328825 -3.7058906404357996 -0.013036267941006999
2241 -0.10874263583794695 -0.9615860074433846 -0.0444173828579633
2206 -0.5393082446276354 0.610087430004538 -1.9123261551482904
2207 -3.3418320063318796 2.9796323199643187 0.9933635840669887
2496 -1.325969909195381 2.586311565580823 3.085550404409463
2529 1.322974786935774 1.3981154609032884 -5.451391499188578
2784 2.8131113160886128 0.15012122760831656 -2.104630633077747
2494 -0.1913879313777189 2.0784106800846547 2.4706939493605713
2495 -6.515271204593817 -0.01152020352311468 1.4294828947810454
2817 -1.0669549586891078 5.987792608485699 0.4996603026342354
1666 -1.7745891580644308 -0.8346592569081351 -3.367994368854248
1668 2.227380784634594 3.927740996258322 -0.8938829898016816
1956 -5.321206749629726 0.4144824360865974 0.8309484069072817
1954 -0.9707748007374926 -0.095595284180598 -1.6072427852378686
2244 0.43530055114553984 0.47279801206770034 -2.16132672263237
2532 -1.7417720590318806 1.0051935497714457 -1.1338913228521783
2242 -1.1786910074416344 2.5101957504755203 0.2016515231246674
2530 0.8754818399169586 -0.2610687513459791 1.4247401686635992
2820 -0.477249220729046 1.0787458587496546 1.7521563631484591
1667 1.758424683707329 1.91598804099565 0.39793305970130005
1701 1.4127791207150755 -0.6663681095360399 -1.1575949251027966
1989 -1.7604452511037407 -0.9969613445869928 1.2510064573843875
1955 -0.11238600353871533 -5.839068648543294 -2.5083357277238965
2277 0.3960740128779542 -2.9516481053285872 0.5083895777910707
2243 -1.3619180892438454 1.5870515226933166 -4.320481005555714
2565 -3.7055503662579907 -0.7534652477487336 -1.4613180042895806
2531 1.4159250353000399 5.6036498489953495 2.533550901883981
2853 -4.634853505886514 1.5274652986757027 0.49281753556442065
1704 4.711076141592626 0.20588571930818905 0.7596331291285023
1449 -2.6222427913975768 -1.0290432496582484 2.1149229837742
1702 0.7139684786592285 -2.1911497733639944 -1.2657258799434021
1703 -2.440978799946285 3.4707277671722574 -2.0147219396084957
1992 2.005806176912781 0.062357881393229765 0.6871520521040939
1737 -3.9575820989534884 -0.5203931832841988 1.1480308177288887
1991 -0.09310097002167647 0.4699039574164564 5.281684915692648
1990 -3.003371882940994 0.49303673190004815 2.882201135994298
2280 5.158062458114153 2.267061849936821 -1.8293504897532724
2025 -1.9210194168948227 0.8714265014706197 0.354149466647215
2279 -0.5445824392205794 -6.857198530474975 -1.935400750580289
2568 2.7596602904799528 0.544086422308326 1.7454016794982452
2278 -0.8476793176459338 -2.0702398204091494 -2.738195782531582
2313 3.1141146524365206 -0.7816964568654272 -2.290712760424941
2856 -0.6929574261561159 -1.2510670719140002 -1.0388929161643639
2566 0.8008336066987018 0.743144609668399 0.6829644299299336
2567 -1.5424130730784755 5.295520701634732 2.1360274338007375
2601 -0.5269009511739232 -3.835103130725751 2.3282006304127125
1598 4.110716842741203 -2.470408854974961 2.335319598121694
1600 0.14782349410987572 0.18567493423500292 3.8026478244586994
1888 1.0966276645399688 1.4039469648540843 0.01085316075480143
1886 4.72822431942069 4.634811261192668 4.949588339744535
2176 -3.0431295518330086 -1.586268896874346 0.829915989566077
2174 -0.8900577588070979 0.2014099299959274 5.533745100530195
2464 -1.9681898489029963 -1.545571160839132 -2.343636380871026
2462 -1.0121676035109306 2.062461641782458 2.9506441300909927
2752 -2.297809013348138 -2.1271575601992856 3.8520832463331867
1599 -0.6812871892721497 2.0354296963982006 2.152251137672787
1633 -4.5391873114502586 4.609390587898594 0.0865797711456168
1921 -0.3992062804095956 -2.503837454738404 -1.3994625830886007
1887 -0.07735869552625957 -0.5079143674441073 0.2700113528956779
2209 2.1399816722391987 4.567365037586484 -1.1135569013188502
2175 -1.008414026435837 -2.3573549445478768 -0.778053994535531
2497 -1.9704977237710175 0.4235817399028448 1.2263674651551288
2463 -2.6428118249219787 -2.4402096323872597 0.2710509692107249
2785 -3.8439087033078883 -1.5224371393863587 3.825297505146504
1636 -4.609760539378828 -0.4065106865612263 6.075881230711843
1634 -0.3252737780735887 -0.685627815141682 0.7547910263775889
1635 -1.363676114758318 4.6065431730173 -2.3598721415986965
1669 0.7861312440617035 -2.314296770170719 2.8156118251413718
1924 0.9957071135365176 0.20393797967004557 -3.111840121644127
1957 3.889116069462107 1.3944633692676758 -1.1558897982113172
1923 -0.17364799290441785 1.0247174867210753 -2.470267411898957
1922 -3.053485201267805 -0.41273953988985096 -2.9364156777257
2212 1.852442077018381 -0.3864797049185722 -3.7459523693249595
2245 0.9499409763568751 2.2021495896049417 1.5606943503111728
2211 2.254560859254033 -2.109695965252453 1.7225563889374274
2210 2.870133480417123 -0.40863978512019694 5.729229561457689
2500 2.496154824736799 1.8095976079700975 -0.3135930649954322
2533 -1.0697908023582345 1.7344822905777926 5.504308125056529
2788 0.44587076513893026 -0.13397824293923483 1.4235010780642696
2498 -1.340933601817249 -4.408235250171385 -1.6077802139143698
2499 1.4734951544499975 -2.308555516975276 2.5780506169230404
2821 2.1028359746753043 -0.3787114876187131 1.9167821173934327
1672 2.6750926982414787 3.0810140994592414 -0.5411612364453635
1670 -2.156250057345738 0.6157931532806613 0.6717582588798435
1960 0.8147342532286639 3.3298873916856473 -4.284950101727461
1958 0.9923093295315988 2.6011210169974315 -1.6495869818100162
2248 0.7804778804372279 -0.20788394399571258 1.2403981475629755
2246 -3.4915044867488816 -2.7147949477142386 -0.2129997913259989
2536 -4.590235389542149 1.29628602668187 -1.9590853876810168
2824 -2.698851327904149 -2.7042689702051854 3.8662825397887026
2534 2.9138628630190713 0.26283364344106774 -2.48116315830559
1671 -2.720881986610307 -1.3129786334967861 -1.5324958507453421
1705 0.8243984244419043 -6.586014092003053 3.83832530640892
1993 -0.673002433518336 2.3104188090385605 -0.7346152363676618
1959 -0.6978599562102431 -0.2117101927808416 -5.391886051283827
2281 -2.5582263678691577 -0.6518250909921488 -2.7426643340264767
2247 0.39967611655634905 0.3751284122240734 -0.7665747703184046
2569 2.305111916201326 -1.4304665919990935 0.4608699555566782
2535 2.7527635111247855 2.4334690806667125 1.9931014980665234
2857 1.6333881154938776 -1.3270509313705023 -3.9220355434153507
1453 3.3265584956603327 -1.4828250499401012 4.607857267938606
1708 -1.0478161426856096 2.5863521868385346 -1.7252877316537507
1707 -0.26741693045189757 -0.2955440026777072 0.8923485279663201
1706 0.9883781752911402 2.4684103441944245 3.5862647932034997
1994 1.450168062864137 -1.009171814412185 1.468803053027708
1996 1.942368952838141 1.1009778766398348 0.6377557753832063
1741 -0.47496094974895053 2.3377865771406974 0.8785304134513736
1995 -6.850934414445491 -0.23238112848306966 -0.18340570619334062
2284 1.4328566563520806 -1.2536500073638877 -1.1935226935001095
2029 -1.2415568110818167 0.38751354400119353 4.340626774781713
2282 0.14168520413333058 -0.10547355342749398 1.465648446869953
2283 -1.6440413975210164 -2.1572523126110514 0.6163879571170479
2572 2.8988970708974793 -1.8905127477034438 0.7761460223115697
2317 0.36472603532110104 -0.9453186860198284 -2.4297791620569273
2571 0.5860163449532504 -0.5865943376109449 -1.4782367488077215
2570 0.7075369438523577 -2.8724058468871614 0.16597572319635534
2860 -3.5022942067392178 3.9059239388292597 -4.156112785120539
2605 -4.160867907435747 0.9192792358680167 0.6380167408955696
1602 -1.9141694143965904 -2.4699018835734683 1.1192233380746968
1892 -2.4675424496933966 2.0218640102730565 0.18399762590819596
1890 -1.3102388256781599 3.2762276570310607 -1.891583011506075
2180 -5.742818511671787 3.367005470492683 0.703270363187869
2178 0.5967776534962134 -1.5680286358810254 0.6392481194702169
2468 0.7332343838635489 2.7840201148059505 3.4308646610399927
2466 -4.694658757386722 -0.4610693704564997 -0.9018410362945178
1637 -6.020996302389108 -7.709160354524108 2.341953925684933
1925 3.3309926632749023 -0.1944606904508629 0.11161522244947614
2213 -0.5098718007629149 -1.501156491777399 -1.9489207125474097
2501 2.4631435898130407 -4.180825658894987 3.2576361508644798
2789 1.3771462997293076 -5.666427312935943 0.7944445288591991
1638 -1.0786927578740555 1.4284381458401452 -0.14634749734864858
1673 1.7123490836774036 4.841367649560275 1.2782729404433832
1640 -0.9462264363995673 2.150270850691335 -1.7761213950565315
1961 -0.7071335480802238 -0.17878054760413298 -1.2501192876300247
1926 3.489807480124559 -2.121013205853891 1.314517093513778
1927 -1.980201509360385 -0.7584842565870804 -1.0887881858581465
2249 -2.311095634289281 -2.093116613212514 4.877877174198662
2216 0.969549426587158 -4.518758971186467 2.5661437787932218
2214 0.9910349971729534 0.7390059800982832 -2.974494354647135
2537 -2.464352021115051 -2.647854469767302 2.365710857118021
2215 -0.8831918691806687 5.006132139583434 -3.5257482892517964
2502 -2.575391494545255 5.046507367624488 0.4142321930678593
2825 -2.531261655536202 -0.1592109828045136 -3.715841649337913
2792 -1.8856935142954572 -3.5557948094010716 0.3950392305987495
1674 -0.57597070751326 1.9729630285575164 -2.6196919154828233
1964 1.311012423913776 -0.26799789702507876 4.5926337092397755
1962 4.255805464530563 -0.22767093068563155 -1.4550135763010525
2250 -0.6163635385365163 -7.037880818308162 -4.97899025200229
2540 -3.842079424384463 2.5107010420721596 1.7255729191591977
2538 -0.9461724597258541 -2.050541548536616 0.17545883879578558
1709 0.19346551678452728 -0.7131584981235869 -4.413734657269687
1997 0.6935572936301592 1.5033103115041837 1.838745404283866
2285 1.4408445187302041 3.5998311007570636 2.0495125517687094
2573 0.6071497922755862 1.0313544683925857 0.4294859891187849
2861 0.767199933624926 -0.6585689775462632 -1.5256687301680172
1710 0.3351555478663456 -0.6746131587459189 1.0052291262556872
1457 -1.7864253947043052 1.1101961836395684 3.666799709838178
1745 -3.0976541932340016 -3.7446363034107644 -2.9285528784811885
1998 -2.7274792526926945 1.2179098488573465 -2.4963828987943995
1999 -2.0351760409863817 2.8925399295308085 -1.647560223378594
2033 -1.1891313722953736 2.3346803820493727 3.775843238973581
2321 -1.606646323418644 -0.7967064135621851 4.532948698751267
2286 5.174841089588372 0.8376971659050111 1.1152747828967564
2575 -1.4667237411036749 3.253433196237607 0.23500767230579964
2574 1.1463228163307053 -6.753790019994337 3.0317432437710194
2609 -1.4979571714868098 -1.6284551388762507 -2.055255697143702
2864 3.1842064188176664 0.5124010156326789 1.692155177543422
1604 -0.10210922668227294 2.6897941682871496 -0.40320018668354657
1606 0.638503292415754 -1.4634547761894885 0.04508383424639803
1894 1.737808554183875 2.3810882388044594 -0.2491902938959879
2182 -1.093976454040977 -3.3694313917443646 -1.9315562335515901
2756 0.5486381135613816 2.391285461060327 -2.142465382971099
2470 4.422446776241937 -0.23818559943078788 -1.2818222237553298
1603 -1.1694918198543098 -1.6813230401985209 4.872989558586153
1641 1.0026691805127375 -2.86178626505035 -0.49693999455447846
1929 3.1713600332836935 0.8262024882807678 -1.1985676583871823
1891 0.779182352973331 0.726404232034718 -2.797414369786265
2217 -0.5945991269855823 1.267515108847126 -2.164732131358777
2179 0.7780820629296964 -1.826281526643759 -1.1590570262134368
2505 -1.154045852192897 1.2438866682801284 2.6020534032002747
2467 4.268927139791311 -2.5048188515814793 -2.2325564747063327
2793 -1.2591945671959437 -1.040443511446496 -0.5464318734101561
1639 -0.5277100737714162 -0.08345011590726913 0.666542350993668
1642 0.896192313341292 0.6903682507683252 0.8372143074316357
1677 -2.051153903567555 -0.048088455595561706 -3.8662131855047592
1928 -3.1351769781201084 1.0095402934461388 -1.9154035172535249
1965 -0.023290606286703493 0.03409968764329797 -0.36429172347419225
1930 -2.2936272675953555 -0.5489731143599458 2.6241792209385886
2253 -2.1730989266009377 -0.4303586674987813 3.5327792397256137
2504 -1.2596039218311896 3.4333170418324923 2.2062884608420577
2218 -3.100971004960889 -2.070599496129349 1.336622157352566
2541 -1.3090507194162877 -0.46280647191254953 -0.3047715231964337
2503 -0.4955186204558756 -1.9479408664512032 1.2923278680659724
2506 5.4411069304551996 -0.21256448741730627 6.114016621871522
2829 1.8421530746046175 -1.712279393220972 0.1725394852258173
1676 1.85082233731718 1.2260387679987792 -2.5569465756104433
1678 -3.6559311744709757 0.026659758104707977 3.663182912368686
1966 2.2252493978333336 -0.10512645168364694 -1.8341567666722103
2252 2.282192032650547 1.733435120204334 -1.8239813686999962
2254 0.4246529456396449 -1.8010971648000382 -3.4628364258291775
2828 -0.9626140440312624 -3.481620712451068 1.1889781325445237
2542 1.0459426623372243 1.5044164461653358 -1.0699842979088983
1675 5.893967587091329 -0.9341640478021617 -0.2396637061430208
1713 2.8312818500512726 -0.876894892048287 -4.237874910269351
1963 -2.933786984294398 -2.434598372306662 -2.0561862118226752
2001 1.826228509047978 1.164176315987812 -1.2304845592509994
2289 -3.4998824088672804 4.430992826141573 -3.602967749881366
2251 0.7601465639452277 -1.028204269219171 -0.3676565376140293
2577 3.268335522305107 -1.9214785511426025 -0.02649901722260541
2539 2.3768540890468937 -3.2257512554687127 -1.5967507081992574
2865 -0.2148787737653741 0.5851532389735968 3.389078984608115
1711 -0.8680001454236824 0.812025979650956 0.8919117974113586
1712 -1.2412237497620773 -2.263232316891159 -1.5542252374537724
1461 2.948734471261928 -1.0433006707732335 -1.6716990173838502
1714 -2.0799230426236996 0.30981077863268713 2.6285194818859567
2000 -3.4942479941903963 0.951018724263694 -2.9587250736681727
1749 4.810141977381856 1.5565700994059197 0.40977786147097567
2002 3.9929734910195527 3.663851962852747 -3.3337739260677397
2288 -5.113741315815372 2.646284777187065 -2.2968232817067213
2287 3.030254547924248 1.863221406343356 -2.8444878746216613
2037 1.707890951331733 3.1877654277556813 -1.278344736605916
2576 -3.941271538525234 1.2319142455428909 -1.2305778949556274
2290 -1.5837153170200424 3.609598428740029 -1.105844056750295
2325 -1.909946724410906 -1.8109869273360466 -1.387406558759637
2578 -0.35573403897573724 -2.0508273945030706 -1.6574832870957856
2613 1.065254026062377 1.4717347547136863 -0.020150470421236036
1608 -0.3994489663298581 -0.029380220590296484 -2.8444616738284054
1610 0.008961795464315837 -1.298549822302798 -1.1133396078671556
1896 0.7302665040077626 -2.663642492049714 0.5679151823992193
1898 0.21174181242754214 1.2805344558742762 3.2668476136562186
2184 1.9721530609254445 -1.6436444785186495 3.9792555554164863
2186 0.6019142598613425 -0.8547933914029643 2.628547565553094
2472 0.01741735053326715 -0.2995229542204377 -0.36988874436724534
2474 3.0243758235944647 1.0502142640098717 -2.3435389583158313
2760 0.7342492380171155 2.894224599259301 -0.4479783280382384
1607 -0.2039438815988006 -1.9746395855454553 4.454755471137053
1645 -2.1595130575617802 -1.5150527923538 -1.8337649333953023
1895 1.107939376965308 -0.14396409913884559 -0.16916327266133419
1933 -0.6119578223380268 0.695128389162223 2.5190573921756867
2221 -0.16197376653109308 1.039834291943063 -1.2547576344836175
2183 1.4026815879702914 2.386204224576527 -1.6718981850022643
2509 -2.3607343488518486 4.8073149714576715 1.0714484160536943
2471 -4.738529309386999 -1.6243527373121966 -2.0795669214343153
2797 -0.8945544847355872 3.388166533280967 7.370828047573697
1644 -2.3287216830857087 -0.21340460496402705 2.1057120488640866
1646 3.205103142431297 1.3289990803652352 1.1848951802366898
1643 -3.1757372719182437 0.7736663146071022 2.7823797953062654
1681 3.6175889451854744 3.4073178771590658 2.746985071513339
1932 2.2476890501223084 -3.817323137476778 -1.7622785033900208
1969 -1.2074030805850298 -1.3625081803763321 0.25632213371583606
1934 -5.210464758840292 0.12884392690338917 -0.6015747872065111
1931 2.642613248026812 0.9483339509633766 -2.457562846215223
2220 0.6744119361955165 1.9145696442809523 -0.13716116189367492
2257 -1.3330929873191488 4.050029709575175 -1.44574294102354
2222 -5.334362930923275 0.822302521379843 0.8033854821730312
2508 0.634088988483117 -0.4431945096024098 1.0582188765913318
2219 -2.2396039636504304 -1.1814626994934787 1.6127384574573165
2545 1.8756450448337867 -0.7317577244951352 -1.2450124675106726
2796 -2.303397882340553 2.374655274858368 0.3311250933392652
2510 -3.3661887071618866 2.126478425042494 1.5241435641462195
2507 -0.09158227895230314 3.4853957456135785 4.090992046990495
2833 -0.3800195285755536 1.2198072344621647 -2.4334620431864495
1680 0.2775286055070197 1.6056980556179532 -1.8085140931780186
1682 1.4539154604767222 0.36934232600264805 2.216926573763516
1968 -1.8742125460072332 -0.2961350114895223 -0.25226750386133917
1970 3.919677125177621 0.11946411749784856 -0.20088722017577573
2256 -0.1729072444032838 -1.8208692019968138 0.4370669000407933
2258 0.5540586761845405 3.1885504245646485 1.0186427242266256
2544 1.631573326091472 3.135084696300059 -0.0726946043459078
2546 -1.5259349144692385 -0.031836028917477534 -2.25036697831579
2832 -1.9654987525398644 -0.15595210939645857 -0.32345893844952817
1717 -2.524925839115505 -0.5985451030425217 -0.06320678291300821
1679 1.483938111868281 1.3545732280507374 3.913643109644512
2005 -4.688182740062716 1.1893923115040246 2.1858765268659144
1967 2.871649989133714 -4.061626956934679 -8.034734891317548
2293 0.9904106162408883 -0.7454854975714373 -2.4003407850926943
2255 1.6510863334706083 -0.5581419377937036 2.65889821368464
2581 -1.4934248994903478 2.8188331592373355 2.5260726312880135
2543 1.591249167029884 2.1079504666773783 -0.8422708313720794
2869 -0.9480791132822993 2.844686674747135 1.3136314652962582
1716 -0.6795862408391817 -2.296892555160727 3.965282761355302
1465 4.693176175812131 1.9089530962357002 2.0186505967864146
1715 2.319185765160822 0.643272578216898 -0.19216684525566047
1718 3.904297719578157 -0.4656132176713352 -0.4298861724519743
2004 -0.23199631471844703 -0.6237772426492648 -1.1310200898882112
1753 -1.4159890979120067 -2.1861551952597216 -2.525620738673791
2006 2.7959553065643257 -1.424651002106206 0.36633691455603445
2003 -0.4675097148489467 1.323872422634933 0.3006773233516405
2292 1.3838852918788422 0.04522707101268623 4.440746340252464
2041 2.4028227741819723 0.8710074700719481 -2.588344437399163
2580 1.6650684345941273 2.1610437552073396 -2.9521049197376503
2291 -0.35623071580582977 0.035436546935976795 1.9266805216930034
2294 -2.4555054122257856 -2.5968059680469393 6.869881322989489
2329 0.13636818874528492 2.829228356103005 0.5867209626949107
2868 0.7841280760703899 2.3129923577405647 -0.6515845169803315
2579 -1.1902443945605732 1.95111880494426 -1.1825627616748091
2582 -1.9934456340882862 -1.565521380653375 -4.970842095155083
2617 -2.7252790702605445 1.430731723834815 4.216964993916706
1612 -7.509790553805477 6.418210016883877 -3.0442732824950687
1614 -2.1813305577556132 3.196147019105485 0.18916492281523495
1900 -2.1836288746875163 -0.4231778786881655 0.7636929033198084
1902 -0.49940493287293414 2.6580659067695533 -1.593769470398828
2188 -0.33755832582663653 -3.2331714265282323 -4.69195937288583
2190 -2.859663719651228 1.620620025693887 0.12252236178714523
2476 -2.2148629781419396 -3.0093885814322223 3.3920827563679787
2478 -0.6826510726901118 0.08994271168349689 1.8593259545691692
2764 -0.9141228935601856 -2.018151729179676 0.7229350355863915
1611 -1.9043014533793683 1.8361797950307084 -4.2106757372786054
1649 -1.715602584867493 0.9034329278394406 -2.2329777856712556
1899 -2.6403806260212255 6.071637124034625 1.5520654925612791
1937 -2.8495480831410283 0.8099534395910039 -1.6988529277243938
2225 5.701916482078984 -4.083729103601845 5.085610629654176
2187 -0.8510200272798748 0.21319405706402098 -1.9116186943490188
2513 -6.291083457071391 1.5276908812098193 2.6887097996554203
2475 -2.788393484321456 -0.25674330245300603 -0.11791396435032
2801 5.2843242083904345 2.643914562836956 1.1062055160172082
1648 -2.9807783940458052 -1.5335251124009566 -0.9175481689440392
1650 -4.112234931233326 4.413678466032762 -0.26028620502045346
1647 2.4517152455917723 3.5704438190592733 -5.970890361361757
1685 0.11478467945508614 2.3849373875499555 -0.9212969963968942
1936 -4.1045608253465655 -0.275794926198922 -3.596848872585352
1973 -3.4865611346773866 -1.2611741820516607 2.8376382804424165
1938 -1.1764324923935225 1.9522554714819034 -0.5346471910451616
1935 -2.386537871671541 1.7568664560664868 -1.2579825675678662
2224 -2.2686342102073973 1.8830632576098567 1.3219420545942924
2261 2.3421256406088924 0.9311723446652598 -1.3401874015856012
2223 -1.629800730894244 3.010994739418687 -2.5423589378598717
2226 2.1472038204426127 1.3403733129383932 3.595551574568179
2512 1.2508103116761242 1.4902005635204076 2.940368058041997
2549 0.5584181210762037 -1.6628958553914537 1.5981960688537018
2800 0.3241790313930148 -0.08169170740289466 -2.0216832979022414
2514 -3.1670834255605294 3.472047200289535 -1.4982231005029032
2511 -0.9439525912332191 -3.712335692737398 1.6487180925388487
2837 2.0555520808877987 2.6732501603191183 -2.2340668966671715
1684 1.5209385807371982 -0.2414643377350833 2.112656873582652
1686 -1.032456584242221 -3.5469259254762897 4.993765850610965
1972 1.0884307163712865 0.46584140659756684 -0.9470335514537651
1974 -1.3317693451498775 -0.38447210060299164 1.2934443853863151
2260 2.4066283844909346 1.962341223613641 0.2792118651701542
2262 -0.5290904672685987 2.400190374933145 5.071060180901458
2548 0.8558186527708918 5.103947956037624 -0.6711415748957742
2550 1.8251305274818665 2.775777400834113 -1.6965227274262045
2836 2.0179474766716394 6.177403953787832 -3.554358533618553
1721 -0.9427849705788631 3.1782520636429 -0.8313558471996335
1683 0.40330577441033827 4.417353471937282 -0.956463716778942
2009 -1.066534197964293 5.798907269198823 -0.4567468905782717
1971 -3.324696421508626 0.5177357148305939 1.992243242612653
2297 -5.002877211243905 -2.4655812549997216 2.2617643965404084
2259 3.452951354533188 1.7734920184145528 -1.702911880853103
2585 1.9246850387998402 -2.1595969663005636 -0.03332362529898997
2547 -2.5682309305868483 2.369721289071214 -2.596235971994183
2873 -1.0022736430526857 -1.3455373020149453 -0.1211389479440097
1720 0.9380570074406296 3.43335236152459 -2.053116274238718
1469 -0.42958615775262726 -1.4891462221368674 -1.3331574125305374
1719 0.830316745986541 -1.2630175520055755 -4.3803855594169745
1722 -3.3837176977844106 -2.934896386100548 3.079926984793696
2008 -2.180259252872074 -0.26798117234315433 -1.955874051414388
1757 -1.8387623952889844 -3.4119700318361263 -1.802275831922633
2007 -0.24626862315354964 -2.1082888377928906 3.0354767581472686
2010 3.821403895322326 -0.07002193874417448 -0.17880255935538533
2045 -1.3788101839263696 -1.116259115310801 -2.2710082055281413
2296 2.6242880001363913 1.6345826714665488 -1.5232025321262133
2298 2.819518485230476 -2.162856685230619 1.3105503429846008
2295 -1.2761617251380888 -3.761384123239901 1.0914814371594348
2584 2.497632618135692 0.2667418992187279 0.7013301052864358
2333 2.2650761191346174 -0.779555602929192 0.17132972270200764
2583 -1.4498456853308004 -2.9074573296337336 -0.10952477449960552
2872 1.6315123905498476 1.8327375856587877 -0.2489956363144191
2586 0.3817161467301568 -1.8574088731989429 1.9598067282850467
2621 1.9471001774870276 5.420199636537939 -0.1247247913889993
1616 -0.42183335496026664 -3.8683703119425634 -0.8840757416041795
1618 -1.9452817458658445 0.6575673858241976 2.0955578506873613
1904 -0.6296289505448799 -1.0805868187279142 3.329137671651096
1906 -2.1903048326007775 2.2972660549941453 -0.2223436362070149
2192 0.20148890959477808 2.344916754826768 -2.6268314262121613
2194 -0.13112075708640428 3.795450088329339 2.489290229143395
2480 -3.2855490509682843 0.8265182147830075 3.6328548187437804
2482 -7.048644979723917 -3.142749415458104 1.9036678674390628
2768 1.7144139180571982 -1.8522306177231915 0.38246348583965056
1615 1.9277636874939337 1.6768019369966443 4.252743669320585
1653 -1.0194460008053683 1.2232495056497896 -0.6252453418674306
1941 1.0359139635412653 -1.5157846512081943 1.7417030359465488
1903 -2.6684003124318654 0.13803676556464542 -2.744239306432894
2229 1.789555190526502 -2.70038212654673 -0.24065794022005108
2191 -1.0535642753287706 -0.6043855784072306 1.5354928295343107
2517 0.00461835349283116 2.330645896563321 0.4098041716585085
2479 0.27729224123068386 -4.9741872946498535 -0.09125995924787263
2805 0.449137564720853 -1.483918683517206 -1.436318221945127
1652 5.673848482870717 -1.026524874423556 -0.33006927165831407
1654 -3.3908916017450994 3.1185453037384385 4.643150278034592
1651 1.1489979933944179 -0.5302820340386021 -0.6227753132402922
1689 1.015790896064814 -3.109512967418221 1.299449065663256
1940 -0.5615037648233198 2.9966217706160916 -1.8166938717844137
1977 -0.6947523126467667 5.7147806969052235 -2.7670168013044187
1942 -3.0986429141721894 -1.7990626303964257 0.45351595443032827
1939 0.4271430019184881 -4.647714904101933 4.100496903222208
2228 2.2072008933098908 1.6952730356608823 0.8733331139015776
2265 0.7559468739774218 2.513170344441383 -1.6856382162534966
2230 1.4247753721272878 2.716220995507832 -0.043417111181735246
2227 -0.31199489379178985 1.517220621664686 -3.9476529211540643
2516 -1.3979149457463151 -0.47962748856735804 -3.090731229836403
2553 0.18443442706386756 -3.149513243839109 -4.733354690104387
2804 0.03511886269042123 -2.9269165136332056 0.9808568141603928
2518 3.0443111679574293 -0.848026046250764 1.4719156333697776
2515 2.340953828029976 0.47814794249780995 2.0591935335842457
2841 3.7092023257200353 -2.386502522357441 -3.728858969199431
1688 -2.0296073450068515 -3.34491485362634 -1.8448361994911362
1690 1.8015418142075277 0.1828814135362521 0.04112081838088685
1976 -1.8838246553684854 -0.2082427642885491 -2.585485086815782
1978 4.020663448255891 3.108627206448727 0.44865124959088765
2264 2.481335374314861 1.8415196099959132 0.4395254027585141
2266 0.3372011070563668 0.22479494553953197 2.7060323173102416
2552 0.5963495542023207 -6.9566290846567265 -0.8891585001893003
2554 0.8586047512001203 1.1390316377779346 -5.7464005158031695
2840 -3.841197933838961 -2.236772086631197 3.566785189730481
1687 0.19810325810518845 1.8796688574139528 -0.4761080791168812
1725 -2.284508356669169 1.5033300705227346 -0.17019099395897597
2013 -3.786114766604517 -2.545088752698799 2.619819966846552
1975 2.9678443469294935 -1.6254497128542447 -3.6391688337366888
2301 0.048690525416448936 1.2319615974754903 -2.592218463080076
2263 1.0594123754781133 -0.7350806352755976 -0.7867612540327398
2589 0.5882775284779425 -2.194806077174595 0.18194826910919815
2551 -2.5303538946915913 2.1670768541949896 1.645411975181438
2877 0.5946031765856815 -6.645920072683313 -0.7110147712317236
1726 -1.765206260260098 -0.9548548951528676 -0.7195257973816755
1724 -2.089056347880449 -0.7105635873797941 -1.1050547409453915
1473 -0.6923521523957823 -3.572589482931944 2.025185644492902
1723 -1.3560362686295528 0.46150248872387584 1.9038555954480514
2012 -3.459018981770239 -0.28558207751531817 -1.9152805884228394
1761 -1.6695552640639204 2.089012121187947 1.2550713696498113
2011 3.5674123487372347 -2.6854581988203563 -4.105743649237573
2014 1.1649389407791801 0.33957966225198993 -1.2284874489092799
2300 0.9956699044987578 2.6111983670711822 -2.021558977474738
2049 -2.3200970907621197 -0.36074614323273324 1.9225199103183135
2302 -0.8545197176397837 -1.387765961030387 1.8686249240940307
2588 -2.9855746750677365 5.468544966754899 -4.440759467896022
2299 1.6162439320541075 0.6886067998427627 2.4872567791046665
2337 -5.421500108149312 -1.1748193963735434 0.9797201780499416
2876 -3.676415078774644 -0.45973449294779656 0.7951911867903995
2587 -0.25295301637031337 0.023200948480762644 0.13920727384527262
2590 -1.4037266024776625 0.5132159113288702 2.287781420980001
2625 3.086088767644303 0.5615197273343103 1.3825761350086612
1620 -2.675414484865412 -0.8652831696059384 1.0877368919174173
1729 -6.575764614049484 0.809368790461556 0.1896429919161498
1908 2.7250465606668266 -1.3541765920590594 0.053987472493655944
2593 1.4151739311660945 1.098428575915742 -0.03444234322141406
2196 2.6048567064247425 0.21456249631204394 -2.689168523469286
1694 1.5988583551245843 -1.2239572314813645 -3.923984331861869
2484 0.17255278264458873 -1.139979519486484 1.7679179249887245
2772 -0.9234798231855663 1.0467057247338056 -5.41058779063703
1619 -1.3793646637938481 1.391340498445946 -0.27318400770777973
1981 -1.9295100365090765 -2.1853698252646288 -0.08653156093220263
2558 7.243312962504239 -1.5086048640540568 2.7848902848531414
1907 -0.676498594915432 -3.794056400855672 0.7322786919529449
2880 2.4107490865706875 -1.9278506395547317 -2.410457648620312
2195 -0.37208324412977656 1.3978866620002708 2.41098563198162
2016 0.32640731318061084 -2.9178490359039895 0.1824636573790859
2483 -1.5432785541051963 2.55410610468721 3.3087559587458975
2555 -0.8578224886579532 -3.6227005665866527 -2.1543355401215205
1656 2.185299463733375 -2.1385533917889985 1.2148560267752957
1655 1.4621772582965544 -0.3887425293136354 -1.2571338712399052
1944 0.29694918747464916 0.9383482801371544 -1.8650827289036307
1943 1.1629877016090273 -1.1615558829489852 -0.1390660969534756
2304 -1.4709220655483008 -0.6652344531233527 -1.840551168413572
2232 -0.7611727226165683 0.7621960317656608 2.432288009948965
2231 2.7053895464488877 1.2892602184566242 0.5550075968535254
2591 -0.7491401833119673 -0.609380004378473 0.6743250168093015
2520 -1.4383746814081282 -0.5884542633417192 -3.3857961466042212
2015 -2.3279095726451478 -0.8273549099657215 -1.2008700505265453
2808 -0.8302582286114738 3.3237757551681346 0.9703201468597626
2519 3.017761143376401 -3.2117961814145897 -0.48251777652976346
1693 -4.084295513250892 -0.7125217879820908 -2.992685639231322
2592 -3.15268132868753 -1.8580849003666762 -1.751555801929374
1692 -0.8458953041380484 2.546554379166657 -2.620884809811363
1980 4.0520934378655635 2.417974404291277 -1.8401558174743438
2268 -1.964895864213763 0.7683346023515724 2.2945226094073323
1727 2.147694556811487 0.47656783604091646 -1.6354343710114676
2556 -1.7769037162462722 -3.4113606604136963 0.19874656480764724
2844 3.9316187937191414 -2.6925320087346747 0.48872719639104634
1691 4.259557828155532 3.172087219094748 -2.5626051874105022
1728 -2.358732664553297 1.5076164403643473 -0.34086697256784004
1979 -4.383036366690013 -0.637950725798774 -1.8130399535020825
2303 3.454898330511033 4.329781038467752 -0.7588181488437106
2267 -2.6096630843246453 3.366102634636815 6.083435404947476
2234 1.0171296858515915 0.13356399994619708 -0.4631398118550765
1982 1.7911199382102185 1.5667180592007337 -0.09013386879322094
2809 -2.6148479746064552 0.3467366912755903 0.38573679848731895
1910 -1.361464283926156 -0.38997586397799544 6.122886660766218
1441 1.0042131437033468 0.0876786376645199 0.33509457853113983
2557 0.5536638969492365 -0.3611753030643135 3.532826159315878
2198 1.2915936837837685 0.7198182129570025 0.3233518955170852
2305 0.03128589587398626 1.7267825939361876 -2.4768078876113564
2522 -2.413829403567842 0.8031566101191594 -1.1427122963803515
2017 1.3196440102497273 -1.3279285899227349 -0.8539275069528984
2269 3.112241959774821 0.21988275025526088 -2.0707433130550466
2521 1.7610402767556703 3.910988370308026 0.6330617579607046
2845 0.7115101300623241 0.7056915526961743 0.3947069821679378
2162 0.4769722939405875 -3.895334012805927 -0.2266735240605844
1874 -4.370592074944767 0.07917688239229614 -0.8987662007034873
1658 -2.140521627956527 -1.0056721842788965 -3.461914088512504
1657 -0.16385490582353035 0.9863964971927105 -3.4933259792492213
2884 1.459928522703204 -2.248216979540115 4.546113976025025
2594 3.5505625144339743 3.9716558624692193 1.5294159679494561
3172 -2.719976122172891 -1.0082411070652126 2.478586306009787
4 0.6383954062121105 -0.9968572647950923 -1.487641410807062
3460 2.215191412226034 -2.068639891352787 -1.6732590699582504
3748 -1.8465509795391015 -1.0298549619443698 1.3203887907965797
2630 3.6059819927515573 0.5651944645332716 -0.5712244969333821
2595 -0.8502729004031399 -1.2756395664626476 -1.9529382060376115
3853 -0.6826363419400159 0.03814697382060914 0.0744593993912957
2883 1.98198606951279 1.671510906776853 1.6773286664658538
3171 0.4909475116627543 -2.1681006001713925 1.017181797346264
149 2.7477398016557113 -2.2843031654908854 -0.7654049684383893
3459 3.721765002487659 1.7307983524267958 -5.284878606438264
41 0.4828099657367851 0.03917272291267769 3.8187363918755177
3747 2.1342105555838904 0.5220551989493036 -0.606642490056357
2631 -1.603752035775029 -5.144035115785545 -0.7657366099741589
2920 0.3918994189321884 0.42933711684281056 1.938234921230627
3494 -5.024396489643195 4.39947946357583 0.25162891544290333
3317 1.060944154061352 1.9362486777689012 1.4814169678397857
2919 -2.4718511507765104 -3.168592309662011 -4.499350669743964
3208 1.2662482842333584 0.40934862132842714 -3.72406306458986
3242 -1.4325437534694947 2.52919684776788 -0.018374967592050682
3207 -1.6600963064956893 0.2065608391584984 1.6855216011614902
3496 0.6314571401694705 6.804300796454462 1.544710833697384
3206 -2.087662092519721 -1.8768567185414282 -0.5327298583711803
3495 4.181310594966291 -2.3640312316810577 -6.65251637323528
3784 0.2766387707907799 0.599675524531939 0.9255313860526759
2994 2.1999855835569173 2.0870958614820463 -0.39061364687594047
3783 -2.384047659072799 3.690442594705512 -0.5722203377520677
3493 -4.503156381236388 3.703238126726742 -0.6090198020573034
3282 1.2208755056138008 0.16819691044053023 3.3582715215446957
2956 -1.2306906881828483 -3.266611522126502 2.290085620669499
3244 3.184060297513129 -0.3657021072923116 -2.505085646466735
3858 1.9761834165370817 2.908317329254575 -1.8907903945013622
3532 2.2639141907821756 1.6670145862596826 0.5794426798911644
3571 5.45325470889311 -3.720631088520304 1.1576498268428541
3820 0.8133119235347068 0.5294314460925367 -3.56126231738661
2995 1.6862971772733835 1.8488161593243595 -2.1390402305781957
3605 3.4984937163691283 0.6580287694500997 -3.887189411686419
2667 0.2567641286793462 1.8310908020185492 0.3273948970486227
3283 1.603930688859282 0.7201120912015047 3.8207261177452017
2955 3.98907525913267 0.9503417309614424 0.8558957812183455
3860 0.18948725966802554 -2.8982613508412856 4.022365220945075
3243 -2.856736564907596 0.33844252571473865 3.6405404868781632
3531 -3.16350007125093 2.9221033049890948 -3.314795925912462
3819 0.007009159542081861 -3.769082088509024 1.2528638965279146
3572 1.7990045779905597 -1.4015750185734004 -0.2441737915570808
2992 -4.969866025624671 5.353230983103643 0.32464032503731255
2703 -1.931392910145482 0.8904855480226048 1.5441326462255962
3570 2.624430399356316 -0.22274563104311584 2.0330902781997886
3280 1.9712504894500307 -2.1396368412974125 -0.531437475551853
2991 -0.23351083590518187 -0.25498877267624204 0.4839179767449621
3568 1.1398851540022523 -0.5614539121095697 -2.5125907482580176
3279 -1.3755726085024693 -1.2704512799259338 -2.651129971354651
3859 -9.627164394395209 2.1059373255217397 -1.3469556814879167
3567 1.3873151073558554 0.2783254928940924 -0.552245031059378
3856 2.483391835326555 4.005115804154796 1.1539855385448705
3855 0.7777351965385376 2.7882999658712677 -3.188869970206927
2996 2.7751325789978067 -0.5711966765386657 -1.5639482779838196
2598 3.7642383399787636 2.3098473004059263 3.757549022709741
2888 -1.0451648722238567 -1.3391958360011749 0.6884761368849287
2886 0.17413186847106063 -1.0785928467290282 -0.7881551558604649
3176 2.331913064655521 -1.2597865023141026 -1.564542990037494
3174 0.17598661044103106 3.705488703109682 -1.5340789872119953
3464 1.0082895296891583 5.2009156881440495 -2.3478922500462565
3462 1.2983404805791017 0.23831969577557943 4.456907098277888
3752 0.8172075993240424 -2.2379272740794858 2.775136726318272
2707 3.607676470647166 -3.791406055251084 -0.6930873249588178
3750 2.875798377240098 -0.27366119775128017 -1.9181109331434305
2599 -4.242682208966316 -4.426014068784011 -2.75501036523259
2921 -1.1544073198208908 0.10688508145643212 6.415186377369981
2887 6.063958185339766 1.8461899341551087 -0.9933986893845245
3209 -1.492071761960401 -1.8085018693381163 1.0705107657998576
3175 -1.8902702244225404 -0.6596365098630247 -0.2470917146803391
3497 5.8531110485820905 1.26945763593579 0.1355994316025146
3463 0.8944850061221022 1.6238222249963163 1.1533116222556434
3785 -3.1388423907189638 1.4104721235619733 1.6222956544082634
3751 3.1273129959328103 1.3465293402599532 -4.2567833978681495
2634 -4.348198640172177 -1.2760728367247978 0.68729209294773
2635 0.2350519221040923 -0.8943542782797356 0.06993472117892514
2924 -1.0911304332334852 -3.1166533441333235 -1.7218508375512132
2957 1.180609788844143 -0.5659855596093364 -1.4499747769062814
3212 -3.8497301854956234 -1.1648400207294345 -3.3182158264943364
2923 0.6325968160634973 -2.791845573656226 1.543878754056736
2922 2.373340486833489 -0.26213840019698675 2.8922255693118575
3245 -4.226083208840461 0.1824242640184871 -0.9489391855842696
3210 -1.0545437055026166 0.35422476922663243 -3.6233658510466014
3211 -0.6647770163715264 0.5894150574570269 1.962687316698496
3500 1.604202531186926 -3.048843877877524 2.7898006255300714
3533 0.07260566994477459 -1.7419394993248403 1.5638636246683277
3498 3.273880806876486 3.2402550205986724 1.3225611380672457
3499 0.447784587284221 -1.902350569384635 -2.0129368835755486
3788 1.07886488979118 2.993429039375915 -1.6894302762329545
3821 -0.6744452020713092 -1.6368945521156433 2.454153584278107
3786 0.02643824033778659 -2.4066581777073126 2.226123782997832
3787 -1.688965483521401 2.7695878816613995 4.793550149634545
3893 3.8758551133693278 1.0962808012496956 -1.5148890481389272
2670 -0.45637970879819406 0.21229278915625116 2.7951789291454348
2960 -4.513483818845568 -1.9695318733737304 0.047228901527137296
2958 -0.2816530312077575 1.8030780344414923 -1.8407287287399507
3248 0.27672560021713183 -1.7620689427763647 -3.870130593005781
3246 -0.7837618422944346 -0.7304920262643226 -5.965976912338767
3536 -0.23307737433113676 0.10286081869470655 -0.915011999786448
3534 -3.0036000593637016 0.5584216878023777 0.40805276477341745
3824 0.07754219701798742 -0.23371352338348514 -1.8104963097112732
3822 4.415644376587575 -0.6762499576972266 -0.03192685081981454
2671 -0.6580818647588939 -1.0149928440500986 -0.6454439938408936
2993 2.8090647728891573 3.1189520765233665 -4.437234073307772
2959 5.5903416152537 -0.437852955099098 0.47202475890034973
3281 0.752080566905558 1.1970253164933218 -0.40295172012503266
3247 -0.35273718187640657 4.078956181809914 -1.7994414715237705
3569 -6.893331617560368 3.998503453924804 -3.1655824630836777
3535 0.6623785581079698 -1.2268929057969244 1.4064177063118475
3857 0.6677294665814414 -0.35347820914703293 -2.315501569873032
3284 -0.4340028028456601 -2.438313258717277 -3.5862419984958387
3823 1.3276283823333335 1.6399539871197732 -0.5331107238099683
2706 1.7899700018255182 -3.7774592622360452 0.3137584985778038
3029 2.377127000565236 -4.546874336630198 2.3872995452510573
40 -5.029763753017112 1.6140738458630688 -0.08883582950944088
3817 -1.080358775932276 1.0556054026524972 2.0910237879749705
113 1.3600087139137773 -0.5516612273788507 4.540612800850877
3818 -1.1791241563956925 3.596506950002278 -2.731233428916462
3782 -2.379220891318946 -0.21749103210312662 -1.0536981192122858
3530 -3.133630966833769 1.0199338727519036 2.8575095719199437
3566 0.13619649262294706 0.5779055797930139 -1.7849858913459895
37 1.6925461612622905 -0.5203751225848893 -1.038559854694233
2989 -2.892518614146279 0.24168690650456318 -0.23225586488961877
2882 -3.0492550865352586 1.932299036432564 -1.4665252352457736
2990 -2.11010668369322 1.610917291243301 -1.0976245438357841
3565 -0.7521113691967746 1.1511937850603415 -5.278457668555374
3781 -0.32638890808874016 -3.6563853939034034 -2.3096051185717443
3601 1.2001003907816847 0.9406110782507737 -2.888256225644567
2702 -0.495971806915297 4.66807647146116 -2.6994985757528074
2917 1.3110735659047457 -0.39444858359559054 -4.021872635203722
3746 -1.5782098108145532 -1.1436493744719276 4.410772083382293
2954 -0.07545904965529932 0.11317318972381098 0.14178435756205873
3889 -3.2573280033613434 1.9675642306972176 5.31889348387495
3170 1.0816273482103762 -2.1978014548311866 3.4072311782654685
3025 2.269099356869535 -1.9752984772541677 0.5958794952238913
2918 0.9540995118869405 -2.7303535917890502 4.248800898560081
2602 -2.470894251648135 -2.6186905119397346 -1.22643419647343
2892 -5.386644082426643 -1.8049992346529626 2.3279863979079045
2890 -3.1837980720081087 1.8432218085295573 -0.6786099230167655
3180 1.1745659194466684 6.826470185316212 1.027466726721122
3178 -5.268588304907933 -1.726195960721875 4.14451562401784
3468 0.14266027383142568 1.0101596750683244 0.04683771835350805
3466 0.18518113047436066 0.6215197965440318 -0.16193519696509462
3756 0.5737296210178062 -1.7824753100663675 -0.23996834855877586
3754 -2.8587365770983912 -2.326835911768951 0.8894483169275378
3867 0.09857710853693216 3.1939158246613575 -6.810774577004985
2603 -0.7174857246427482 -1.2769000888115842 1.3963545074173134
2925 -0.629232582940879 0.4489043136328758 2.9465374006237597
2891 -0.01466069305312029 -2.00899619229756 3.16419257733223
3213 -2.785106664570836 0.4098354834430989 2.0992060172034748
3179 2.169934800567484 0.08035092138116547 -0.08876252532556334
3501 1.6922556385897942 -1.8678727536136588 -2.8784536404405823
3467 -1.6129624339857462 -1.3665695544285623 -1.4956968268044801
3789 0.9078618604752906 -1.911422420488805 0.9076007223466778
3755 -0.0003350190717790532 3.229822573584204 -1.715436461397419
3901 -0.9998787383575155 3.8563811891116084 -2.0221901382964305
2928 0.8220707595319534 -0.30847559109522477 0.1891447594671907
2638 3.6879003163455155 1.949119136013631 5.043992480637058
2639 -1.3075753424783294 1.2506996347466872 3.3862597008804913
2961 1.2232116993432778 2.456570255113032 1.8034716652514633
2926 2.1520768341836938 -3.0426822334020582 1.5266977895993619
2927 -0.7689576032357883 -0.5315080258160528 3.7094208431346662
3216 0.3988631577906028 -2.7442152898136642 -1.0960835999447551
3249 -0.8123370260212519 1.4867321175348787 -1.7112345432283516
3214 0.19516173703757791 -1.0807206264118974 2.2256144741373274
3215 1.7065116944320762 -0.749042682533181 -1.9745987266575182
3504 0.7472719545135204 -1.4588866245221297 -0.6146790115892992
3537 1.6768499429651118 -1.8543807663210734 -4.020242986666746
3502 -0.46191755628807774 -2.1458910525832215 2.8121240153891285
3503 0.30257910320910764 3.3888582146876582 3.2637568152830565
3792 1.257605759592561 -0.9908584599779872 -1.8899618395934468
3825 -1.7476125589016764 -1.7782943422388393 3.901844864378765
3790 -2.460599305209991 -4.313078777272348 0.030098499358433298
3791 -3.2115827386663653 -5.451561557317227 2.970956641969739
2674 1.2659655933248404 2.501236409956166 -2.357516693755072
2964 3.016656033634167 0.061523822192403634 -1.1100052362820054
2962 2.762199972262466 -0.7607075451459189 1.4721015216906665
3252 -5.9197258981357175 -3.321307099803678 0.38289211518728
3250 -0.9268267795429306 0.2852757180913686 -3.6579463324448107
3540 -1.056429054866942 -3.076757805639763 -0.665260391456806
3538 -0.9036413655991681 -1.4442224306682043 -1.633565151349313
3828 -1.1222520323184033 -3.204600772842248 -1.2984247724983686
3826 0.9018733746163216 -0.4356672659710403 6.441072935473672
3868 -0.03450904986355183 -0.9846103799634587 1.7866301517559346
2675 0.47769562799844245 -2.076633551849104 -2.277935104502547
2997 2.068407828181133 -4.7914593716221345 3.0760643603090583
2963 1.6534072621867155 -0.8617366665433059 -1.2794267017100134
3285 1.8466190833699352 3.1291237300734758 0.15689633594019856
3251 -1.054105073158177 -2.822498344795435 -0.5985340040973011
3573 -0.8414995092683941 3.309561465432132 -1.3748762466432154
3539 0.3088482933279133 3.829933064990392 -2.3627617980808315
3861 1.2563110818716512 -3.3383235698340785 1.6566045209341134
3827 -4.03423658773081 -3.194652766371958 1.718365684787136
3290 2.620882011356116 0.8166584510502497 1.1358519904569457
3000 2.15690098243219 3.174317048177027 1.4318294737482165
2710 3.5223242302022704 0.6787494387339885 2.483541274374441
2711 -3.6090798598853198 -0.5160780891703587 -3.7461942102294348
3033 2.8353551262710317 -0.5778118543710765 -1.0209424255237995
3321 -0.5267225324364704 -1.8098701350888828 1.542147697651335
2999 -0.15035612204988238 0.2503091572119724 -0.8168855076881153
2998 1.209346173801739 1.2223704122078876 1.5946931530513595
3288 0.15613636302012263 2.6587431947696385 -0.8335025028871659
3286 -3.1384310818659613 -2.084377155878325 2.8445987414943565
3287 -0.7854105420397391 5.717052798891923 -0.3842445590071867
3576 -3.9754126003005075 -0.26511270921804536 3.673054104697389
3609 3.932384521269911 0.11446474602864219 -0.8496304691249763
3864 3.22320155329484 -1.365663520991588 0.21675060121562711
3574 -2.5748087183789234 4.476964936114729 0.7355357499718483
3575 -0.06914324591575328 3.8180909480593868 1.4035108220619679
3897 2.003073600372848 -3.4770418214288377 -4.678746970338851
3862 0.7666893725956242 1.3475210616900088 -0.3647273253831624
3863 3.273911624608356 1.9778313065819109 -1.0221611635042234
12 2.205748688567795 0.30430055491135183 0.28322124902747065
2606 -2.70267455739441 -1.6313147679703803 2.3376174284952613
2896 0.1713016940104133 4.536922306474152 -0.692012726929019
2894 -0.43548412782547213 1.7247520869390605 -1.3417505483772587
3184 -3.0936199111772735 -4.603944638155486 -1.7142591854995815
3182 1.0060049565804723 0.7326195557255882 -2.5985552280972515
3472 -1.261338519545386 -1.5968847649256217 1.5161768717676105
3470 2.462063118732495 1.1775833519935306 0.9047594668052311
3760 0.1390937355971695 -1.3742288279996009 -3.3056936791974048
3758 -1.8218872567907392 1.1254620292390263 0.8597072225643267
81 -0.3330888242511642 -4.423688088905325 1.9373935100921045
2607 -3.6207070814245634 -2.790161359517705 -2.3826886915497263
2929 1.0276864592471244 -1.531369957221782 -4.6250735340917855
2895 -3.4336282624624497 0.7400302141842809 0.3641138699279675
3217 4.596765004054449 0.41456773684001486 0.8161457098591631
3183 -3.765868531294186 -0.7072095303232391 -0.6372274094219796
3505 -2.1598239636012173 -0.679560946918212 4.571084305040099
3471 -3.2253440803631297 -0.7183701591018304 -0.976242696625761
3793 -1.559643692415456 -0.037607969844294306 -2.546006077083495
3759 1.949778675232411 -0.08711381528051905 -0.6275911414158126
3866 1.8388248178095195 -1.4606925913852413 0.37142869627813124
2642 2.2069078857165296 -1.9168028677097881 -2.374920842780508
2643 -0.5451479142692578 -1.4295956907343985 -2.762880982205447
2932 -1.674454470425715 -0.8147428036788247 0.8196944513498796
2965 2.902752075784048 -1.8788184841415216 -3.6113860005677614
2930 -3.2327967130631485 -1.1907211881967286 0.113339023102038
3220 -4.063608284903117 1.6284184440610492 0.5945440483539235
2931 2.5180402738453886 0.18582151866648844 -1.6123237258884224
3253 0.33318027474534123 -0.3291354486302676 0.0816141723210906
3218 -1.3469087295958562 5.500048845005601 -0.5451488853433847
3219 1.4842853074840987 3.700654252047094 2.023498418648936
3508 2.795711408351667 4.234981170544497 -2.114539602804691
3541 3.8650505344469854 0.971417181527782 -2.7881199913490344
3796 2.771335790624246 -0.839404968020551 0.9786973964920536
3506 -2.0286087343806827 5.172008569682759 1.8215125647293726
3507 0.7146307189468675 0.3617481370315692 -3.2162280891839288
3829 -0.31944271500616933 0.3284278981026614 0.7540775443439472
3794 -0.1376783546927313 -4.847614253941614 -1.2064766307517434
3795 0.32184043628804976 -0.2501592185555043 3.6654328411880526
3578 -1.961865705821328 1.663591027629511 -3.782703471947205
3579 -1.7423413111417927 -2.3282527674046265 1.8047345593868125
2968 -0.4945687420716569 -5.091810291737039 -0.8438049266873068
2678 -0.14512668184414537 1.5221027398474554 -1.8915463057972346
2966 2.5760610251306133 -1.5518349245648284 2.4302977326909723
3256 -2.408371097192089 3.4645222760461296 2.5332245148684
3254 3.5733108816333923 3.514350694066779 -3.0727661491302456
3544 0.21009699538206097 -4.192537839447704 -0.7744337025530004
3542 2.158173610308229 1.2804279317402407 -3.2403141396492927
3832 -0.777769062848313 -2.66447059367251 2.220480022732031
3830 -2.261044584949738 -1.0557388591998773 -0.13194335094436085
2679 -1.714806253254631 1.1286163409898051 -1.1645991287056012
3001 -2.399262885330675 -2.499446657295886 -0.26247246462417
2967 2.471742340701056 3.0897532514759485 0.5141600047364001
3289 -3.3844676346084865 -5.637315326574024 1.6146134423307237
3255 -2.090871041630665 -3.93169639624069 0.1801825462982149
3577 -3.210477323631395 4.454664417219478 -4.087684636633806
3543 -2.259339524680909 -4.979739185690592 -1.0616359477045105
3865 -0.36543043009949255 0.2736872632948036 -1.8757700403858117
3831 -0.5271114029903584 3.675610775798011 1.2501015235671458
3004 2.3671880873491244 -1.6789086460962785 0.9557014450439779
2715 -4.172377542668559 4.714375003915864 5.006938127191445
2714 -0.6612017107126987 2.077225665612894 1.1949869824966368
3037 0.5138367843798015 -2.0053390765633696 1.5771372584255716
3325 0.018842864309633056 0.9714638012754835 0.6163565771577552
3002 1.3862749492801172 -0.5047179904038805 -0.49540728207507373
3292 -0.02600868564064065 5.675583406708473 -0.47116997428723045
3003 -0.03277903452263171 -1.8866169885517299 -0.039271254075488
3613 -0.6922453920292342 4.288652022781609 -1.7234064622179528
3291 1.8442794783997702 6.511326383208914 -1.114201080089421
3580 3.7359287329638717 3.266521568404142 1.5023857305863062
120 3.337485418836727 -0.8603086832144355 -2.3552037154811236
52 -0.5112224291369669 -1.3822387385597954 -0.4973779371138236
121 4.419868778416233 1.5629427530244369 -0.8184485115772293
124 -5.557297441246556 2.4075214965482803 2.8384540554266664
153 -0.40124094952137795 0.9641529168303111 2.4665152642576325
49 -3.590467480449317 3.279601312050805 -0.47289618033241176
2610 -3.497061868290012 2.7260173601529174 0.4838085750674577
2898 -3.8238065584722594 -6.534526134242669 0.6147741523690696
3186 1.8259149241550086 0.7191580115093167 3.210306044227552
3474 -1.7356163319588953 -1.6923019994758641 2.2923467985694446
3762 -0.7432684602614059 4.650664213300585 0.8982406022872854
2933 -2.7926081519250405 -0.018838756240069417 -1.0477034784756263
3221 0.2927415157461728 2.3962138250858698 -2.204911439552804
3509 1.1206141085285646 -2.378180303331078 -1.369844204688154
3797 2.4849679726736444 2.428838185657003 1.5847127779229042
3475 -1.4730988311416018 -2.5909273605574112 2.633584198222892
3298 -0.9078549747113035 0.38000923040885204 0.9215566787802489
2646 1.0315242901999784 1.566405427715947 -3.199373923999647
2969 4.385879527143941 -0.8725209617100931 3.987298623716027
2936 -1.558063787802406 -2.5916707338393543 0.6931343901911635
2934 1.3303531317187156 -1.6832152542853163 -2.129528981472263
3257 -3.404936554386054 -3.7699963059752655 -3.2695978186923114
3222 -0.8373326629498442 -3.4114040889589403 2.1907984754567034
3545 -1.1858125693544093 -3.276764715604698 -0.5022598752948295
3223 2.2377671263953074 -1.6247966316305007 -3.970143903329872
3510 -2.4972322760169505 3.853230631532418 2.0291081705122243
3833 -2.404599650899323 2.628749394521976 3.518524181108072
3798 -3.033908259648504 1.7621403108389295 2.3509014314795063
3295 0.9122219301532996 -1.655688316919142 -2.4719701869479938
2682 0.1796473129205734 2.3963361150217555 -0.24872217848807457
2972 3.3603164184153447 -2.105242685030659 0.0432708065443024
2970 -0.9035484218850222 0.4054829712539484 1.515475456762388
3260 -2.9798994547721382 -1.5468852106031292 4.750576249158017
3258 -3.8026841449231106 2.148386199056132 6.399469186015275
3546 -1.0064326523771807 0.28544507877315417 -0.3985714075452079
3836 -3.635806442908163 0.6580254870500066 4.07748434156451
3834 -2.45999060509979 0.2911044509253802 1.9701725253712348
3005 -2.066685173517047 -0.704100334423526 2.3601942380386247
3293 -0.8135340215680147 0.8374978955231592 -4.512646129926546
2971 4.021075166010368 -3.7086306559055484 1.4894278803573506
3581 -0.4106870202609419 -2.5615245023061854 1.5996093478852844
3869 -3.0933768034666427 -0.10730442181656852 -1.9944514557296584
3547 4.0706955932403455 -3.8622244144157505 0.27110403418841766
3909 3.0809007116359513 -1.842460827956701 -0.4664200921763933
2718 -1.2207323951018123 -0.8830169398788442 -2.1709730785377457
3041 0.7425535519971882 -1.7739409893056706 -1.3684111351927875
2719 -0.2577908821751265 2.7566021897979214 -0.7896618595228125
3008 0.9793424860513197 0.5931185967873881 0.6584860667949675
3006 2.3162650362921084 -4.430534689070667 4.106963125464035
3329 -1.619786485091575 -3.297469012143376 2.000558937709157
3296 -4.749485728965336 1.1636772746238142 1.8841294424647634
3007 1.6141593042950917 4.39727813258732 0.27364004276511067
3294 0.014952508082500792 1.5100232810186536 -0.41245548518428293
3617 -4.19853873465129 -3.351499234314358 2.8470639293403615
3582 0.3693793842257607 1.508019448896002 -0.25004121183859584
3905 -3.36273593086141 -1.1241191949808076 -3.1354587222174066
3872 -0.2593512446838371 -0.4376194162660593 2.2126533959963735
3583 -0.2202619548582016 -4.045312728672923 -1.198983147646936
3870 -3.1455593964448765 -0.9631100283214573 -2.1838185469733324
3333 -2.9342210099934665 -1.9136848071218446 -3.8178797012675427
3874 1.7866239792210117 3.44529794291356 -0.9702227076387152
2900 -0.07987742753052116 -0.44010479352656917 2.750315827327976
2614 1.6216539337823932 -1.9145217469027453 0.34442475104660564
3188 0.6209727594810222 -2.5414956016512353 -3.2073268641041497
2902 3.4744306704732546 -3.487451184080641 -1.672489427343284
3476 -3.5535082899523975 -1.4826100916439575 -0.11871111470265343
3190 -2.190540987488688 2.91028750622037 -3.8680132883168596
3478 3.1498501766677878 -0.7040610826818473 -3.678916777301663
3764 0.6378427261260093 1.792473580891868 -4.865610310337237
3766 1.4827582371733041 2.384558670355787 1.9477888238136076
3871 -0.9965257194860093 1.7353089899881755 -3.987709239639429
2611 2.698556327951234 -1.6343370186599597 2.533822526447687
2937 2.327012047322174 1.0124153565523317 -2.5096130194945743
2899 -2.4058597005374693 -0.09935178377819906 -2.0945856600091872
3225 -0.8096809491715106 -0.6078181988381931 0.9702174586264579
3187 2.5768600051744244 -0.29551539931190873 3.395076941367087
3513 0.6617191907065855 -0.29117469745967145 4.401947060133822
3801 4.335322586410408 -0.8381921098675522 -2.073821173150248
3763 4.0280419258047795 -0.7197424465885529 -3.5672237145510555
3586 3.66633747105591 -2.0890446669943845 0.7774586412744996
2647 3.4130211616546067 -1.0028164548816136 2.0532034400378207
2650 -1.0454442763684881 0.560941598020018 -2.8627884059762687
2973 2.202383932894882 -1.7487893264946601 2.1888742545870024
2935 -1.36379910441933 5.635496945478564 -1.6351753008031078
3224 -0.511176084309542 -4.60016624208531 2.9568183673558948
2938 2.8950166736332927 1.1096294603844379 0.177499925844522
3261 2.028321905811908 -1.0585084623342427 1.6790422633014221
3512 -1.281737971458638 -1.9646353073408158 -1.9562398612621617
3226 -1.8450809005451054 1.3866591881762245 -0.583044265872167
3549 2.394355379425512 2.477483744841965 2.4787825347497123
3800 -2.3701568885241775 -3.007909006427819 0.6711139452290249
3511 0.5316818102910171 3.65734674817028 -2.0868507889097208
3514 -3.8541792187096093 -2.2289477397614474 -0.26899522182984
3837 -1.1667654966654 1.5360940383124615 4.770550474491744
3799 0.33945161767627846 -2.31069653778008 1.3426900469462173
3802 -1.6677803482764115 1.6811490875274955 -1.6647286707217417
2686 0.7798486950911308 -1.3666365424975677 -1.6053380121551615
2974 -3.8457886887508677 -1.0095442431281296 7.468253039190183
3548 -1.0665169965313714 1.4051659151552112 -2.8581084531942267
3262 -0.301032331193316 3.539262504221894 -4.607385113764264
3550 0.8014976852717127 2.24657554303559 -0.06311415006645583
3584 1.3986345131581182 -2.1582192106885705 -1.9238274921235388
3838 -1.331765195141653 -1.6297111820379802 -2.6268095942357697
2683 -3.2941111876470055 0.061534504934719056 -0.05519472463647681
3009 -4.734895223398646 1.6050719395772997 4.032294972070371
3297 0.36279917072971435 0.4023772713890882 -4.339805437209966
3259 -0.049842359090936324 0.42227790290062495 0.09582148311176947
3585 -2.2649374914616387 0.8749649185092085 -4.371699000220021
3873 0.42410567043070235 3.587905927370284 0.8413081964982148
3835 -3.524798984382076 1.8486253359866855 1.0606031795414663
3621 -2.863208957050225 -3.2267019290668113 -3.338639679688771
2722 -4.081300845920396 -2.157790556120167 -0.6269355210853536
3045 0.29360876804186337 3.018792758608387 -0.009054531274461741
3010 -3.5780796673979904 0.32850220597485286 -1.3758727569192057
161 2.822874604971929 2.939409460495287 -1.283189522588238
53 1.5571174899576763 3.7893419612232213 0.6455938548580624
56 -1.7332113719722788 -0.9295938827156535 1.0465035342308007
129 -4.506374948110717 -0.3507689886196957 4.11260403548505
165 2.978360359526003 -1.3099333170553422 -2.598700211040731
128 0.39898589843293636 1.6446690975258775 4.4748618527947865
89 3.1563739093630527 0.28145770363887496 0.7112251705941394
20 0.7695715466626643 -2.8177094639115503 -0.5927308608124646
2618 -2.074978002758779 3.0216002595222586 -3.72821985741277
2904 -2.05861341200279 1.25230229646311 1.5688425626536564
2906 -0.5372392496402795 -1.1674034793661179 3.3828563658909143
3192 -1.5221930371562962 -3.034725388493774 -3.3964101682171233
3194 -1.3197580874920134 -0.034056384554562134 -2.3871297808430554
3480 0.4515191228931447 1.974080287368897 -0.17623737407131468
3482 -1.1232709546801447 1.7780391808283482 0.8864593492686376
3768 0.6924715226451955 1.3246738461419467 -4.726460354144117
3770 -0.14083812794130043 0.3080827888056478 0.5882824620825101
3882 -0.13662857532683823 0.14565138211906892 1.9368569633045847
2615 4.117397500897321 -1.1680819892920802 -4.0732566581608
2941 1.0043011718328039 -0.07946765625549941 1.7405179761571479
2903 -1.4633468871465838 -0.4391260500315752 1.688964131981661
3229 -0.18464982697688917 0.040140963518801136 -1.639773309572107
3191 0.8319617263413489 1.682171769935848 0.5935217001011311
3517 -6.334265780434001 -1.0957801069787034 4.116821308457362
3479 -0.7507461781248775 -2.814846737841205 -0.2835501901157589
3805 -4.474195200142072 6.145468022484203 3.9788453280939
3767 -2.0658610400798922 2.7068713062038694 1.2174495473706741
3879 -4.474921920200986 -1.1914044884297466 -0.6970213177125905
2654 -2.6167911031549203 -4.140354884607654 -3.3120659655854605
2651 0.8872139633396826 -1.2366250373549386 -0.8832675370998102
2940 0.7771326836016248 -1.9945808256554585 -0.27160766826453864
2977 -1.1769070262499886 -2.4443966967667974 -1.667976164517493
3228 2.0553164377309012 -2.3237092407233355 -0.3455702693215237
2939 -0.5809048639144425 2.1032170860083292 0.6258478979402099
2942 -3.338996675603974 2.6881959918009564 -3.29956998041976
3265 -1.4132838470722162 -3.451165757899036 1.455534592437391
3516 -1.0484715120104633 -1.524523255657113 -1.1455950790345724
3230 1.8213882007835753 1.7026226435419125 -1.2814033254843678
3227 -3.3353921967994262 3.4571442149275704 -2.3081356320611675
3553 1.3724735376935804 -1.0784562105385118 4.505569598443395
3518 -2.359168581000415 -1.251774557104658 -3.1411490558195547
3515 2.2742466260568825 -0.6826966301346808 0.31021664510963515
3804 -1.5651737903609588 -0.055249210760347514 -5.722289973193379
3841 0.13198807840674656 3.2607867243453703 -2.734346822013993
3806 1.302681198110962 -1.8285268298103514 -4.04390126017021
3803 -3.965053923476002 -2.7794828982758335 -1.6001859799354146
3303 -4.160924025424072 -4.962932515972492 5.188680668350343
24 0.16453680473279952 -2.619985700010292 2.0193649116221843
2976 -1.7378980477183066 -1.3424027994255512 -4.176225815222007
2690 5.224744704028075 -2.2860786714866568 -2.0874836038912057
2978 3.1969659188905224 2.57476929858848 -1.0709382715948073
3264 6.239472936125038 -1.555002574565475 1.9056343862489709
3266 -2.7826034403017212 3.693415520407029 1.867433408763381
3552 2.6798427556360696 -1.2273649792803432 0.2625096272847193
3554 2.344671562861372 1.8993479812554426 -0.4345689384149983
3840 -1.8993665727005276 -0.22720155926736071 0.5119403002898193
3842 0.06452470506450078 3.9367611676955763 1.9248267388554332
2687 -1.939463321702054 -0.7157766078322663 -0.1990275503852695
3013 -0.8660356233497111 1.4027049199498876 -4.0770311444267
2975 1.6788077282116745 -1.0317582529560827 0.63199597865473
3301 1.4158210027206657 -5.08492823497871 -0.4336678846602624
3263 0.2488052930666721 1.8729418453718891 -1.4262805401234757
3589 0.7745151642228408 -2.6426366503495253 1.048382374252045
3551 3.120878663351888 4.054931551924537 -1.511043159737946
3877 -3.9743214197829833 2.0182480147695245 -0.5406401646079697
3839 8.121710075488565 -2.035081381545593 0.3567225982057987
3012 2.5752698667206015 -2.5174434552823803 0.41662041806642175
2723 -0.7077547651368948 1.7303129854914927 -1.3933314886177384
2726 -3.3500079586942473 1.8019189821123172 -2.2042436341577782
3049 -1.8996180029127614 1.7385867765852339 4.166968477457489
3300 6.264946086136528 -0.38333975410288057 -0.8442181645213943
3014 4.071794331901608 1.2428318659219717 -4.312048447038732
3011 -0.3462427061215372 0.9220345575906301 -0.32647116950803234
3337 -0.15268765419857006 0.006921639209931518 0.9549206472349413
3588 -0.61962572538982 -1.8999823717892794 -3.2408694518568852
3299 -4.180954549588719 2.057916289205488 -0.382656253308277
3302 -2.2749426631286647 -1.9014247477624826 0.7438007848875304
3625 -2.8513447829401675 1.6422038133515953 0.8489839436649245
3876 0.10634674355804954 -4.048975567838595 0.0008688528080917226
3587 -1.077270962024271 -3.0804737351131166 0.4250113466156999
3590 2.069346234442984 5.170580692126333 -3.233049923761924
3913 1.2931230054783769 -0.08925084821791687 -0.36898049546432876
3878 2.33231520301811 2.0083617118793473 -2.593255548512155
3875 0.08020781726692247 -0.5687556800197022 -2.062675046547293
3880 -1.9123075400208636 -0.9119495866846236 -2.5103798376331627
2622 -0.2463343959289517 -1.9109008274959234 1.6714032394471305
2908 4.103737297881763 -3.8482449434897954 1.1736600562997752
2910 -3.086322652475599 5.146494631288901 -0.5036530641735132
3196 3.9041063338441195 -1.8772472667214202 -1.3412346218452256
3198 1.4788565761037005 -0.8711878008555228 2.43286035717733
3484 -2.651986029592765 -0.3306227291802445 0.5227683555380662
3486 -3.5059764379920866 -0.3965936704463464 4.222937820027857
3772 -2.2124011664984224 0.6747800821934193 5.53782415889466
3774 -2.5429228453262676 2.3232892517316186 2.112194524208243
2619 0.24610253539461246 -0.17917985087336186 1.5141881052375243
2945 1.4886571283817742 -1.5653434211712833 2.140391479279658
2907 3.9061577684351345 1.4495991042154144 -0.05519476529411705
3233 3.8074957282269484 1.4354204499430292 -0.2658002442898181
3195 -1.3100802676221066 -1.972602346025662 1.3047850466980873
3521 -2.5661014651747984 -0.7947790117498841 1.4736219683388232
3483 0.9910807373063998 -5.197940678637775 2.4739060774878014
3809 3.4170426497981543 3.48690449614456 2.260954735316456
3771 -2.684071922063004 1.8251076595400382 2.1578341075080956
2655 -0.22887871373971153 -0.41064066102383834 1.8499686727638558
2658 -3.955781519845379 0.7210294130668816 1.8218785327211713
2944 -0.47707027379051237 -3.2453024763323444 3.175758614358422
2981 -0.4511188589430386 0.7602618860899512 -2.8168431929880358
3232 0.2690699298574294 -1.2075860578910311 0.23631678860449928
2946 -4.684922232935497 -3.9717920412002674 -3.0847186001369553
2943 0.3777840479414887 0.36558673386448814 2.6638370965174056
3269 -2.240468638335826 2.7350813974657133 -1.2758177154123236
3520 2.7638340875687795 -1.4916588289994563 -2.966088827224237
3234 -2.0321204307081855 2.0365690321174457 1.9835465416302103
3231 0.9948761598749221 0.9553043599044265 -0.49291661525047187
3557 2.3377360368659463 1.2798134978333477 0.028926755674406068
3808 0.3719114141099977 -3.601526350262201 -3.277953796432322
3522 2.634214296503203 2.6372281548912047 0.3435599222772303
3519 0.4532015212867731 0.06177747409027426 2.1103444438639825
3845 3.9186308724760477 0.5194323327857077 -2.51253893989979
3591 -3.1900529021549726 6.643746700975296 -0.5595004840349814
3917 0.30078702215743547 -0.7504378083889957 2.09522366236222
3810 -2.419281119655475 1.5054623331791654 3.1420349116135124
3807 -0.7110665151553037 -0.26317275598748563 -0.42899738502975915
2694 -0.6411854992521172 -0.9272746148839439 2.8798314038301096
2980 -3.3950927864602476 -3.8129967781749787 0.6517085301843942
2982 1.4890960638189503 3.8434351034081273 5.21776238141531
3268 -3.0242480057109966 -1.2346815134910685 2.139259307536848
3270 -3.026522843200412 -3.928807388703425 -0.7211208016058457
3556 0.5905221689891812 -3.170181228161952 -2.118010483254211
3558 -3.1087281544607936 -2.4065456057408356 1.4636745986079043
3844 -1.4985061549412182 2.709385225952109 2.882430920286135
3846 -2.2745940667960163 0.3514484356273913 -2.1392371858504173
3594 1.2852470829182487 -0.6888390588099287 0.41749311739955663
2691 -0.33984339528009455 -0.13762913716806843 -0.5669196218204112
3017 0.298304786368954 5.089706855236287 -0.9538508222334714
2979 0.4664777097293363 -0.8919588171345552 -2.6807178834597116
3305 2.9821928883734494 0.08312176093695989 -3.5889030851922987
3267 -1.0643137881428812 -1.2870051164946532 -1.1484581517715036
3593 -5.594911595716705 0.16395907678747598 7.3513945365082085
3555 1.3082888286722962 2.5204372854112074 1.253593737609161
3881 -1.7934054677043294 1.3975288770683016 0.2211315087858921
3843 0.3357966148814618 1.0282029010597111 2.1701510001726954
3053 0.041979345867578566 -2.07858891443747 -0.8313647957631838
3016 0.7435720680617915 -0.9344173228364391 -2.086693878945924
2730 1.6705207774146615 1.1252117562346042 2.175892343645457
2727 -0.500359341259629 0.6089115093322305 0.7557346270065041
3341 1.8158725055634017 -0.5153568670876519 -2.488849451010766
3018 0.4812945232867659 -0.721003143417257 -1.6500098936193555
3015 -3.2430133017240332 2.340694192413707 -1.9165852178370764
3304 -2.298229399560301 -1.5720540363884596 1.510453494272029
3629 4.184229316228437 1.346850641408024 -0.6545168211979728
3306 3.1269672126816825 2.7992931881958074 3.1914660952969616
3592 0.31775283273069965 0.01820942748911927 2.043658426194476
132 2.759178609707621 -1.3033750842004714 4.218575369048395
64 2.2352455451132336 3.270205328982942 1.3402155737410437
136 0.04250037136222908 -0.9985823558501123 -1.2674566435018895
65 3.679107076543782 -0.16727278008513496 -0.6250640522791859
133 1.3354853439828467 3.625529597572959 -1.9700902176492918
28 -0.798094715176057 1.4647943706242608 -0.272141667872825
173 -5.265235573376068 1.6156216160679249 -6.05323693141194
101 -1.2971847480023204 0.8543221570631793 -2.4029843321052375
2626 4.577557028776106 1.0768222246498813 1.2577007704635685
2912 -3.9811211305752066 -1.967075372943494 2.8941356348125047
2914 1.658275434445841 2.6298000027381776 -1.0299198219061028
3200 0.7154963187440517 -1.7310728795189674 0.2813621374989283
3202 7.01081683767804 2.7690470007359287 3.5088475531600123
3488 2.5025680758816704 -0.8503577382366461 0.4874820001099158
3490 1.4739848125030606 -1.1371503923699333 1.551041957473817
3776 -0.8788517613269481 -2.490799558064807 2.1832941281830975
3778 1.470463902218632 -2.2178056813315266 -1.3442747918328202
68 1.2308190175274307 2.1504547147598414 0.721908113357509
2623 -1.180935266619451 -1.2037104451595864 -1.6599884940003697
2949 -0.0442916839027124 -3.633802296437143 -0.40124297739081577
2911 2.3353751723301897 1.5193440774867413 -3.6377050093286334
3237 -0.5538641668382682 0.5477563868079139 -1.412823950277775
3199 0.025296838919702448 -0.32317603864910527 -3.532153502886934
3525 -1.1186376274725665 0.9855723486185819 0.008413250595753626
3487 -0.383538321494277 -0.1677040430750681 1.720447506168505
3813 -1.0075374410737687 1.6312890003286395 -1.1026344555705838
3775 -7.205996923666727 1.3633149147130577 -2.783407265506787
2662 0.623765075384181 -0.21090850559702828 -0.15834654334027518
2948 0.5819792398931274 -1.4857254756135698 1.8037002580651962
2985 1.3832254066791492 -1.0802330984812647 -3.822079209206551
2659 -1.9328428991209907 -3.1332426594247296 -5.128280759004723
3236 0.6572408784892748 1.0849908922949278 1.1123993257003681
2950 -1.6349882036982146 -1.486703684272449 -0.628292642747404
2947 -0.3198518430065711 -1.7509336710979275 1.7392421200971435
3273 -4.230985323577128 -4.675286276402256 2.827481976419634
3238 -1.061686948111334 -0.10782342391369962 1.4661179808384739
3235 1.2371732677402185 -3.521257064616737 4.652252481160915
3524 -1.8808688689768942 -1.8564109257791188 -3.6062650691424762
3561 -0.042707744467757415 -0.7779656150540013 -0.1446743461847415
3526 -0.2554459117960024 0.19660517789043852 -2.284753399627945
3523 -2.7815109393501416 -1.5602526603468576 1.2617546815747251
3812 -4.851250200392898 3.459751694527513 0.9226881823426084
3849 0.28274975898678967 1.9034008667103932 2.90293375641364
3814 -1.0930423787055674 0.6706657711757382 0.8174414706458983
3811 1.6150638412212284 3.118001642619173 -2.1842376104887244
69 -0.7949185603157412 3.3959421509970222 3.39050740829326
2698 -0.39071813087342183 -0.6552288720701371 -2.1277401565624103
2984 -3.598445859116866 3.613540706649915 -2.650155295543205
2986 0.6356866171357799 -1.4051074540666126 -0.8999613542402233
3272 -0.040043216335028727 -2.9480129452671044 -0.8615097686301053
3274 -1.589356545234486 3.328916111483269 -2.067066467065062
3560 0.5202209550835807 -0.3498564648167819 -4.070783537655396
3562 -2.3674543881986656 -1.6649546915951994 0.8305219153417731
3848 -1.5115998370515948 -2.958182347767725 2.6347044967174096
3850 0.009519893460187681 -2.740196728033672 -0.3798072425905822
2695 -1.929493497672499 -2.252287511389081 0.7449297577451671
3021 -2.287549610646795 1.3265073865120456 3.933926151117156
2983 2.5044123511103793 -0.9762132407589628 0.32669217146722584
3309 1.6123757301915922 2.7960899190302326 -0.5351466941591965
3271 0.9689730986217913 2.850911998610834 -0.49629459014115396
3597 -1.9680752836252045 1.3920074080509255 3.6135972504672034
3559 1.576466483708941 -1.3292744215210148 -0.7485224369057888
3885 -0.7987953049946246 -1.4989165867144694 3.6444785642664663
3887 0.8110637975452281 -3.923864603344117 3.1963269558073493
3847 -1.2289167472501106 -4.678742778627098 -5.111567505832614
3020 2.7178790060198765 0.1562644885149228 4.088264944832121
3057 -0.40849321749290923 -1.8195693664682382 0.07487133378581981
2731 5.479266876891627 1.7171357580911248 -1.4583722680651758
2734 -4.4225306644779865 0.32330770192870156 -3.0092665158205785
3308 -1.414601252674296 1.188460318227358 -3.141444447940125
3022 1.839641526549574 -1.5840873724709703 -2.850166097651923
3019 -1.5234877455594524 0.21522370353274545 0.14006674565400332
3345 2.569116912076862 3.3090929640349334 -1.6686830488484685
3596 0.8381305474744195 0.7459434222525264 3.7719719860222054
3307 3.8069535946342477 1.6023035028537307 1.9642170894416853
3310 6.712354362362913 1.7515705924331109 -2.307658231969791
3633 1.1096489424165776 3.106836225556871 -1.0336448632316204
3884 0.3187063043310491 -0.2717567199931745 -0.8810044415629296
3595 0.7065514916443646 0.15943918715203462 -0.5520894902343187
3598 3.7406792631463146 -2.420340473337814 6.431706861810581
3921 3.303998292073145 -0.13677489466736836 2.191188469537874
36 3.192979479464173 -1.835376378838931 -0.2072443179597122
3886 2.297461720022752 -1.3782008843139246 0.6040126687400292
3883 -1.052960518803988 -2.902896203600709 -2.660213152430364
105 0.2549076348800524 -1.836874492464866 -0.270358180219578
2916 1.2981599140440345 -1.953862847376635 -0.1878616519133923
3204 1.551806437975699 -1.5641866739627963 -1.5190385465371838
3492 -3.6991889683281975 0.6307575827172008 1.905893070242166
2666 1.9690207295834756 -0.5661003488834612 -0.45398140102623147
3780 2.158384659262422 5.667052936344466 -0.8393266578788461
3599 -2.342284050784152 -0.9294137423798557 0.3855412043915845
2627 -2.5792808713143702 1.5657969262621414 2.013135285051118
2915 -0.6142071865625373 2.352371066314737 -0.1968316346154646
3311 0.9582997571951797 2.6827851766933923 -5.548155019956058
3203 2.78681175721102 1.8752334669830901 -2.5408403966141404
3491 3.1121959904652825 2.301491785030334 -0.12030335742691144
3779 -1.1729074100280703 -1.6120995738994919 -4.088565463108982
2663 -0.06227485872904087 -2.1672152682202044 2.5666906201215136
2952 1.0446055880998002 0.9614540130260498 1.628322099735921
3600 -1.5868623284232473 3.6371537319381813 -0.1912097632644213
2951 0.14317165279046282 0.09366663547224335 -2.9655441385628576
3240 -2.362286457258552 -0.7224631117602834 -1.9558876067099948
3528 -3.4770077445581857 3.457639914433869 0.33580523254022915
3239 1.9617656050557108 -1.2404700908258055 -2.671344897015119
3313 3.225763246556063 1.1329886491173937 2.799000740732748
3816 -0.7921629418315851 -0.7310190834504573 -4.255634447580238
3527 3.6749553981468073 2.0306684303815064 -0.42134774064520386
108 3.165878202189109 -0.26651387328430637 1.3303735776502323
3815 -0.6323442082072928 -0.8114240718411734 -4.473196151901828
2988 2.93677730389472 -4.569059850596143 -2.837033941699343
3276 0.4261213113680682 1.4440702518975939 3.4414975804303647
3564 -0.27415424326309823 -2.3285208772868464 -1.8063666134549026
3854 -0.36415912559249314 0.9067316325521663 -2.081735867788712
3852 -0.7339466663642983 0.17676120473797588 -3.606054284846082
32 0.398144846790586 -0.006690501708206261 -5.18997201206302
2699 0.9784620889253739 -2.50935566058411 -4.205695946265938
2987 -6.246075123078003 -4.340278030768877 -1.4148103012711006
3275 1.241327801875366 1.2460665570016136 0.26159756180567717
3023 1.074492264171972 -0.5306881425045956 -0.19097672090171464
3888 -0.1702222933486457 3.369804832998561 0.5061968890161617
3563 5.776272979095292 0.030980577276317884 -1.4467423369525814
3851 -0.18906971322113486 -5.339003721774399 -0.9427218247544575
3024 -0.9947416055267704 1.395254709739826 -6.60286048660609
2735 3.083708786365907 1.867360757980514 0.305752122201176
3278 3.6711688801735334 -0.6159852805025529 1.346701197293663
3312 -0.3215386483781736 -0.2468453749114217 -0.13755091097900193
3205 1.1813959571533228 1.1461254817356454 -0.7244980452172928
3277 -1.4887966743512864 -0.014543741812346005 -1.5280151450809556
2953 -3.5726293833031537 -1.1636845632787098 -2.5862930920078497
3529 -2.726005761249549 3.8674352185770586 -2.017920043909405
3458 1.331668268351783 1.7488923138342871 0.00592340902834194
3241 1.6327754993042127 4.955590618558384 -1.760934150228739
3028 -0.433020523263113 -3.927615036408372 -0.5907216321907569
3316 1.2067982015277863 -0.6096718757041972 -0.7995305859621527
3604 -0.6496047637028457 -0.7127424670543707 -0.23143074093382254
3892 -2.139605478395806 5.599754578542155 -1.0398636676612507
2739 1.6848455112247622 1.7998870701427603 -1.8633490879750947
3027 -1.4103064424119809 0.5714923011970835 -0.5322789192933058
185 1.917992564793557 -0.1345974533889133 2.5470860110415914
3315 -2.578965245799294 -1.1697532475436319 -1.653809395984103
3603 -0.18968859612480937 -2.6973003958755157 -0.9470222403061856
3891 -0.13637773003587098 -1.634844539969928 -1.2163958548601774
3064 1.6691784420842064 -3.525078925743227 -3.9952409784278915
2775 2.5398695023894025 -2.6312646849987193 4.6132767360961155
188 0.2762600549450391 -2.7759768296674907 0.3541632303918922
3352 -1.7020321456218672 0.10517655427383363 0.23800678757167854
3063 0.03166154204369952 2.2122660334459887 -0.12569627514337073
3640 1.2350331121446876 -1.608325948366947 -2.105501752595944
3351 -1.483624126922443 1.6002552591597126 -0.6112481105640624
3928 -2.193871713655582 -1.0780826695527754 1.410610638077964
3639 2.3147659573247994 -2.2297211931790617 0.28504630233832867
5 0.5134683824362588 -3.558617117237071 -0.2341669085138319
3927 0.31257068101354785 2.0353774639385596 2.777265362856113
220 -2.2687593138022684 3.3883905024235723 -2.359339363782637
3100 2.3606389278293363 -0.8966824019315849 1.1658818190092528
3427 -3.721300955081293 0.19842423027938655 -1.3238991057098515
3388 2.3826444725095954 2.6170712749624125 3.6634685124351356
2810 -3.4073991832199626 -1.224742471086947 -3.3059820016711607
148 0.9137454589569366 1.0085119454231668 0.4515479809593586
3676 3.207612835397111 1.1143729526921133 -0.08201102764954658
3716 0.8916071649043645 3.3732738233804125 0.8758793220375268
3964 -1.4384397651854588 0.20038021096362563 0.7094488410333419
4004 1.4270545673790513 0.551001296488956 -3.090631646736311
4003 -0.4325923538268484 -0.05384210661253468 -0.9696214907572341
2811 -1.5583268740534526 0.5977785677810564 0.5452476665811724
3715 -0.8391035707992971 1.3931398780118747 -0.7027379987731621
221 0.3919844316027289 1.6806120605787453 1.5169584400630278
3099 -0.17124040383619318 -3.3367298103998815 1.6957543467238372
3387 -3.6179312840729505 -0.45786315091032853 -2.6777958698614293
152 2.280079488313471 1.591479299544747 0.47773189389921944
3675 7.801135822473469 -1.7432905437413193 -4.212611188786283
3963 -1.5103626703145898 -0.4129617889364445 1.2476232199634476
3749 0.30522121134935426 2.3595129479084123 2.6559249391871598
3714 1.0468789088634098 -1.817822795413448 2.06689612896153
3136 -1.4770863227106452 -1.022688609849933 4.007034242001015
2847 1.8026660518161282 -3.24392331634928 -0.0723216476968644
3097 -4.262008592900072 -1.0631553892553285 -6.961090908305683
3135 2.2505976025391674 -1.9906088974673706 -2.161071660646925
3424 3.3280402863723206 1.4812742505158023 3.6813686601637094
3461 0.12166906420815453 -3.261008487539932 -3.3158594845864746
3712 2.78390369900699 -1.3375493531174805 -0.834141035091979
3423 2.6412603458420656 -0.8827675430560435 0.41726599451936913
3426 1.5575472505431236 -3.7639235460674345 2.775625560360306
3138 -0.4531220466002241 -0.34120789805146223 -6.27829956121653
3314 0.5748624058595511 3.548112986996242 0.442134565267484
3711 1.4848088670704802 -1.6662619386001918 -0.8691915008661857
4000 2.092211188348966 -0.22814703442729983 -0.5140550874811471
3999 -4.7394454131093005 -0.5899509738273159 0.9988286742454966
4002 -0.9474203739283393 -0.13022399967381956 1.297262887317005
2742 -2.2070091360594812 0.4876675294557166 -1.7008671529780501
3032 -4.621003076252948 2.998934668306459 2.208314820922914
3030 -0.599752649876006 1.8031011322262502 0.28746658372397144
3320 1.0928192902791802 -4.959769745766087 -5.082336380462307
3318 3.7272926637847954 0.6335673542910285 -0.07599432783281919
3608 -1.5402523619533506 0.4448140918283797 -1.6195341026091532
3606 5.130902457805656 1.1141428105154298 1.7903806435243215
3896 -2.357154777472158 6.6735918576364135 2.7673260253920793
3894 1.9898479132492581 -3.3773952240466993 1.7770270635224668
2743 -5.9216870698873105 -2.268593851853837 -3.034332818701134
3065 0.7998959966240954 2.7181736543601644 -0.3400049949853432
3031 8.131877086656683 3.618851435178383 1.1485444915734924
3353 -2.558084026977634 0.9668369694257163 -0.014016698252782537
3319 0.17617601537273617 5.565511293668657 0.9741761650845903
3641 -0.04289542320905734 3.272057692879992 0.6226863189605557
3607 -2.954680785428333 -2.6753578415002943 -4.580182445037585
3929 0.47704849137739785 -1.950327298845437 -0.659905207751871
3895 -2.8601436974744137 -1.114044474164749 -0.330258499099199
3068 5.891472275987931 0.5220649169897346 -2.9809888756475127
2778 -1.728505021020033 1.0277990581508782 -1.8221577190122842
2779 2.614536849252427 -0.01821898930415407 -1.5571570368909196
3101 1.443992172262794 4.2421334952063 0.37843068794832807
3356 -1.614647903823338 0.19103764127613213 -0.46005164622999345
3066 2.2351088015185434 1.7426425978935605 -0.44367411666478035
3067 -1.1507952279432332 1.6360036298994196 1.719119322617692
3389 -3.8033761934174874 -0.06218428410329549 2.4999497448209524
3644 3.505506201660584 0.19208015199358014 1.1744476442713878
3354 -6.286250221631859 1.664857262542815 0.5679738591060486
3355 0.7101885127978774 -0.6726851694455046 2.801888549305348
3677 0.6020872035637196 0.44514013971099936 -2.8085839482237778
3932 2.4286448317987746 0.5401366868358722 2.113381335846773
3642 -1.0324020980114876 2.070675056551647 -0.2217310005740305
3643 1.011770899228268 -2.1379239534335346 3.0742254663825963
3965 0.413556223298599 -3.791557739341086 -0.8960360085760398
3930 4.18202419098093 2.527610560213495 1.3853604047248504
3931 -2.362436209616777 1.6556664963384218 1.015101995452378
2814 -1.1540034919342195 2.121448901875702 0.21364548731959856
3104 -1.507220989568857 -2.5987719437606702 -0.8624767243769511
3102 -1.0534192368056856 4.498017507241621 -1.248376419173068
3392 -1.0633505436832045 2.342382049307261 5.079650068967354
3390 1.2537046349907492 -1.8444856844051623 -1.1392903855836336
3680 0.49096177882158937 0.5159616628497847 -1.4154486315737904
3678 1.211054066416916 1.5279766007699336 1.4157895483512972
3968 1.554589237013227 -0.8377431374266046 3.894354635598406
3966 3.5355806844883757 -1.742138756540941 -0.4211394274089543
2815 2.3480543520617645 -1.0689086881333678 0.6559614401215614
3137 -2.5615923620678673 -1.2438143835594058 0.6276612580159685
3103 -1.3845415020651914 1.099516280796311 1.3718022360444135
3425 -3.6641442101734616 2.5470360190948473 3.4128759881243975
3391 -1.6877937199476944 -1.2370505910790859 0.19874148374524644
3713 2.0881200003773324 -1.2333315374365468 -0.20775984327932337
3679 -1.3691678763702535 -2.219601344731979 -0.1338276411863362
4001 2.4774714906243327 0.3079661234155683 0.4342626486344278
3967 -2.976360434734206 0.5868802210230746 4.177973345676871
3140 2.4512241299608206 2.0716313458849123 -6.410885111414361
2850 2.1427941026222164 -2.998984774099575 0.12556505258528794
2885 2.0311506346185957 0.48790802000143324 1.5113173346849447
2851 0.25877226028484573 0.8896604134699593 2.507602966008079
3428 1.0882318943169527 2.0308880423992424 -0.49139731596041114
3139 -2.0260869327878397 2.8993076524707964 2.978062954545246
3173 -0.297921246916063 3.069138024444508 1.4174187225066925
3926 -3.6902384398492662 -2.501410221151521 -3.3938555334445035
224 -2.008043100897111 2.1900092384979075 1.9047247774944982
3745 -0.2833364315483737 1.1885418553724507 2.8769220525254853
3890 -2.498294154702454 2.1835473582697404 -2.7667886217420166
256 -3.472800279896021 0.784835284223533 -0.837683817661092
3674 -0.1475102459307364 -0.9131434156518183 3.088564603686475
3421 -2.3345970789982364 0.5258313513844997 -0.099769715753539
3998 2.737278347108785 -0.734598213583458 2.1313475072184263
3709 -1.018804117041059 -0.9270748105581966 -0.5774995960211873
3457 -2.206613917330187 -0.03612897465522482 0.08903643738994892
3026 0.7764156919545879 -1.0362499616216965 -3.966535694807181
3169 2.659483545667945 7.915424646958927 3.00241122224528
3098 -1.4636715621924496 -4.488982250396173 -3.653860608697871
217 2.7260179038779855 5.833391057854751 -1.0763832684696966
3386 -0.29036964329885423 1.134373295650309 -1.8487677651037033
2774 1.9855821831726226 -1.3203179516253245 0.8334519029084893
3134 0.2026961538230118 5.019806462505263 2.042756140087074
3349 -4.143997122178054 6.840795872992916 0.5128303569835729
2881 -1.1170043640379756 -1.9347565790588779 2.381185197608782
3925 -2.389389533972708 0.5106457364570672 0.9399765801897527
3602 3.4139290170903567 2.1379637249408225 2.2955713107106877
1 0.8213541846923365 -4.308176096916273 1.4916474696339501
2746 2.9647107820458767 1.2669237288720763 -0.07268852007111185
3036 0.6844897870974946 -2.533145685021865 0.13494610779707228
3034 -1.0529040073178395 -2.441887655507341 -0.2185241238043461
3324 0.787464212004938 2.508542805611542 1.164857302059938
3322 -4.33147011518262 -2.464388990055752 2.2289483210151984
3612 2.4866611645840413 1.716955869611037 -1.5750104372138003
3610 0.14277231878665864 -2.8914424424217016 -2.8273225572971463
3900 -0.8441975007706501 -1.3989839137054745 1.7086595731017304
3898 -0.10789337812217448 3.9734557034113243 1.8812307497151717
2747 2.7502424746204754 4.766896191655175 -1.6750608551620612
3069 2.884179866416575 0.18311515047699448 1.0008600440269242
3035 2.948190566581612 0.05521880656938335 1.2199099394397264
3357 0.9842751794114202 -1.5679943487459622 -2.7494207585346335
3323 0.9678245497538309 4.802881307019722 4.1949029332712895
3645 2.5121818612949416 0.3918439007860796 0.7417708239506489
3611 1.332247590094878 3.5133612514269963 -3.816862019457576
3933 0.10533011318911543 2.8962083785093844 1.8031667233475115
3899 0.35097376447618955 -2.3083916919323997 -4.72219602346097
3072 -0.5997834603467374 1.8757450598413148 -5.121784551887118
2782 -0.3231764495703353 -3.4960902645267637 -1.2959960785555824
2783 -1.8787107063378703 0.5011668497507779 -0.5792286705940818
3105 -0.29378813698942247 1.2211833300076915 -5.875835214459759
3360 -0.7631702482556962 0.6333393123997608 -2.263858510886969
3070 -0.6329344644428846 2.0160368499760972 -5.364498636920977
3071 2.8298539392955235 -3.2668863729445214 3.3892675773871788
3393 2.6167684972681062 1.3443247556482745 1.4111711897891381
3648 -1.2815962424105005 2.0153476666504333 3.3158520527872
3358 -4.8325464165460135 -0.1160120532811994 -1.9245153330330609
3359 0.7382403411744074 1.5848885051054369 -3.875236150633804
3681 -3.3409615595558786 -1.8466954282318768 -0.8119321019192052
3936 -2.3979650306581526 3.509594865076439 -2.0867304103050808
3646 -0.670716859132665 -1.9708151538036418 2.3839127030608465
3647 4.151030875138244 2.250026392480686 -1.9134239970004536
3969 0.9020226478476716 -0.5602673950891264 -0.8435115135459184
3934 2.0898893037172375 -2.789013877427918 -0.6678608631213226
3935 -5.099983369033851 -2.7743618726467916 1.5574048395456606
4011 -2.224631702663637 -0.09090302699515605 3.652168404380394
225 0.4553451310145485 -0.5477057799113078 5.598400007808059
2818 -4.763957192671148 -4.802539345433759 -1.1466431943783
3108 1.3087403166449996 -3.3564066675202873 3.829246014907041
3106 -0.5218373478259958 -1.4906883103421602 0.34768164972606946
3396 0.19210628592040702 1.308452692984708 -1.4589678158767008
3394 -1.2950343310236339 3.5611748682598012 1.2128143198513417
3684 2.306940199371868 -3.4578676361127796 1.8459555532698324
3682 -0.6036198227107005 -1.5688582433890712 1.0140968087781037
3972 2.4096277738881744 0.853443776697782 1.6262047470770213
3970 -0.3339896342627424 -1.1339691739090043 0.81127356328364
2819 0.2882333568320599 -4.243168268316388 4.2406293228309435
3141 4.282463959352846 -2.261716046672094 0.7461716026662403
3107 -1.800294090211845 2.4294999988691846 -1.98510255682884
3429 -4.235270822349256 0.09446280636743637 0.8561553541351516
3395 3.061145975088857 -1.6771848441794779 0.8876383079673894
3717 3.5024499790696573 -2.0772756801205663 -1.5705704884946827
3683 0.026158516972747237 1.6669386482733968 -2.3292834973954264
4005 -1.8971065813513297 -1.8778953867155412 2.467540435980046
3971 -1.354306888381668 -1.2544325985140954 -0.8518087726202891
3144 1.349871093103532 -0.17775179937453756 -0.0938700934291234
2854 -1.1076572929466686 -4.381679433066778 -0.9494913350273013
2855 -2.316762555215598 -0.3068994388804814 -1.6638321094543607
2889 -4.220995232900065 -3.6704284173254105 0.7039171877820245
3143 1.8777305429392093 -3.144985932495307 3.7843843180436716
3432 0.8382831900448483 -6.656566299679787 0.5615464627914476
3142 -3.0346298129141793 -3.3007339193492684 1.482030877048099
3177 -2.5223871939769023 -1.7200189374182853 0.29371930377720157
3430 0.8848756237876776 -0.0038575098460917464 3.696057879380117
3431 -1.2674226421260713 1.426898600276127 0.64161543129484
3720 1.656274720456866 3.3267037490356044 -0.2535458000186614
3465 -0.5468598848867637 -1.1232335045963266 -2.30746258152106
3718 -0.7619018102881029 5.326656453769028 2.89055463616632
3719 1.369456142430448 2.3778880024682922 -0.6772523516796571
3753 -1.7752301754998594 -2.053316245093461 -0.23867779583086768
4008 3.1601326514517982 2.540589801143218 1.0419986112813244
4006 -3.307260443685647 -2.442231804704601 -0.32816300949842697
4007 0.7867624966395688 1.6896581343420265 0.3347854777068999
13 -1.7011473145589528 2.3264339220747403 -1.3281814557680742
232 0.25850818823960875 0.20039702603533946 1.9846634962146765
2750 -0.6927642761989966 0.5643068014406669 4.055203739592571
3040 0.9455372206647301 -0.781511722341688 0.0662984801971157
3038 3.0544927650635882 1.6852638215637303 0.5586598169371599
3328 -0.5662393583062854 2.5845703867469862 0.3060182266018116
3326 -2.363608794654493 4.05972803691047 -2.3443280737109324
3616 -1.3187864795247717 -0.029367624464367335 1.1777989526886428
3614 -2.1773878872712844 1.1463731381842164 2.9066880654827214
3904 -1.2229358227054568 -2.016356398485809 -3.128979419218542
3902 -0.4852373494296742 -0.5820802794228959 -0.200542995046797
3723 1.5234427297954458 2.250560069683239 -7.222008637259695
2751 -1.6976459849000092 0.2687325448238222 0.9560742112640146
3073 0.8403452952251738 1.726282349755643 -0.5684431388737845
3039 2.2196252331058455 0.9444670866599875 0.4069247753204852
3361 5.405737992641415 2.664040816843459 -3.0509174543621596
3327 -4.490709201901061 -8.952420159924735 1.302735050406364
3649 3.1276972116994353 -1.2387331310754395 0.34192267876835825
3615 -0.3033630157068492 0.5479648466515493 -0.796515389507971
3937 1.0203681764887405 2.32336324077263 -1.0204763826912262
3903 1.48092648502712 -3.2300559127467086 -3.571571817481738
3757 -1.0637544360900264 -0.7068678232777835 0.4575461584033894
3076 -0.553314784129269 2.187406202279584 2.112872161879217
2786 -1.2105230323656306 3.9792110956105304 2.4109262807651364
2787 -4.567452466190345 -0.43246817494064094 2.980634120470851
3109 2.333882080721652 -1.0413406469312194 4.948018268358443
3364 -1.9875082992826176 -3.1361970748720602 -1.3908462017181682
3074 -1.8484476684837694 -1.9737492396412233 2.8524419678315924
3075 4.0359455738560595 -0.48097131273480753 2.638028163809742
3397 0.012859568547769014 0.7749782711689364 -2.955582017916403
3652 -1.7817110338991755 -1.6663716266439303 4.464833324186765
3362 0.7312114762357779 0.4440287240262556 -5.0412873719371065
3363 1.9536158451590302 -5.345643414374305 0.9930597990006498
3685 -0.44431014789348094 -1.3825386938941449 -2.4201556575326824
3650 -1.0011447679118861 0.4454180495746698 4.3528490195315825
3651 -2.590459243568708 -0.7723996229693468 -3.986738715681741
3973 -3.6241160476606606 -2.351687325458147 1.6233531985808347
3940 0.6669874668508249 2.064198882604127 -0.5027615308072876
3938 2.305503084427357 -2.678844006151429 -0.9685985678966818
3939 1.658772645557917 -4.767514660392605 -2.1589088911882994
3722 1.201892989798338 0.778172165989025 -1.2286811807837992
2822 1.4089498880007532 2.9544654979216243 -5.427353610787648
3112 -0.8199681737321347 2.12861521330464 -1.8389585923315839
3110 -0.5940735686699827 -1.5356661256951678 -1.2346655345148227
3400 -4.6120582129053975 4.892280068158322 -1.4880116141158308
3398 -1.7479815510873564 -1.0778511357321745 -2.445857109049249
3688 -3.0179600000212776 2.8162181865866582 -0.10033045379968916
3686 -2.4045315851953712 4.941716130258348 -1.947867346909405
3976 1.5599470882872086 0.12664889933776363 -5.300190687895176
3974 -0.8648720668647002 2.0410786982464018 1.8475635148017766
4010 2.1852406579394072 -0.025505483900181113 2.6714336063305915
2823 2.3627129708805925 1.4968043569171534 -0.21898106758258903
3145 -0.7644179629143144 -1.0243224125081682 0.07437530179395933
3111 -3.9797326576449703 0.3658015398536636 1.4675526115860584
3433 -2.052022996978634 5.214723287981539 1.8953445917068705
3399 -4.402302576950804 -1.2106354203668808 3.542227466465607
3721 -1.591913047041736 -1.1726918607191463 0.14908007905229034
3687 0.8872523917907097 0.7640396317174086 4.362021844981182
4009 -3.8994257674015933 -2.5772424403806973 0.44813832055747266
3975 -2.1714204327565194 -0.3368081648024815 0.9310563760508297
4012 0.8213152492650582 -1.729795973595145 0.9757869923369775
2893 -0.3925816310002484 -0.8217777425140368 -3.1380071442403006
3148 -3.6675067402207255 -0.6162494212891717 2.6084759545812215
2859 -0.14041728599277864 2.758865932820134 4.928129483048127
2858 0.5087872873239097 1.0769643528489945 0.9133580503849671
3181 2.5558250178774915 3.4411214480425736 0.38644116982663473
3146 -1.171637982551324 -2.6876874537607334 -3.29747338806397
3147 -0.07751077621733143 1.0375388214956078 2.044085548488087
3436 -1.9731449831468217 -1.1022921715942047 -2.8573913239449538
3469 -0.8876304362664069 -1.9742410766610048 0.9180642531325548
3724 4.904429996925506 1.01231992368296 -1.188798425193805
3435 -0.859218103836167 -1.9854323015746482 -4.988295910387555
3434 2.2246273089204984 0.5195550511860461 1.9587639019333571
156 0.6149426561691275 -2.320185133260555 -4.5765645433568976
192 -2.135553108812429 0.6872750848290269 2.9262327969333572
265 2.5716101051487574 0.897950415055104 -2.3265970488590777
160 0.03219047983843072 -2.2282670888356084 -0.32599252609277174
189 0.9224869414613253 -0.24695243810971054 -1.5612385560137003
264 0.8623045217212988 -1.4736972299803985 1.931457569723411
228 -1.7781730395345967 -1.9559340778691963 0.07523258865605917
196 -4.247634832289408 0.910456089765176 3.696247499482272
193 -4.464768037593952 -2.0383954166208373 3.5173677712600666
2754 -1.2171698471223598 2.025972828107156 2.6331874125184562
3044 -1.4766511217529437 -1.7474863917026895 0.3477273935258472
3042 -1.3498130404250062 2.190061935242768 2.1644021216195486
3332 -2.0826931179797783 -1.6252571912284306 -0.2144865564620177
3330 0.9987593438468977 -2.48102109697777 -2.6362893807292216
3620 7.614327537038712 2.312866751762369 -0.33182400704957027
3618 1.333140018372045 0.6152794309540732 -0.4518759779633122
3908 -6.370361111242875 -3.8438145048385755 3.2883687289087633
3906 -1.0398741378963625 -5.480244164247893 -0.692614501376209
3077 -0.8897167315077786 -0.9633787419724996 2.2751527177936604
2755 -0.817590157127314 0.6826278148929248 3.1248516946529095
3365 -1.1507421177816808 -1.6835751559757888 -0.18780856829351433
3043 -1.2503700341975128 2.1035115771215698 -2.87764498038493
3653 0.7445041727077851 2.6742459672947394 -2.6442834578584797
3331 0.22383539585974496 -2.90994679214513 4.007111492027535
3941 2.429553663629777 0.0155394274137309 -2.910825464893279
3619 1.6022368521137007 -4.779408766359027 1.2300276241873829
3080 4.020970829207548 0.5314521661115956 -3.9342450735539103
2790 -2.360242983065656 3.01327694496485 3.3982017789794243
3113 -3.5178010262317736 -2.0638825772071296 -1.2034325523227885
3078 1.6170356032310882 2.496962492382298 2.1138295480417386
3401 -0.39882348532264494 -0.08144640110259131 -2.0186450806887244
3368 2.1130966393861534 -2.837337973219043 -2.231500515852464
3656 2.273695755734013 2.8163665728478193 1.6091406133640513
3366 3.7531415228485985 -2.877596250446717 -4.384267080692179
3689 3.493764131088261 -3.4073830689642306 1.0985873318286707
3654 4.888124745611005 3.2363229033562253 6.386414266041307
3655 0.09240036005539748 0.9069264257416014 0.522550679251571
3977 7.583551028527305 -1.154287085263857 -0.5228641889891777
3944 -4.751596547936376 1.8908678462349926 -0.5704514201121293
3942 1.8305896297438655 1.7950360651035624 -3.6333116814672732
4016 0.3030847981461042 2.3283079887587936 0.2869870135170126
2826 0.0370327168363129 -3.2868960682612474 0.2616336493101567
3114 -4.327359347437958 1.5599273834941765 0.26759295750636264
3402 3.8271329982770985 2.838944632057331 0.232308206161621
3690 -4.783963647480665 -0.858082241444731 0.2308411126145321
3978 -1.7106584698404237 -1.293681511439473 -4.739986524782454
3149 0.0030912683732512345 1.5604979168854636 -0.4040081760286184
3437 1.1473487645667093 -1.9156284804087045 2.1251127321268264
3115 -1.5725494289523976 0.7396128113617424 -1.2524431187967602
3725 -2.681174132494692 0.09840449874636747 -2.748266459802084
3403 0.7817810312761527 0.6863493941844985 0.662355435486182
4013 -1.3263592067685157 1.6755086932618435 -2.2242310669359058
3979 -1.6833478931940309 -4.282079953035637 2.5376569862405605
2862 0.4004277572703931 -0.7522491985258238 0.957839680182772
2897 -0.9849507090994856 -0.4690997448091068 4.224733391625766
3150 1.0977752576405682 -6.147325255419193 1.0667580262113157
3185 -2.7032459693860753 0.13649879476685514 3.269997311051644
3151 2.645273565733897 1.6798353253744602 0.6723192769166718
3438 0.9425108061738696 2.2189249959420603 1.9810812924157069
3473 -1.745166519742309 0.2958970326502561 1.1615997548389354
3728 1.0373482483596486 6.465387634032187 -4.739561261085013
3726 2.2770339598842946 -2.053795212304718 -0.3762168601180028
3761 -0.40621722041080033 -2.0617073244019144 -5.260530369074001
4014 0.11983308525856587 1.871326280819091 -0.3237953425590681
4018 -0.7096875910563107 -5.624874135191769 -2.4630847499566095
2758 2.336905739373349 2.5025309207545896 -5.739550433918919
3046 -3.421896927144076 -0.5934506978321452 -1.1437811168665584
3334 3.321203506536829 -1.9680465171374146 4.188244637201499
3622 -1.354571675187855 0.7419762458974632 0.33208792389409103
3910 0.5161999095537575 1.2430869687112036 5.771160192499117
3765 0.4908778134802659 -0.04011341934947302 1.5323308762578363
3081 3.587481441938887 2.308279829970641 2.1868857820579315
3369 -0.39131197829569353 1.1026877006704603 0.6397976316299038
3657 1.3700909129706713 -1.5501471687700006 1.2868235622257627
3945 0.5196756593216265 0.018192163801108316 -0.24368703538229622
3907 -0.07253585546345485 1.891687239731929 -0.46688736572462225
3727 1.655635011885843 -3.4928424327882164 -0.9679514329018142
2791 -0.5483954496901212 2.133554214480863 0.14179439073090255
2794 -1.3743179167833883 1.5027011634026004 2.831890581849532
3117 -2.887609007773142 -1.0287403022706805 -0.7251310668892783
3079 -0.5567964393453623 -1.6963149916688496 -0.7015502527680896
3082 -1.6588495405825046 0.46871042979122374 1.6408509995448484
3405 -2.385900946768468 -3.6163167007604997 -4.591009269390226
3367 0.1503236621946137 3.3248677381678884 6.034916104952301
3370 -0.5624622008408571 -0.05738641129348758 0.5760528967768139
3693 -2.4510622802305964 0.9752838099751671 0.5737459001278455
3658 3.68969777953049 -1.1332363258741045 2.3208617637801634
3981 -3.0264778882649597 1.546349867079636 0.8611874851336971
3943 -0.11904359996336712 2.0424837215965645 -8.775392627532982
3946 -0.5072854433318944 1.170209422904486 -0.40107894236401526
3116 1.6347713068451801 -1.2953723836347462 -3.5507347897487413
2830 -0.006952636023087714 1.8736921418863428 0.9157908279451085
3404 -0.4481447933042945 -1.762064105056387 0.11298110375080012
3118 -2.7881099009810018 -1.8693714195172149 -3.1241325707417698
3692 -0.8913549908354641 2.691590850305225 -0.9823824017882601
3406 -3.0529884519106836 0.4717238862481249 -0.03964126618867764
3980 0.3361097141738789 0.5894379058946249 -2.599704320878399
3694 -1.0997361090393365 2.0329253665017903 -0.518822874892754
3982 0.7642820990599772 3.4072289332127372 0.07222169794379008
3730 -0.07393301529447459 -4.412075092835308 0.9889578047101054
2827 0.6123763022627274 -2.2735170165626313 3.544140293188408
3153 -0.808468046436264 2.449751890622425 -1.4292145109094427
3441 0.09169977905354955 -1.710251024992802 3.0898765380196025
3729 0.7067954497695982 0.38617626103491565 -3.3632295756761956
3691 -0.38713438179162485 -1.082397556649009 0.7772850440195085
4017 -2.86488228889948 -2.0799693319001618 -0.43371367833721086
4015 3.477188915439402 -3.0288315906848817 0.3396489429540339
3152 -1.4911251471614448 0.0008353873623605796 3.7795895105938966
2863 3.261632452911405 1.1804266460777477 -2.9201132190205756
2866 -3.356199783600992 -3.2653718143743276 0.6398952751352852
2901 -0.30199438973500004 0.6978259538687984 -0.6013106586517413
3440 -3.198465932386684 1.8224686219872734 2.168950955766985
3189 2.92770020072902 -0.5780661790144314 -1.4922630615100054
3154 2.294891219755513 -1.1073076083144062 -0.29905861630538993
3439 -0.3010765152321143 5.057749562888703 -1.6326424276576537
3477 3.735317625706897 4.788532710797474 3.335312385036168
3442 -0.2755892312956856 2.3101098811993133 1.8808257265078556
273 3.2291695794316664 -2.5970097081490704 -2.390094540945599
233 -1.6550091036345977 -3.508960004939113 3.5732214930707262
269 -1.1708999751099016 -2.2428615264876184 0.22640304984131362
164 2.246574749332798 1.8010152117012828 0.7124145380912941
200 -0.757348711372138 -0.48370472871032616 -3.6157900791679687
236 -1.785864601505577 -0.298090851099938 -0.717496476496028
201 3.6517719705213367 2.0629844933053123 -0.5358014750964821
21 1.5169727401503976 0.7961236098948675 0.6384209630264076
197 0.293265785956349 1.5815740347999176 0.40639932765407866
2762 -4.266849949202108 -0.6585707726226218 2.2913326817745987
3048 -2.7010470193218947 -0.6217132652710843 -2.3389537248130075
3050 1.589434458869212 0.954123188545841 0.9043074643623557
3336 1.7705324128069997 1.3003127718456589 -1.836422710087869
3338 -3.0560472166225385 3.643317266718722 2.6485525578278386
3624 -0.6716452069187527 3.7259139705848625 -0.14396744020130806
3626 -0.9212293918637954 1.6284174536543878 -4.941451601935466
3912 4.323676848075028 3.5709160519803347 -2.263770118373002
3914 -1.30669736771665 0.27498949935335293 0.8613024507150489
3773 1.6271679313733167 -1.1929265943708873 2.1449203240582837
2759 0.1096862721310948 1.5248790938459587 -2.2225696084943443
3085 -1.4622458650090318 -1.75875557962387 -0.629399688064014
3047 -0.44356594570170993 -1.5014728790910734 -0.9712394547124394
3373 -3.335039370041351 3.4098358281228034 -0.701000819068023
3335 -2.628288947085051 -0.47588371163844784 5.433960583892739
3661 1.9554627685964783 -3.772537492698786 -2.5104655602504464
3623 -0.48834513675968855 -1.2521202852479119 -4.7701627784856235
3949 4.923133123813553 -0.5707891898733907 0.4203965645132455
3911 1.7023132240066492 -5.540111317834071 1.5924466789660323
3485 1.6873434453314522 0.46316900021655016 1.172688890046853
3084 -1.2792460914164097 -1.1254635338026666 3.77342230731056
2798 -1.1967278260073724 -1.1147180200947928 -1.0383514259814461
2795 -1.5636722131281673 -2.0947766428571506 -0.9792376617726622
3121 1.0347982576624855 0.9114818079449323 0.7900291408634668
3372 0.6604607748640985 2.1211301080784923 -2.230424302885111
3086 -2.0577034383608424 1.0354620682218239 -0.4384341572063238
3083 -1.1622766502877486 -0.7674448467235245 2.285978311099877
3409 0.8871676083507798 2.011791932685258 0.31651349929284445
3660 0.39192108942124654 3.0889331497885864 -1.6089132170600802
3374 1.0011119795377907 -1.264702850053997 -1.4077565061750053
3371 -3.518461768654377 4.096228517942426 1.0771345378134605
3697 1.4321542983795623 -0.8958154044596914 0.22383839242724773
3948 -2.39671578425604 -2.720265425972406 2.687611508782806
3662 3.2260662577353707 -0.7872407762839881 -3.232823647702151
3659 -0.034744455481865666 3.2969519973345998 3.3320123788471885
3985 0.19063976130725982 -0.47749615339665435 2.226507619457033
3950 0.7347590925862325 -2.364456100620445 0.2080353122672851
3947 3.410338681784976 -2.7178898649202963 -0.607668922371277
3735 -2.186169263296763 1.4851171317558596 -1.3953482886982465
3738 -1.7149514507219141 -0.6176110242079128 1.1553275103700402
2834 -1.1582786144559818 -1.1935907339273715 -1.9235681405511198
3120 1.1471060764083982 1.0971290942820058 -1.6631014216317728
3122 2.3321252699524675 -2.1094581878551915 -2.531546362725706
3408 3.912920533534059 0.38771858135161824 2.1305776501275253
3410 -0.5412147169209981 2.710847610403038 5.198304192965249
3696 -3.508937676671709 2.5744223576816636 -4.603119022987357
3698 3.343358812571975 1.34974028257 -4.797653290638791
3984 -0.7233474511284606 1.4848242724993506 -1.7506963334696422
3986 -0.23197397913120685 -1.7991888109393794 2.7740699833404907
4026 0.5694123116960677 -0.46954313405452186 -6.29514236639497
2831 -0.8878547247652754 -2.304542845049745 -0.029149130462765075
3157 -0.7125302514515718 -1.619383111239706 0.15353771630902233
3119 -2.4645892588100153 -2.877225609354552 0.04598269687099623
3445 -0.07494807269456394 -3.003233825972427 -3.3335649126585487
3407 -3.2479054484044814 -7.286537794824763 -1.2667855492360114
3733 -0.882935366292087 0.11659114167288313 3.673505476419305
3695 -0.8408016713934693 -2.270688210553588 2.6922622194216914
4021 0.8939754375846954 3.636461844530855 2.5923364131667044
3983 5.153518964125609 2.2907617427995173 -0.8985627700811093
3156 3.4010985865513224 -0.2991911269741932 -2.844725132621176
2867 4.777278022888875 -3.5766648115549584 2.459305354177617
2870 -0.577915342610101 0.23834596629372362 2.4122196118610866
2905 -0.8260872113075465 0.9534900119459708 -4.630411490780421
3444 -4.758021975783295 1.702783383340795 -4.01482452824942
3158 -3.1772263562053444 -2.2508312422945274 -1.1134736234780414
3155 1.1727280370889832 -1.6490386952911136 -3.3967029109070657
3193 -6.042283721315179 3.266043560960472 1.9994254160715321
3732 3.8901504171161214 1.2585504887803651 0.9824663026742554
3443 -2.599644979003207 -0.04538054345087996 2.8540965556727533
3446 1.944751230221331 -2.9163195087846923 0.4411490511523697
3481 0.3278344768332102 -1.5917590648070543 -0.5059880078125611
3769 -0.6301482675291674 -0.17386157749116654 0.8297722023886299
4020 -2.146805924496575 -0.4819254627020783 -2.1197113702474604
3731 0.9738459157652404 -0.24937662747115202 1.929299220457656
3734 1.7635630098245152 5.138492082769241 1.4424944650749536
4022 0.8103918279997817 -2.9881750145021932 -2.9792135226235823
4019 1.1709636664407725 -1.5103732490811537 1.2048795668019396
4023 -0.3771255428186319 -1.5761317088821236 -0.5367988275687025
3447 -1.6603904202580566 1.8888755919714193 -2.234961842068508
2766 0.6482918175710195 2.9851362876773777 -1.947059315081981
3052 4.073565907507888 0.9137047678457827 1.529170349337832
3054 0.6953275151244448 -0.970089149323276 0.26591464988457375
3340 -3.8222796660091976 -1.4557656763520677 -0.005114262629660462
3342 -5.041771508689591 0.3857556219355201 -0.8329156403854148
3628 1.9721692870446297 0.45607675811849685 -2.2505313038213766
3630 2.425657997562535 -1.3457524624648904 -2.4930122373403614
3916 -0.7712004632523978 -3.3445362337856475 0.9604666344777638
3918 -0.5253931268000614 0.1592430076519956 3.337945963392225
2763 -1.7856432938711988 -0.34386568004865603 -1.9585564113085543
3089 -4.390583805258934 -5.512764159904574 4.857617266360901
3051 0.7637959826379571 -2.541101256621955 -2.206810557569715
3377 1.9732195854839498 -0.2270516565633575 -4.5828097907008605
3339 5.049839025514042 -3.5891600659299034 1.194640613120862
3665 2.84059350072716 0.36929085498020253 1.4335387774746406
3627 -6.481117902596063 -1.2623194826572033 2.842683070596222
3953 -0.5884431396896742 -1.4993724616102173 -2.22704111480732
3915 -0.5631130585485229 -3.8313226029026572 3.8281279502505465
3450 0.4635526183855544 -1.267070926559917 5.301558313622987
3088 1.7130223567892384 3.2191319501000226 1.1271430413109056
2802 2.937622634580455 1.5332236369110586 -2.6635179537469686
2799 -2.6803373032046784 4.275132133491561 -1.0908197420795314
3125 -0.8956496687582903 0.14369958496329835 1.0419309557231051
3376 -2.061862365233803 3.588679635191494 0.5242091156857627
3087 2.850504351224184 -4.7720673110761025 1.0934827694946594
3090 -2.4903625680948007 0.7347618451797245 0.7664736088669565
3413 1.2816246395129005 -0.8882273019622625 0.7900843671710046
3664 -2.4353841910506318 6.099151725594334 3.274636836253653
3378 -2.7315481604709473 3.926545996133538 -1.632236485876941
3375 0.5525164024178366 -1.737119333353015 -3.886818168826567
3701 0.8839670646742664 -2.148352747937832 -1.3382805634587684
3952 -1.248952313205098 -1.9378339223718286 -3.2399930507783665
3666 0.7380089529795856 0.12720241642527516 -4.1549740498310825
3663 1.5298799327425139 1.92141930968435 -0.3044485950114309
3989 -3.1346234609082435 1.1652648629059688 0.6499186399036334
3954 -3.0253564666349377 -0.7027838092347803 1.3458423832102824
3951 0.8747141584443218 -0.7287549921398254 -0.746521622980235
2838 4.574472918867971 -0.57985284932329 -0.7510440282590727
3124 2.3234719622948203 -0.5584432011413527 -0.8494490589185693
3126 -0.7473388491627189 1.4519325375961183 -0.37805304356184294
3412 -2.3953403105463202 -1.5794435553627644 -2.602098344867677
3414 5.437326823866952 -1.2543468089277172 0.895211754141421
3700 -1.1394740304662092 -1.4171588984702215 0.20756164827937115
3702 1.1630137644545784 -0.9827786524647355 2.4458217376463396
3988 -4.108534129792382 2.942397766404834 0.03833313883828245
3990 3.6016547890970645 -0.9413606585453649 -0.019262128576968393
4024 1.893046367404829 0.21839486363355212 1.4846677673104292
2835 -2.353666753937241 7.361141280030016 0.37680341041029086
3161 -2.1048483672005003 2.099449680990483 -0.3828946165039632
3123 3.9511367000779103 -1.1409089408145974 -3.4729589302920374
3449 -2.534094500465284 -2.376105950489591 1.5729549907043763
3411 -4.83703103449308 1.5164896714693599 -0.4136238461878297
3737 1.64137102166251 4.9842459792614875 -1.5379287909601953
3699 -3.604535322155878 -0.9718201619771322 3.69666475940171
4025 1.7209340709750058 3.2514983222262654 1.447038463500188
244 4.930583620966326 -2.9634352913688353 -3.17205167939882
3987 1.9881449126748958 1.3432913389494479 2.5363868544488275
2909 -4.489867490709028 1.9094608733093899 -2.187397843663462
3160 -0.518496498719357 -5.5637168609637735 -0.26211792045323923
2871 2.483200285602661 -2.9462943196996614 0.27410456202626454
2874 0.1211758510033582 0.2713066619617739 -0.10536098964633539
3197 -2.079990997392279 -2.427545831927174 0.38467152372556424
3448 -0.08060468259821237 0.77070133347905 -0.39102474007251975
3162 -2.203253683914842 0.9278522958476446 -0.26138810495626036
3159 4.699899633045097 0.2628429976806554 -0.5965669032671259
3736 -2.104831890474898 2.989463280880507 3.3815323273343134
240 -0.8492194714506752 -1.4254435986696146 -0.1253924429964764
280 0.12461581713294813 -1.9233886856912377 0.48010534932805676
281 -1.0434459185132978 -2.3977671591841228 -0.4177829978536622
205 -0.509111526235117 -2.819975151566521 -0.6216834302373907
241 1.5385634919309643 -3.7806456511478066 -5.7112976987205775
204 1.9720774818611417 1.3829108144303797 -2.3590992127878105
208 -2.772913465770602 -3.0125395756931854 -1.2153715982522455
172 1.6389450724017012 -0.7227948162961562 0.14974058672632026
25 -1.3212124165180537 -0.8000058334042279 -1.0844839776113435
2770 -2.485576227968588 -2.803573224802123 1.8748482924901784
3056 3.987670797617492 -0.2940033173281216 1.364383416434675
3058 -2.773548132675689 4.975480566578371 3.687711230211007
3344 2.586232965992287 -0.7329391863907848 2.9818069968526077
3346 -2.17751477678094 -0.472761018038576 2.16660081606942
3632 2.806702789371335 -1.3515263668066793 0.8162853978830602
3634 2.758733633738651 3.87456321762971 0.5343627012265434
3920 1.2905444008365925 -1.144850448646845 -1.3148918620648267
3922 -0.13451510857839677 -0.7269149619546591 -0.7592405866203165
2767 -2.318290569910608 -1.0855913469956813 -4.568382270132073
3093 0.0012432227541796256 2.3843605177026044 -0.199303906780115
3055 -2.802266652873606 -0.820937801607685 -0.20097160383837273
3381 -0.63051833147109 1.9475163001527596 0.6645148475433404
3343 4.455605671445133 2.2093471734651007 2.430050271550546
3669 -2.594663223988127 -1.0816975033252814 1.1507582021071034
3631 1.1792300285482589 2.111576348050514 2.4416712570114516
3957 3.099808617552932 -0.9406797750107985 -2.7164549664043585
3919 1.7279681104462812 -0.2714322481932479 0.9856005365176096
3092 0.8415901361469033 -0.15291069736445795 -0.5236086267767722
2806 -4.150606909787484 0.9202901896367277 -0.15026746505151542
2803 2.4058107673711304 1.400136100795611 1.4598794213538147
3129 0.3360044687744969 -0.8492679081399384 1.3518832805243381
3380 -0.16652726710362875 0.7465379889946421 -7.164416225737273
3091 -2.8444171744351467 -1.1997703414949255 -0.5380436219395576
3094 -1.1781015358887725 0.47078319937842755 0.8703348286641724
3417 1.8304186812863252 -3.0587382543246715 2.741928912107473
3668 -2.5013938677260974 -0.8300369251038393 0.20071815208282942
3382 -0.05272025963592264 -1.5194173776466655 -1.80779240661721
3379 0.38259019425123225 -0.2845340758391813 1.5200835181264283
3705 -0.3639917098172988 -0.6320901332582555 -2.703149418951821
3956 -0.11023730716192502 -0.6492181550152807 3.19388115502872
3670 10.483326966057017 0.5156209720409252 0.9500894903817515
3667 -2.032891781469519 3.588599779078398 0.5280371409005924
3993 -1.6998089171984538 -1.7835285438662836 -2.281750424985635
2738 0.4771543339331266 -1.7535291989496529 0.3930136918830305
3958 -0.9704937871143117 -0.22828193339656003 0.9205915361743003
3955 -0.94391106511583 -2.2709128645453713 4.5642929097286355
2842 -2.834578600836431 -4.046630602625888 -0.13527763081243113
3128 -0.5606675349054666 -3.0209216117078594 -0.07345507690434161
3130 -0.524891609113152 -4.593233390516795 1.6222549568079765
3416 1.4179556656631933 0.46810754480039724 0.5026374338459633
3418 3.1261415088407607 -2.8997434362890413 -0.7895267151559145
3704 -0.13869410021377515 -1.3827770509611925 1.7049734989976757
3706 -1.3859930609400006 -3.229214560374989 0.10389378202730623
3992 -2.6060434135099078 -0.7635564093627033 -0.9414740550235476
3994 0.8884239810389299 1.26217799236686 -2.844004182603485
3062 -1.1916956988367622 -3.346257150321484 0.19493337791905135
2839 2.6293062282690665 -1.9737862198918683 1.3513335805535116
3165 -1.8947128480522477 -0.07980102321457987 -0.4490705744539244
3127 2.805857361452902 0.35277680937568984 0.7737915181412924
3453 -0.666096857639977 2.1557235800593326 0.008779844508833675
3415 -0.9250486073071809 -2.5116692264930123 -3.625245736613687
3741 4.885238674647993 2.8225450986720904 1.6654095456816267
3703 -3.7485713368429834 -0.7249527551652271 1.3375158322654743
4029 -1.6331387804213489 -2.8217001687516534 -2.6072847664881613
3991 1.7941550528249945 -1.9074249147575555 6.780266629336786
3638 2.254401899010523 -2.1423533111050928 -1.4935362757915425
2913 -2.6795253453930403 -0.006443259453529482 -2.626085400456162
3164 0.45772103662922975 0.6679825111549356 -2.8619424252737993
2875 0.2113877727060959 2.014721095596365 -1.129328584486059
2878 -3.6800928141852203 1.7848421794296507 2.53257340183926
3452 -3.2587597244614495 -2.7372217732260977 0.9077485372945924
3166 -0.5864417697220751 1.1991162238236208 -2.421611994734603
3201 1.3898558431170784 2.867631551294438 0.00539413850370619
3163 -1.6770220380777792 -1.0431629746011397 1.7744830198261492
3451 -2.0357701150968692 -1.4530374941139743 -0.31607776358331774
3454 -1.7294737255537787 1.4494805870196947 4.23054083029772
3740 -1.4507740883802724 -0.019762271392127752 -1.4192843739456225
3489 3.9153705635949767 1.9921575644468044 5.112557980438854
4028 2.7856248947211806 0.7135395972201577 -0.6653575987595188
3777 5.774195027864766 -0.8823426245618317 -1.0979849530572492
3742 -0.29095989122123134 -0.09676739386918885 1.8860665482968177
3739 0.34675404394405207 -2.6559649594398023 -0.5188199805100383
4027 3.4900946446769514 1.5827760918774856 -1.9695299932113821
4030 1.6362124939672182 -0.030550043855133775 3.4893872550694085
4031 3.259999659847417 1.0233702434467216 0.3189726384010953
3060 2.645896924455208 -0.5101756967721419 -5.6128757060005645
3350 -2.6881789296061087 -0.6181207854814276 -2.296667447479575
248 1.7668295439367818 1.1143042047166085 3.886714480187818
3348 2.4435457492282784 -1.346486821130428 -3.418647896032577
3636 2.859865312094709 1.2111362425834737 -0.41958065801518757
33 4.638054309419377 -1.0588075148624 2.1765198987819123
3924 -3.1115416406979364 0.20415088087420227 -1.2929274286582326
3961 -2.1632552239174 -0.6006426854939839 3.351592819642815
213 2.1928277156087077 -0.7939294058287771 -0.2879318148311526
2771 1.9141426996015052 0.5283859961672258 0.49698251979788755
3673 -0.8984589205549072 -0.24052221833723253 5.540171586479963
3059 -0.3267444978163048 2.2760342816769152 -3.0756919378916683
3347 -2.385894346235626 0.9581862637517488 -0.9892707114875904
252 2.636080662356576 1.1573254422829669 0.7256153791644121
3635 2.0972876475392725 0.564790240305119 2.2101252137239493
284 0.9923423672358948 1.2668557144681805 1.3108591657349324
3923 2.9002748308437467 -3.0117104450780894 3.89871389258407
3637 -1.3308685675118306 1.5711439001223169 0.8375817983870129
3096 -1.4675733943874583 -2.99873914353797 0.34992560755251534
2807 0.27169478635485667 -0.9651984858860096 4.687073211743408
3384 -2.2183497544156547 -3.260610858878518 0.5079338985975234
3095 -2.7176773312194964 -1.2054714081053934 0.4447972818858505
285 -1.4323183369807237 -1.0867037680278655 -0.22143141943590106
3455 1.0942917038625148 1.6001754997100845 1.7231195129656973
3672 -3.83077102147343 -0.08064018194971549 -2.082765321420761
3383 2.3092860873740135 -1.422590402681992 4.840217165330207
3167 -1.2086827002878207 1.3638380685671805 -0.6390406709276811
3456 1.880008376562151 1.320243495726658 -1.7088555267435106
3671 1.055409198984077 -0.7712823292658066 2.097459013165778
3960 3.926310728243671 4.710881935866793 1.8168708655593837
253 -0.6222099635786831 -1.452721547222235 0.7628335595817354
3959 -4.561968922494411 2.4580519744223746 1.0185744437187965
3743 -3.509718518008391 -2.0038929661372147 -1.4425864868183766
3132 1.6557205885521642 0.5045920897829472 3.548660729957526
3420 0.3515728179440886 2.2126557742668638 0.4240692701055382
3708 3.3599094948863235 -2.943710377835685 2.856275148999903
3996 5.776141929333798 0.07700530331090615 0.8304478428525554
2879 5.041092271414437 -5.850513664308298 -3.4735837491767825
2843 1.349140050066585 -0.46644514143172555 1.9356956610510458
3131 -4.127828492358893 2.4080956702262015 1.6428289045927371
3419 -1.0720300634311 2.137539940002604 5.655120337187048
3707 -1.030727836788167 1.7620073037226727 2.897155423811942
3744 4.597521089816723 1.4370600873970265 -1.0652833533005002
4032 1.703110090762107 -2.7905184530307743 5.026298092131274
3995 4.281296003033015 1.9698168421943945 5.302383277415573
3168 1.1114876151227646 1.1424596818876946 4.006990635512961
249 2.0738166627491283 -0.11446988636223059 -1.9217891176440334
3962 0.30815345377278414 -0.09672170252210936 1.1221806213220253
3710 4.286454860494054 0.28533589965920275 2.866928837588659
3133 2.2549261797015725 -3.0992246966944514 -1.0231148308192652
3061 1.10745549346124 2.0375419836044504 -2.218776679210119
3385 -0.06454944009392893 2.745908626313258 3.209705339268543
176 -0.2522395691435283 0.2428974786816092 0.19896597009680533
288 1.155974816954855 4.410135550242228 0.5627586835782348
2846 0.13120418519858293 1.472592173410926 -0.8872768440819047
3422 -2.155841529382709 -0.547620637234538 -3.07075403379582
3997 2.1475432625141018 -1.448969562207916 -3.0502587863189543
